! Touchstone file exported from HFSS 3D Layout Design 2026.1.0
!        File:           D:/Work/ADS/HFSS_VERDICT/hfss_sma_connector_cpw.aedt
!        Generated:      11:52:03 AM Aug  6, 2026
!        Design:         SINGLE_END_SMA_CPW_30MM
!        Project:        hfss_sma_connector_cpw
!
! Variables:
!        $sma_Base_D = 6.25mm
!        $sma_Base_L = 8mm
!        $sma_Feet_L = 4mm
!        $sma_Feet_W = 1mm
!        $sma_Front_L = 1.5mm
!        $sma_Front_W = 6.5mm
!        $sma_Hole_D = 1.25mm
!        $sma_PTFE_D = 4.2mm
!        $sma_Pin_D = 0.95mm
!        $sma_Pin_P = 1.7mm
!
# GHz S MA R 50.000000
! Terminal data exported
! Port[1] = Port1
! Port[2] = S1_1_Pin_T1
0.5                            0.0682635852080371 -131.380662005539 0.987709040855626 -41.7008897669259 0.987709040855626 -41.7008897669259 0.068521347014879 -133.972407001969 
0.6                            0.0792856015162928 -139.688802572028 0.985350683921213 -49.941887321904 0.985350683921209 -49.9418873219041 0.0795037627574564 -142.611238417452 
0.7                            0.0890932870957854 -147.968957473744 0.983019681432844 -58.162332800539 0.983019681432839 -58.1623328005391 0.0892272992268123 -151.102132888347 
0.8                            0.0975800225746908 -156.254522337172 0.980763774467388 -66.3643170295276 0.980763774467384 -66.3643170295276 0.0975929946174225 -159.451514749902 
0.9                            0.104658173131167 -164.573918266148 0.978622470484076 -74.5502779359215 0.978622470484074 -74.5502779359214 0.104521783260164 -167.657278372378 
1                              0.110260960643272 -172.954798645736 0.97662705862787 -82.722872736466 0.97662705862787 -82.7228727364659 0.109955470457854 -175.709930466227 
1.1                            0.114343692669677 178.573163876314 0.974800548127857 -90.8849334673042 0.974800548127858 -90.8849334673041 0.113858282587223 176.40724882907  
1.2                            0.116884734087657 169.976024315664 0.973157134263071 -99.0394232073282 0.973157134263073 -99.0394232073282 0.116218526373664 168.718862413448 
1.3                            0.117886654510502 161.213281351761 0.971701546016542 -107.189364520538 0.971701546016544 -107.189364520538 0.117050407510347 161.258913053436 
1.4                            0.117377937585224 152.235118883286 0.970428630321802 -115.337739558442 0.970428630321802 -115.337739558442 0.116396330270778 154.073307215572 
1.5                            0.115415639381933 142.978741645896 0.96932338425201 -123.487371936938 0.969323384252011 -123.487371936938 0.114330159064206 147.223548245157 
1.6                            0.112089480656341 133.363318161441 0.968361520562122 -131.640802909038 0.968361520562123 -131.640802909038 0.110962077205151 140.791875414825 
1.7                            0.107528082943211 123.282980617469 0.967510568011022 -139.80017348289 0.967510568011022 -139.80017348289 0.106445893690947 134.888042057136 
1.8                            0.101908441217445 112.597416259426 0.966731455907073 -147.967122231063 0.966731455907073 -147.967122231063 0.100989930963799 129.657478731065 
1.9                            0.0954702477648417 101.120276435457 0.965980499145677 -156.142706447136 0.965980499145677 -156.142706447136 0.0948728175881384 125.289087241991 
2                              0.088537069453326 88.6081706069603 0.965211676608706 -164.327352255418 0.965211676608707 -164.327352255418 0.088464964530705 122.016891157801 
2.1                            0.0815454521803707 74.7603016654959 0.964379077834889 -172.520837264606 0.964379077834889 -172.520837264606 0.0822533345268338 120.10089453517  
2.2                            0.0750771228155162 59.255409443599  0.963439379600187 179.277692678266 0.963439379600187 179.277692678266 0.0768572811753278 119.758730297838 
2.3                            0.0698708985164862 41.8761955519314 0.96235420695806 171.069673153639 0.96235420695806 171.069673153639 0.0730030733414348 121.017360720679 
2.4                            0.0667565221813498 22.7566816726444 0.961092234791975 162.857039853218 0.961092234791976 162.857039853218 0.0714076387661705 123.516040377653 
2.5                            0.0664450824644752 2.62539641062169 0.959630898157964 154.642120853935 0.959630898157964 154.642120853935 0.0725628203423338 126.442005454274 
2.6                            0.0692348938849383 -17.3139173419647 0.957957603516063 146.427508771207 0.957957603516062 146.427508771207 0.076539704333025 128.798426225402 
2.7                            0.0748800325022868 -35.9578914313932 0.956070367367503 138.215920372749 0.956070367367503 138.215920372749 0.0829855250823315 129.844459932084 
2.8                            0.0827579303482065 -52.7736089908418 0.953977850841033 130.010051957123 0.953977850841033 130.010051957123 0.0913077786573044 129.302183538861 
2.9                            0.0921470734454116 -67.7677399838431 0.951698803838963 121.812438868998 0.951698803838962 121.812438868998 0.100875805660999 127.250010393692 
3                              0.102402022556762 -81.2114246011284 0.949260975153834 113.625326931077 0.949260975153832 113.625326931077 0.111131806401185 123.925796172976 
3.1                            0.113004088895123 -93.4289416014634 0.946699580496952 105.450562402265 0.946699580496951 105.450562402265 0.121620658993607 119.593522396838 
3.2                            0.123551241415985 -104.706602222475 0.944055444908328 97.2895054762843 0.944055444908328 97.2895054762843 0.131981928276137 114.486240387125 
3.3                            0.13373321994482 -115.271734094768 0.941372947717926 89.1429705108882 0.941372947717927 89.1429705108882 0.141932221589183 108.792268577281 
3.4                            0.143309182132608 -125.298304264398 0.938697897347176 81.0111943285702 0.938697897347177 81.0111943285701 0.151248855692877 102.658701497832 
3.5                            0.152091298328731 -134.918852512489 0.936075451800906 72.8938322326009 0.936075451800906 72.8938322326009 0.159757355180671 96.1996115111351 
3.6                            0.159933446880995 -144.235700842975 0.933548181879676 64.7899799646771 0.933548181879675 64.789979964677  0.167322469395666 89.504181198448  
3.7                            0.166723518892808 -153.329784684614 0.931154351520587 56.6982187597624 0.931154351520588 56.6982187597623 0.173841830084872 82.6434316581465 
3.8                            0.172378148369813 -162.267206388345 0.928926466550685 48.6166799400772 0.928926466550687 48.6166799400771 0.179241491429755 75.675456936347  
3.9                            0.176839091595962 -171.104025903446 0.926890122055531 40.543125100096  0.926890122055532 40.5431251000959 0.183472833019919 68.6494332030417 
4                              0.180070791346747 -179.889796570246 0.925063161099167 32.4750378084562 0.925063161099169 32.4750378084561 0.18651050675846 61.6087145411477 
4.1                            0.182058866939236 171.329752146623 0.92345514430849 24.4097228234606 0.923455144308491 24.4097228234606 0.188351246235461 54.5932765732208 
4.2                            0.182809398701194 162.5105901847   0.922067120733737 16.3444090241336 0.922067120733738 16.3444090241336 0.18901344262179 47.6417008888195 
4.3                            0.182348953044158 153.6086122691   0.920891684818664 8.27635254806443 0.920891684818666 8.27635254806444 0.188537439515263 40.7928280369146 
4.4                            0.180725341374254 144.578073519052 0.919913301437306 0.202936961727389 0.919913301437307 0.202936961727437 0.186986520682143 34.0871447745672 
4.5                            0.17800913344988 135.370157801831 0.919108879908163 -7.87823236278792 0.919108879908166 -7.87823236278789 0.184448562515008 27.5679042732939 
4.6                            0.174295955956335 125.931672546476 0.918448577825437 -15.9692421572095 0.918448577825439 -15.9692421572094 0.181038291857383 21.2818939828395 
4.7                            0.169709592024159 116.203965437551 0.91789681559275 -24.0717956530298 0.917896815592754 -24.0717956530297 0.17690001301407 15.2796507084745 
4.8                            0.164405833208959 106.122320331159 0.917413481811574 -32.1871494331074 0.917413481811575 -32.1871494331075 0.172210514285033 9.61476458683495 
4.9                            0.158576872434245 95.6163484572048 0.916955307255697 -40.3160645412614 0.9169553072557  -40.3160645412613 0.167181588280993 4.3417171553208  
5                              0.152455677839557 84.6122740699992 0.91647738027546 -48.4587735274588 0.916477380275462 -48.4587735274588 0.162061152193439 -0.488486442513989 
5.1                            0.146319130100976 73.0384852601705 0.915934768720198 -56.6149649718547 0.9159347687202  -56.6149649718547 0.157131324826386 -4.83565687088819 
5.2                            0.140487633873468 60.8360525639354 0.915284203103137 -64.7837868129946 0.915284203103137 -64.7837868129946 0.152701140182677 -8.68106610200084 
5.3                            0.135317531391957 47.9754888653084 0.914485763862327 -72.9638694255566 0.914485763862327 -72.9638694255565 0.149091288658618 -12.0404474963138 
5.4                            0.131181670142471 34.4787568260809 0.913504504122751 -81.1533687923102 0.913504504122751 -81.1533687923102 0.146609197327315 -14.97611300966  
5.5                            0.128434636387608 20.4406303939085 0.912311930810363 -89.3500292772606 0.912311930810363 -89.3500292772605 0.145515741869413 -17.6025063331195 
5.6                            0.127364612601197 6.03767469799994 0.910887263826437 -97.5512644717519 0.910887263826439 -97.5512644717517 0.14598969456953 -20.0791909529203 
5.7                            0.128143266773424 -8.4876016077811 0.909218397221613 -105.754253447392 0.909218397221612 -105.754253447392 0.148100159666059 -22.5894016835324 
5.8                            0.13079245457189 -22.8691693292066 0.907302498784108 -113.956048643706 0.907302498784107 -113.956048643706 0.151796853054268 -25.3098528910389 
5.9                            0.135182929150285 -36.870581525297 0.905146204635275 -122.153690693351 0.905146204635275 -122.153690693351 0.156921710434525 -28.3829809652649 
6                              0.14106506944894 -50.324651156162 0.902765391354286 -130.344324876838 0.902765391354284 -130.344324876838 0.16323669495126 -31.9012230782165 
6.1                            0.148116683467581 -63.1458311774   0.900184536787581 -138.525313693339 0.900184536787578 -138.525313693339 0.170457687756676 -35.9057872791983 
6.2                            0.155989629143328 -75.3189757509053 0.897435708476435 -146.694340266564 0.897435708476434 -146.694340266564 0.178285264276615 -40.3957586061992 
6.3                            0.164344187187331 -86.8773825240474 0.894557242159562 -154.849497943593 0.894557242159562 -154.849497943593 0.186427519877284 -45.3412302389577 
6.4                            0.172869120466855 -97.8812467442311 0.89159218946263 -162.989362403664 0.891592189462627 -162.989362403664 0.194614309510212 -50.6956827644707 
6.5                            0.181290507086014 -108.401689881762 0.888586622260457 -171.113043750219 0.888586622260457 -171.113043750218 0.20260456727859 -56.405411654119 
6.6                            0.189373575009328 -118.51093524952 0.885587881217766 -179.220217276515 0.885587881217763 -179.220217276516 0.210188940580324 -62.4157060737254 
6.7                            0.196920918095451 -128.277224036373 0.882642848807157 172.688867253859 0.882642848807156 172.688867253859 0.217189640591248 -68.6743741651022 
6.8                            0.203769232196041 -137.762778813062 0.879796314647231 164.613396984565 0.87979631464723 164.613396984565 0.223458838146631 -75.133410494121 
6.9                            0.209785737106743 -147.023491768734 0.877089485681182 156.552026415814 0.877089485681181 156.552026415814 0.228876436815564 -81.7494876950848 
7                              0.21486484721579 -156.10947845685 0.874558677879078 148.502924826826 0.874558677879078 148.502924826826 0.233347714274501 -88.4837599622071 
7.1                            0.218925329235528 -165.06599955116 0.872234211773371 140.463838292328 0.872234211773371 140.463838292328 0.236801118732575 -95.3012921361369 
7.2                            0.221908029176601 -173.934489003113 0.870139522625957 132.432163822577 0.870139522625954 132.432163822577 0.239186394056559 -102.17030198019 
7.3                            0.223774183568757 177.246433976054 0.868290488119522 124.405033195139 0.868290488119526 124.405033195139 0.240473145604002 -109.061321799506 
7.4                            0.224504304952135 168.440015722977 0.866694972284807 116.379404150557 0.866694972284808 116.379404150557 0.240649920985891 -115.946337722796 
7.5                            0.22409762394571 159.610490338695 0.865352583507266 108.352156731484 0.865352583507267 108.352156731484 0.239723849096479 -122.797940310289 
7.6                            0.222572067411421 150.722266345108 0.864254646080076 100.320192604398 0.864254646080074 100.320192604398 0.237720847277976 -129.588511312404 
7.7                            0.219964748357036 141.739169378577 0.863384387776501 92.2805351787532 0.8633843877765  92.2805351787534 0.234686365695948 -136.289474134192 
7.8                            0.216332934761032 132.623742165855 0.862717349020517 84.2304282133382 0.862717349020515 84.2304282133382 0.23068658802312 -142.870648157585 
7.9                            0.211755448046046 123.336624558209 0.86222202108996 76.1674303782957 0.86222202108996 76.1674303782959 0.225809947999012 -149.299769761442 
8                              0.20633441218191 113.836073847813 0.861860720091692 68.0895029506924 0.86186072009169 68.0895029506924 0.220168752187201 -155.542277109622 
8.1                            0.200197222133837 104.077745696139 0.86159069908858 59.9950875111479 0.861590699088581 59.9950875111479 0.213900618874535 -161.561502996358 
8.2                            0.193498510170036 94.0149466496222 0.861365491973308 51.8831702481119 0.861365491973308 51.8831702481119 0.207169347616205 -167.319479029397 
8.3                            0.186421737347026 83.5996945260585 0.861136469254696 43.7533293485661 0.861136469254696 43.7533293485661 0.200164717452418 -172.778615881879 
8.4                            0.179179797292981 72.785070942952  0.860854568354388 35.6057620479234 0.860854568354385 35.6057620479236 0.193100571829227 -177.904561416421 
8.5                            0.172013671990447 61.5294678732157 0.860472140663623 27.4412883081776 0.860472140663622 27.4412883081776 0.186210401271486 177.329505413351 
8.6                            0.165187756411761 49.8032856936457 0.859944836704514 19.2613288480972 0.859944836704514 19.2613288480972 0.179739544909179 172.93710419565  
8.7                            0.158980129450496 37.5981978707025 0.859233432197661 11.0678563776579 0.859233432197661 11.0678563776581 0.173933243100073 168.911659810035 
8.8                            0.153666169436944 24.9379839535247 0.858305484904238 2.86332035193799 0.858305484904237 2.8633203519379  0.169020308335011 165.219935437189 
8.9                            0.149495072430145 11.8881267449875 0.857136707799323 -5.34945274158773 0.857136707799323 -5.34945274158755 0.165193335400428 161.797819589468 
9                              0.146661453517599 -1.44038749809835 0.855711950579473 -13.5673797672404 0.855711950579473 -13.5673797672406 0.162588055698206 158.550980311535 
9.1                            0.145277771851314 -14.8976297097273 0.854025699381007 -21.7872565269973 0.854025699381006 -21.7872565269977 0.161266009785962 155.362067008944 
9.2                            0.145355767718345 -28.3129022577785 0.852082032743247 -30.0059017050215 0.852082032743246 -30.0059017050218 0.161205067139454 152.103899162209 
9.3                            0.146803839574069 -41.5200417895063 0.84989400736828 -38.2203014225336 0.849894007368276 -38.2203014225343 0.162300674572577 148.655415628398 
9.4                            0.149441841185194 -54.3811703521726 0.847482485856968 -46.4277463222255 0.847482485856968 -46.427746322226 0.164377525943612 144.915816899133 
9.5                            0.153028220251478 -66.8011563439173 0.844874455572526 -54.6259533643015 0.844874455572522 -54.625953364302 0.167208303121414 140.813315307913 
9.6                            0.157290940238361 -78.7302842846408 0.842100918773807 -62.813165310097 0.842100918773804 -62.8131653100975 0.170534866080657 136.307458471788 
9.7                            0.161954673985717 -90.1578820971786 0.839194456163335 -70.9882220570713 0.83919445616333 -70.9882220570719 0.174088064244339 131.386366106945 
9.8                            0.166760398571459 -101.101791406599 0.836186577880658 -79.1505993910157 0.836186577880651 -79.1505993910163 0.177604217409542 126.061257081138 
9.9                            0.171477014278928 -111.597755175116 0.833104978623412 -87.3004121525049 0.833104978623412 -87.3004121525051 0.180838037941875 120.360382541369 
10                             0.175906574859021 -121.690875144134 0.829970809587244 -95.4383801222932 0.829970809587244 -95.4383801222932 0.183572668442224 114.323624269731 
