! Touchstone file exported from HFSS 3D Layout Design 2026.1.0
!        File:           D:/Work/ADS/HFSS_VERDICT/hfss_sma_connector_cpw.aedt
!        Generated:      02:26:53 PM Aug  6, 2026
!        Design:         SINGLE_END_SMA_CPW_30MM
!        Project:        hfss_sma_connector_cpw
!
! Variables:
!        $sma_Base_D = 6.25mm
!        $sma_Base_L = 8mm
!        $sma_Feet_L = 4mm
!        $sma_Feet_W = 1mm
!        $sma_Front_L = 1.5mm
!        $sma_Front_W = 6.5mm
!        $sma_Hole_D = 1.25mm
!        $sma_PTFE_D = 4.2mm
!        $sma_Pin_D = 0.95mm
!        $sma_Pin_P = 1.7mm
!
# GHz S MA R 50.000000
! Terminal data exported
! Port[1] = Port1
! Port[2] = S1_1_Pin_T1
0.5                            0.0808088514755588 -132.751969849477 0.986647107177583 -41.8387223908488 0.986647107177581 -41.8387223908488 0.0811580403010817 -132.740896992699 
0.6                            0.093933247621891 -141.301571048262 0.983933591246834 -50.097176369846 0.983933591246831 -50.0971763698462 0.0942566034291071 -141.078680423439 
0.7                            0.105658554037869 -149.832426841043 0.981235150259142 -58.3295147661454 0.981235150259138 -58.3295147661455 0.105913843232839 -149.266338466642 
0.8                            0.11586462047753 -158.377060297424 0.978624597644681 -66.5387344556875 0.978624597644678 -66.5387344556875 0.116017011648932 -157.306850700514 
0.9                            0.124453280300511 -166.964236262598 0.976157105381692 -74.7280171205674 0.976157105381691 -74.7280171205674 0.124477265406716 -165.195015626254 
1                              0.131350439568979 -175.62266418123 0.97387582636782 -82.9007175338768 0.97387582636782 -82.9007175338768 0.131231122167767 -172.918798914095 
1.1                            0.136507414101568 175.616423207761 0.971813277852668 -91.0604090958237 0.971813277852669 -91.0604090958237 0.13624190572472 179.540417237259 
1.2                            0.139901968679631 166.717150942166 0.969990788100142 -99.2108780047947 0.969990788100143 -99.2108780047947 0.139501141342228 172.208480621707 
1.3                            0.141539645099378 157.636880220363 0.968417435293217 -107.356050048542 0.968417435293218 -107.356050048542 0.141030311374809 165.119939841245 
1.4                            0.141455924260682 148.32371494287  0.967089231551969 -115.499864666745 0.967089231551971 -115.499864666745 0.140883521596855 158.320332912798 
1.5                            0.139719745071562 138.713305371935 0.965988893376181 -123.64611734113 0.965988893376182 -123.64611734113 0.139151671219031 151.869322390543 
1.6                            0.136438966567603 128.724641493002 0.965086317900057 -131.798289784916 0.965086317900059 -131.798289784916 0.135968768820101 145.844665751543 
1.7                            0.131768530133512 118.254618367905 0.964339772208408 -139.959384030424 0.964339772208408 -139.959384030424 0.131521113705761 140.346780492182 
1.8                            0.125922335963461 107.171502945919 0.963697745934741 -148.131773335874 0.963697745934741 -148.131773335874 0.12606008273803 135.502995813807 
1.9                            0.119190049721429 95.3084885629899 0.963101383426595 -156.317080230195 0.963101383426595 -156.317080230195 0.119918914987151 131.468988898442 
2                              0.111959682880412 82.4612558621975 0.96248738429353 -164.516089826671 0.96248738429353 -164.516089826671 0.113532355989142 128.421646734175 
2.1                            0.104744357067389 68.399456345014  0.961791233431058 -172.728704469548 0.961791233431058 -172.728704469548 0.107453627247711 126.53238010325  
2.2                            0.0982038853931147 52.9119660332824 0.960950593391484 179.046056428216 0.960950593391483 179.046056428216 0.102353773579344 125.905920129684 
2.3                            0.0931346691051671 35.9117188197724 0.959908667140387 170.810009998598 0.959908667140388 170.810009998598 0.0989755282314281 126.479780148152 
2.4                            0.0903808432439871 17.5964857516814 0.95861732384529 162.565718436962 0.95861732384529 162.565718436962 0.0980132853646056 127.92419498465  
2.5                            0.090634954611385 -1.43857284632969 0.957039780626432 154.31635686784  0.957039780626432 154.31635686784  0.099933623441093 129.643539675746 
2.6                            0.094198681965185 -20.3187717169112 0.955152653642422 146.065547910146 0.955152653642421 146.065547910146 0.104829745034004 130.949604067678 
2.7                            0.100881090472962 -38.2398801696302 0.952947233622181 137.817172790903 0.952947233622179 137.817172790903 0.11241672578523 131.307426674868 
2.8                            0.110121406459692 -54.7551529326206 0.950429900940226 129.575170605398 0.950429900940225 129.575170605398 0.122163631734305 130.465433577424 
2.9                            0.121214159114174 -69.7911983205998 0.947621666558436 121.343338063015 0.947621666558434 121.343338063015 0.133457272279387 128.419517783554 
3                              0.13347931385905 -83.4974077564642 0.944556897979772 113.125141673467 0.944556897979771 113.125141673467 0.145714124700418 125.305119090275 
3.1                            0.14633572740732 -96.1006599813529 0.941281353576554 104.923552872971 0.941281353576551 104.923552872971 0.158428875224238 121.305567074439 
3.2                            0.159312295278266 -107.825071009367 0.937849695747122 96.7409142834225 0.937849695747118 96.7409142834225 0.17118341102001 116.60112149228  
3.3                            0.172034653813365 -118.862340161881 0.934322678225934 88.5788424760017 0.934322678225932 88.5788424760016 0.183639170250279 111.348683863829 
3.4                            0.184207246735342 -129.36728279566 0.930764204637084 80.4381696559686 0.930764204637081 80.4381696559686 0.195525317222691 105.677651156174 
3.5                            0.195597673978444 -139.462663774175 0.927238437065555 72.318923951822  0.927238437065554 72.318923951822  0.206627643473815 99.6924265578925 
3.6                            0.20602461541799 -149.246111060477 0.923807100810585 64.2203457473783 0.923807100810582 64.2203457473783 0.216779481825528 93.4768885089905 
3.7                            0.215348859301004 -158.796478987891 0.920527091570907 56.140935890261  0.920527091570904 56.140935890261  0.225854599916762 87.0988787497117 
3.8                            0.223466680954832 -168.178983945953 0.91744845079125 48.078530675605  0.917448450791249 48.0785306756049 0.233761712193786 80.6140705928409 
3.9                            0.230304960995185 -177.449140484765 0.914612739090301 40.030398171111  0.914612739090299 40.0303981711109 0.240440267934357 74.0691126931398 
4                              0.235817634687343 173.344277336084 0.912051809980879 31.9933505844588 0.912051809980878 31.9933505844588 0.245857274874189 67.5041287286122 
4.1                            0.239983223695957 164.15701140331  0.909786967896162 23.9638678115804 0.90978696789616 23.9638678115804 0.250005012812276 60.9546941696101 
4.2                            0.242803305169526 154.947636370442 0.907828485586146 15.9382278798042 0.907828485586145 15.9382278798042 0.252899554944456 54.4533977497486 
4.3                            0.244301830958817 145.676275206687 0.906175454765855 7.91264057116417 0.906175454765855 7.91264057116418 0.254580044156661 48.0310636724255 
4.4                            0.244525233439359 136.303621131601 0.904815948258736 -0.116619028511628 0.904815948258736 -0.116619028511722 0.255108669470857 41.7176738448523 
4.5                            0.243543251246847 126.790220761001 0.903727479221807 -8.15308002532073 0.903727479221808 -8.15308002532079 0.254571255625988 35.5429908625078 
4.6                            0.241450380003731 117.096021023093 0.902877750754779 -16.1999511447165 0.90287775075478 -16.1999511447165 0.2530783151836  29.536842312215  
4.7                            0.238367795864418 107.180235482984 0.902225694845183 -24.2600050775995 0.902225694845184 -24.2600050775995 0.250766314229935 23.7289859260488 
4.8                            0.234445503950774 97.0016478194077 0.901722801090234 -32.335474963206 0.901722801090235 -32.335474963206 0.247798766382281 18.148437386242  
4.9                            0.229864315643953 86.5195405851501 0.901314731387732 -40.4279665055603 0.901314731387733 -40.4279665055602 0.244366596983616 12.8221193571284 
5                              0.224837044499694 75.6955046538873 0.900943205947241 -48.5383894392162 0.900943205947242 -48.5383894392162 0.240687025858616 7.77270363054134 
5.1                            0.219608028760202 64.4964167658816 0.900548128624686 -56.6669120997672 0.900548128624687 -56.6669120997672 0.237000047404184 3.01560244172027 
5.2                            0.214449775457497 52.8988050291403 0.900069896947252 -64.8129425987064 0.900069896947253 -64.8129425987064 0.233561531274489 -1.444740552463  
5.3                            0.209655292524341 40.8945578897729 0.899451816710094 -72.975139456925 0.899451816710095 -72.975139456925 0.230632166599879 -5.61878534442662 
5.4                            0.205524766146669 28.4973781499747 0.898642516239033 -81.1514534668978 0.898642516239034 -81.1514534668979 0.228462085643903 -9.5351782268632 
5.5                            0.202345986608195 15.7485602132888 0.897598235595594 -89.3392010447726 0.897598235595594 -89.3392010447727 0.227272100696859 -13.2421851802291 
5.6                            0.200369588690132 2.71987236981895 0.896284855483989 -97.5351674902858 0.89628485548399 -97.5351674902857 0.22723389588884 -16.8061169677951 
5.7                            0.199782569021204 -10.4888106632075 0.894679532928322 -105.735736559702 0.894679532928322 -105.735736559702 0.228452710417219 -20.3062071559162 
5.8                            0.200685706668225 -23.7583086463995 0.892771827757782 -113.937040797111 0.892771827757782 -113.937040797111 0.230956309566822 -23.826538132349 
5.9                            0.203080934277569 -36.9641387667634 0.890564235057733 -122.135125408567 0.890564235057731 -122.135125408567 0.234692905347412 -27.446767007342 
6                              0.20687242994736 -49.9920561504765 0.888072080966295 -130.326117327824 0.888072080966294 -130.326117327824 0.239538432176119 -31.2339171175631 
6.1                            0.211880978006339 -62.750685147422 0.885322787327984 -138.506390673464 0.885322787327982 -138.506390673464 0.245311185320885 -35.2370433241442 
6.2                            0.217867210999636 -75.1782548591086 0.882354558367677 -146.672720098546 0.882354558367675 -146.672720098546 0.251790351228514 -39.48544470499  
6.3                            0.224557679551349 -87.243069199416 0.879214583398531 -154.822414537464 0.87921458339853 -154.822414537463 0.258734846963703 -43.9899470825808 
6.4                            0.231668587942117 -98.9394333537963 0.875956878631011 -162.953425411248 0.875956878631011 -162.953425411248 0.265899825439497 -48.7461220230207 
6.5                            0.238924289680595 -110.281462685228 0.87263990564747 -171.064425243336 0.872639905647469 -171.064425243336 0.273049514992154 -53.7382416003097 
6.6                            0.246069846593871 -121.296767403354 0.869324103874699 -179.154854618457 0.869324103874699 -179.154854618457 0.279966183935901 -58.9430735519728 
6.7                            0.25287836848654 -132.021145702996 0.866069461588426 172.7750627371   0.866069461588424 172.7750627371   0.286455714178178 -64.333026367153 
6.8                            0.259154423930345 -142.494664866692 0.862933228412624 164.724335434683 0.862933228412623 164.724335434683 0.292350556278689 -69.8784850010333 
6.9                            0.264734833341618 -152.759054164531 0.85996784643004 156.691248000995 0.859967846430041 156.691248000995 0.297510857117883 -75.5493810136097 
7                              0.26948792580664 -162.856141828113 0.857219151207194 148.673429366934 0.857219151207194 148.673429366934 0.301824437352498 -81.3161331224931 
7.1                            0.273312056017802 -172.827038289207 0.854724871700275 140.667942718397 0.854724871700276 140.667942718397 0.305206142558394 -87.1501152155869 
7.2                            0.276133926462443 177.288189485427 0.852513441345373 132.671393066332 0.852513441345375 132.671393066332 0.307596948001607 -93.0237945330686 
7.3                            0.277907066861316 167.45054618165  0.85060312250797 124.680048949473 0.850603122507972 124.680048949473 0.308963079727459 -98.9106567339909 
7.4                            0.278610682250776 157.62197740145  0.849001442519829 116.689974772377 0.849001442519831 116.689974772377 0.309295324111618 -104.785009832295 
7.5                            0.278248978148242 147.765178741744 0.84770494045414 108.697170308158 0.847704940454143 108.697170308158 0.308608626153352 -110.621741295826 
7.6                            0.276850990554926 137.843419934135 0.846699227618453 100.697713799339 0.846699227618456 100.697713799339 0.306942012786516 -116.396093761294 
7.7                            0.274470876929318 127.820450494008 0.845959369184211 92.6879048546668 0.845959369184213 92.6879048546667 0.304358810377249 -122.083524605642 
7.8                            0.271188550801168 117.660557029324 0.845450597100204 84.6644029919366 0.845450597100206 84.6644029919366 0.300947045852759 -127.659721534274 
7.9                            0.267110458380343 107.328856068205 0.845129363398493 76.6243572838645 0.845129363398491 76.6243572838646 0.296819822079419 -133.10085746153 
8                              0.26237019348563 96.7919261766207 0.844944736669311 68.5655222209222 0.844944736669312 68.5655222209222 0.292115339119631 -138.384178010769 
8.1                            0.257128524520102 86.0189019978909 0.84484013208744 60.4863547194323 0.84484013208744 60.4863547194324 0.28699610195684 -143.489015081341 
8.2                            0.251572269810189 74.983156894501  0.844755347069262 52.3860872773402 0.844755347069262 52.3860872773401 0.281646734662341 -148.398296640736 
8.3                            0.245911328138123 63.6646669590441 0.844628851575389 44.2647726940846 0.844628851575388 44.2647726940845 0.276269753114029 -153.10055896143 
8.4                            0.24037310094817 52.0530451917951 0.844400256352091 36.123296570395  0.844400256352089 36.1232965703951 0.271078697516266 -157.592347228241 
8.5                            0.235193620297862 40.1510295899765 0.844012856925957 27.9633549924587 0.844012856925957 27.9633549924587 0.266288269408479 -161.880712078723 
8.6                            0.230605040519336 27.977899659063  0.843416129341738 19.7873963435799 0.843416129341738 19.7873963435797 0.262101616067811 -165.985304362276 
8.7                            0.226819861444001 15.5719499279002 0.842568038986602 11.5985279951208 0.842568038986602 11.5985279951209 0.258695646619576 -169.939417412307 
8.8                            0.224013306064223 2.99093639192636 0.841437019511472 3.40039059047799 0.841437019511472 3.40039059047799 0.256206102232314 -173.78934196148 
8.9                            0.222306415987815 -9.69043248088816 0.840003487029732 -4.80299539635933 0.840003487029734 -4.80299539635934 0.254714738011306 -177.591679646599 
9                              0.221753138735082 -22.3862169998271 0.838260776146441 -13.0074043414487 0.838260776146441 -13.0074043414487 0.254241046494582 178.591208914841 
9.1                            0.222334408027975 -35.0073923865314 0.83621541776665 -21.2085934379698 0.836215417766648 -21.2085934379699 0.254740248903014 174.696848555335 
9.2                            0.223960778877566 -47.4706939089993 0.833886720890653 -29.4024950266415 0.833886720890654 -29.4024950266412 0.256107935739166 170.668232450848 
9.3                            0.226483041518135 -59.7061429441574 0.831305666903544 -37.5854040056521 0.831305666903547 -37.5854040056518 0.258190241997042 166.45822890947  
9.4                            0.229708325363166 -71.6617728971493 0.828513169459872 -45.7541513270596 0.828513169459877 -45.754151327059 0.260797382232758 162.032133503547 
9.5                            0.233418302456399 -83.3051093488847 0.825557790325818 -53.9062554825329 0.825557790325823 -53.9062554825323 0.263718094987208 157.368286287647 
9.6                            0.23738638213909 -94.6219256569678 0.822493027069279 -62.0400452476787 0.822493027069284 -62.0400452476782 0.26673300302129 152.457159757565 
9.7                            0.241391840332405 -105.613305137808 0.819374299983072 -70.1547485870615 0.81937429998308 -70.154748587061 0.269625745695973 147.299545785101 
9.8                            0.245230042565222 -116.292058008534 0.816255763319816 -78.2505442831753 0.816255763319826 -78.2505442831748 0.272191595499624 141.90444101553  
9.9                            0.248718868942025 -126.679262671209 0.813187052476013 -86.3285743117882 0.81318705247602 -86.3285743117878 0.274243876974087 136.28705629069  
10                             0.251701987624126 -136.80135247816 0.810210058742861 -94.3909160614508 0.810210058742862 -94.3909160614507 0.27561878213062 130.46716862717  
