! Touchstone file exported from HFSS 3D Layout Design 2026.1.0
!        File:           D:/Work/SIM/ADS_AUTO_SIM/projects/RFSOC_RF/TX_Fillter.aedt
!        Generated:      05:48:21 AM Aug 31, 2026
!        Design:         TX_BAND1_MCFIL_R56_CNN018
!        Project:        TX_Fillter
!
# GHz S MA R 50.000000
! Terminal data exported
! Port[1] = Port1
! Port[2] = Port2
14                             0.973524682614804 -164.04046914183 0.00360714164974029 -177.510997233502 0.00360714164974029 -177.510997233502 0.974627193501861 -161.233393404928 
14.05                          0.973042759382935 -164.899916551138 0.00367838486981524 -177.865650994943 0.00367838486981525 -177.865650994943 0.974170082573311 -162.093287150778 
14.1                           0.972545531051149 -165.765162166302 0.00375311666342272 -178.198690316305 0.00375311666342274 -178.198690316305 0.973698738496701 -162.958645402895 
14.15                          0.972032229810895 -166.636392276026 0.00383161833579091 -178.509684570338 0.00383161833579093 -178.509684570339 0.973212453344943 -163.829631870633 
14.2                           0.971502035878013 -167.513803087485 0.00391419926023851 -178.798248655192 0.00391419926023853 -178.798248655193 0.9727104712594  -164.706419086106 
14.25                          0.970954073071662 -168.397601388333 0.00400120000144312 -179.064051891474 0.00400120000144315 -179.064051891474 0.97219198436238 -165.589188997415 
14.3                           0.9703874039382  -169.288005262738 0.00409299580945534 -179.306827834291 0.00409299580945537 -179.306827834291 0.971656128247435 -166.478133610382 
14.35                          0.969801024364823 -170.185244866762 0.00419000053053037 -179.526385018792 0.0041900005305304 -179.526385018793 0.971101976996007 -167.373455683555 
14.4                           0.969193857620005 -171.089563268956 0.00429267098696809 -179.722618640444 0.00429267098696813 -179.722618640444 0.97052853766174 -168.275369481774 
14.45                          0.968564747748825 -172.001217362768 0.00440151188521053 -179.895523149706 0.00440151188521056 -179.895523149707 0.969934744155368 -169.184101594256 
14.5                           0.967912452240814 -172.920478858103 0.00451708131962203 179.95479428512  0.00451708131962207 179.954794285119 0.969319450453321 -170.099891823786 
14.55                          0.967235633875862 -173.847635360272 0.00463999694889601 179.828099523587 0.00463999694889605 179.828099523587 0.968681423041795 -171.02299415446 
14.6                           0.966532851639467 -174.782991545542 0.0047709429331637 179.724016518652 0.00477094293316373 179.724016518651 0.968019332494738 -171.953677806288 
14.65                          0.965802550582099 -175.726870443646 0.00491067773296244 179.64201185165  0.00491067773296248 179.64201185165  0.967331744068604 -172.892228385973 
14.7                           0.965043050477888 -176.679614838877 0.00506004288666573 179.581378927173 0.00506004288666575 179.581378927173 0.966617107178425 -173.8389491444  
14.75                          0.964252533114988 -177.641588802874 0.00521997290128826 179.541222060265 0.00521997290128829 179.541222060264 0.965873743598213 -174.794162352635 
14.8                           0.963429028022888 -178.613179373867 0.005391506413377 179.520440729416 0.00539150641337701 179.520440729415 0.96509983420325 -175.758210809778 
14.85                          0.962570396409971 -179.594798399065 0.00557579880273383 179.517714306299 0.00557579880273386 179.5177143063   0.964293404041666 -176.731459497755 
14.9                           0.961674313046647 179.413115440958 0.00577413647290539 179.531487604009 0.0057741364729054 179.531487604009 0.963452305486997 -177.714297400071 
14.95                          0.96073824578422 178.410094404501 0.00598795304982936 179.559957606108 0.00598795304982936 179.559957606108 0.962574199180737 -178.707139503872 
15                             0.959759432345743 177.39563923336  0.00621884779509158 179.601061745347 0.00621884779509159 179.601061745346 0.961656532423057 -179.710429007199 
15.05                          0.958734853960566 176.369216442329 0.00646860658455237 179.652468089576 0.00646860658455239 179.652468089576 0.960696514608878 179.275360243641 
15.1                           0.957661205336736 175.330255322252 0.006739225868613 179.71156775972  0.00673922586861302 179.71156775972  0.959691089233165 178.24972105829  
15.15                          0.956534860372066 174.278144621004 0.00703294010950572 179.775469847852 0.00703294010950575 179.775469847852 0.958636901900959 177.212109915875 
15.2                           0.955351832891708 173.212228861773 0.00735225328660086 179.840999020775 0.00735225328660087 179.840999020775 0.957530263670684 176.16194365113  
15.25                          0.954107731563146 172.131804252311 0.00769997517637215 179.904695885657 0.00769997517637217 179.904695885658 0.956367108929441 175.098595771163 
15.3                           0.952797707972845 171.036114132301 0.00807926325367798 179.962820060828 0.008079263253678 179.962820060828 0.95514294684083 174.021392355052 
15.35                          0.951416396645142 169.924343898463 0.00849367123072337 -179.988644260117 0.00849367123072339 -179.988644260117 0.95385280521245 172.929607481663 
15.4                           0.949957845534468 168.79561533855  0.00894720545605619 -179.953980633913 0.00894720545605622 -179.953980633913 0.952491165392975 171.822458123427 
15.45                          0.948415435214984 167.648980295685 0.00944439064638389 -179.937731147027 0.00944439064638394 -179.937731147026 0.951051886516538 170.699098435101 
15.5                           0.946781784612745 166.483413573631 0.00999034672905793 -179.944686396363 0.00999034672905799 -179.944686396362 0.949528117051131 169.558613356772 
15.55                          0.94504864065598 165.297804981446 0.010590878945469 -179.979875597068 0.010590878945469 -179.979875597068 0.947912191159889 168.400011439533 
15.6                           0.943206748635224 164.09095040267  0.0112525838212214 179.951442090433 0.0112525838212215 179.951442090433 0.946195506826696 167.222216790403 
15.65                          0.941245699336557 162.861541759872 0.0119829741676861 179.843783772618 0.0119829741676861 179.843783772619 0.944368382001202 166.024060020433 
15.7                           0.939153748099107 161.608155730555 0.0127906269661682 179.691445202583 0.0127906269661682 179.691445202583 0.942419884145396 164.804268067007 
15.75                          0.936917599802355 160.32924105586  0.0136853588313486 179.488497843798 0.0136853588313487 179.488497843798 0.940337627466141 163.561452748918 
15.8                           0.934522152345549 159.02310427078  0.0146784347930255 179.228779036045 0.0146784347930256 179.228779036045 0.938107530733235 162.294097902389 
15.85                          0.931950189358654 157.687893676145 0.0157828174213421 178.9058735879   0.0157828174213421 178.9058735879   0.935713526831158 161.000544940246 
15.9                           0.92918201057723 156.321581372639 0.0170134649073089 178.513085018444 0.0170134649073089 178.513085018444 0.933137212972591 159.678976678951 
15.95                          0.926194985389752 154.921943192153 0.0183876886648029 178.043394545283 0.0183876886648029 178.043394545283 0.930357427683922 158.327399295597 
16                             0.92296301135939 153.486536402679 0.0199255834197737 177.489405748099 0.0199255834197738 177.4894057481   0.927349737094421 156.943622319591 
16.05                          0.919455854828988 152.012675146619 0.0216505456816606 176.843272607036 0.0216505456816606 176.843272607036 0.924085808520998 155.525236647877 
16.1                           0.915638344794592 150.497403725975 0.0235899000347534 176.096608303436 0.0235899000347534 176.096608303436 0.920532643598389 154.06959072417  
16.15                          0.911469383804449 148.937468114459 0.0257756569089347 175.240371759452 0.0257756569089348 175.240371759452 0.916651635985389 152.573765282758 
16.2                           0.90690073042647 147.329286524396 0.0282454304028298 174.264728371189 0.0282454304028298 174.264728371189 0.912397409696143 151.034547491077 
16.25                          0.901875496608419 145.668920594349 0.0310435502328822 173.158880758028 0.0310435502328822 173.158880758028 0.907716383127038 149.448406035708 
16.3                           0.896326290015249 143.95204996523  0.034222407627095 171.910864632415 0.034222407627095 171.910864632416 0.902544990824086 147.81146984797  
16.35                          0.890172916646983 142.173954955707 0.037844080178378 170.507304156613 0.0378440801783779 170.507304156613 0.896807480372938 146.119515019555 
16.4                           0.883319544266049 140.329515176172 0.0419822836976629 168.933120540583 0.0419822836976629 168.933120540583 0.890413186907205 144.367967433019 
16.45                          0.875651216107602 138.413236944927 0.046724696858508 167.17118743243  0.0467246968585079 167.17118743243  0.883253176082899 142.551933391511 
16.5                           0.867029604939865 136.419330425793 0.0521756912136851 165.201927387479 0.052175691213685 165.201927387479 0.875196145430311 140.666278133458 
16.55                          0.85728792569866 134.341870293825 0.0584594648881559 163.002846321606 0.0584594648881559 163.002846321606 0.866083498864196 138.705784226417 
16.6                           0.846225011291736 132.175094276043 0.065723505499592 160.548009011525 0.065723505499592 160.548009011525 0.855723589003417 136.665441034072 
16.65                          0.833598757829301 129.913926416418 0.0741421676072651 157.807471200413 0.0741421676072651 157.807471200413 0.843885311347333 134.540946638162 
16.7                           0.81911956516481 127.554862661704 0.0839198960193647 154.746707281532 0.0839198960193649 154.746707281532 0.830291631552493 132.329550335455 
16.75                          0.802445213036715 125.097433691545 0.0952931900024718 151.32611397794  0.095293190002472 151.32611397794  0.814614401412157 130.031434211832 
16.8                           0.783180107355045 122.546572568433 0.108529695432609 147.50074005305  0.108529695432609 147.50074005305  0.796473243499839 127.651932993303 
16.85                          0.760884414245578 119.916365015641 0.123921747452075 143.220502085772 0.123921747452076 143.220502085772 0.775443748647034 125.205021429318 
16.9                           0.735102720775398 117.235822836951 0.141770272953628 138.43130563177  0.141770272953628 138.43130563177  0.751084156593877 122.718628701512 
16.95                          0.705427618430879 114.557389625605 0.162353518537462 133.077689488717 0.162353518537462 133.077689488717 0.722995144299919 120.242361464609 
17                             0.671619609569815 111.968551361748 0.185874643214041 127.107784104371 0.185874643214042 127.107784104371 0.690932928097145 117.857834112912 
17.05                          0.633805627780632 109.605432853793 0.212385116153909 120.481348092166 0.212385116153909 120.481348092165 0.654996336914748 115.690341606049 
17.1                           0.592761079785644 107.663138616742 0.241690634688917 113.181086095232 0.241690634688917 113.181086095232 0.615891203109001 113.916844052991 
17.15                          0.550221955727558 106.38893102866  0.27326534876315 105.22595282736  0.27326534876315 105.22595282736  0.575219465130835 112.757872107152 
17.2                           0.509054954408842 106.032123439608 0.306223254841126 96.6826742251334 0.306223254841126 96.6826742251332 0.535631042826588 112.431781852537 
17.25                          0.472971995711617 106.723811019354 0.339402407619303 87.6693892298688 0.339402407619303 87.6693892298686 0.500555974130644 113.052095318024 
17.3                           0.445502160569814 108.310284173449 0.371580441820414 78.3456772985447 0.371580441820413 78.3456772985446 0.473277741885243 114.492061096186 
17.35                          0.428436933319187 110.278279015141 0.401759536752493 68.8883435915786 0.401759536752493 68.8883435915786 0.455557000081247 116.326573150795 
17.4                           0.420775389431258 111.929627742598 0.429394081165395 59.4602198162396 0.429394081165395 59.4602198162395 0.44668173308069 117.969965916848 
17.45                          0.419147008375148 112.71137860068  0.454455750920171 50.1837635683599 0.454455750920172 50.1837635683599 0.443770079077476 118.94083725104  
17.5                           0.419332284746582 112.403866731145 0.477329009836386 41.1282103813348 0.477329009836387 41.1282103813348 0.443056462505986 119.028664163516 
17.55                          0.41762674696985 111.069630755817 0.498616428782207 32.3113185404434 0.498616428782208 32.3113185404434 0.441128940429456 118.271811464073 
17.6                           0.411406418633534 108.911742363825 0.518946036017189 23.7107227238638 0.518946036017191 23.7107227238637 0.435514221488372 116.848937770867 
17.65                          0.39909061622374 106.17286051514  0.538831890942064 15.2786413130701 0.538831890942065 15.27864131307   0.424715856031972 114.992385171595 
17.7                           0.37989941637497 103.100622258705 0.558594956991782 6.95567072592344 0.558594956991783 6.95567072592334 0.408039142475005 112.953872760888 
17.75                          0.353647320111036 99.9609997779075 0.578330180076108 -1.31806307677589 0.578330180076109 -1.31806307677601 0.385432417184639 111.01081988445  
17.8                           0.320660342973377 97.0868695959168 0.597904840317756 -9.59451362569267 0.597904840317756 -9.59451362569282 0.357439525217785 109.49829242246  
17.85                          0.281841754448311 94.9704333100147 0.61698090334357 -17.911663033235 0.61698090334357 -17.9116630332351 0.325289096076259 108.857571916871 
17.9                           0.238931751618649 94.4382112521614 0.635061132952562 -26.2895256434842 0.635061132952562 -26.2895256434843 0.29112432353907 109.687383612018 
17.95                          0.195124732309288 96.9776776508957 0.651560459525765 -34.7282844597158 0.651560459525764 -34.7282844597158 0.25834466946131 112.74075168357  
18                             0.156432537665618 105.115198436595 0.665899193372906 -43.2088845479655 0.665899193372905 -43.2088845479654 0.231846949130035 118.685772241205 
18.05                          0.133480041722072 121.134314421326 0.677605090102445 -51.6963117084519 0.677605090102445 -51.6963117084518 0.217390215153729 127.361883019721 
18.1                           0.137229353738764 140.688508873763 0.686402433234873 -60.1453021527091 0.686402433234874 -60.145302152709 0.219018660863706 136.983373772589 
18.15                          0.165241401589411 154.316548165994 0.692264928353593 -68.5075531817809 0.692264928353593 -68.5075531817807 0.23604981859501 144.981249617028 
18.2                           0.205355167015432 160.238024481302 0.69541858088377 -76.7390031453256 0.695418580883771 -76.7390031453255 0.263700196059954 149.970968454192 
18.25                          0.248506740267643 161.192847631897 0.69629711078463 -84.8057354793797 0.696297110784631 -84.8057354793796 0.296432862235962 152.070794756864 
18.3                           0.289993704589502 159.369762668503 0.695467100575588 -92.6875668781779 0.695467100575589 -92.6875668781778 0.3299899981005  151.985998813726 
18.35                          0.327480702810091 155.978282099338 0.693545787778502 -100.379132590389 0.693545787778502 -100.379132590389 0.36163126612958 150.398351029921 
18.4                           0.359833414745947 151.660459625613 0.691130378937832 -107.888921855377 0.691130378937833 -107.888921855377 0.389761668353248 147.808576654586 
18.45                          0.386570553362177 146.762141410748 0.688748566074478 -115.237028810852 0.688748566074478 -115.237028810852 0.413545422886817 144.552097868146 
18.5                           0.407582216796398 141.470199660153 0.686831081992405 -122.452371682601 0.686831081992405 -122.452371682601 0.432625019264146 140.845756826427 
18.55                          0.422969123797143 135.88153877462  0.685701717708347 -129.569930345894 0.685701717708346 -129.569930345894 0.446934280971609 136.827242948986 
18.6                           0.432947441177106 130.039274213721 0.685578489753376 -136.62830515103 0.685578489753375 -136.62830515103 0.45657941824604 132.582594718058 
18.65                          0.437795424756409 123.952521212679 0.686580341233982 -143.667698760615 0.686580341233981 -143.667698760615 0.46176776814646 128.164337639742 
18.7                           0.437829431456912 117.607481356767 0.688735490013845 -150.728298179818 0.688735490013843 -150.728298179817 0.462769993878337 123.603183215091 
18.75                          0.433401669454714 110.973579721707 0.691989367859761 -157.848980222746 0.691989367859758 -157.848980222746 0.45990568690095 118.915346427585 
18.8                           0.424914557373379 104.006586453532 0.696211592561074 -165.0662614472  0.696211592561072 -165.0662614472  0.453544931264447 114.106695254894 
18.85                          0.412847935615907 96.6498220014699 0.701202447663025 -172.413444231105 0.701202447663023 -172.413444231105 0.444119807354598 109.174300692146 
18.9                           0.397795888131652 88.8342733836494 0.70669988086223 -179.919958640343 0.706699880862228 -179.919958640343 0.432140292821058 104.105485850056 
18.95                          0.380509612702229 80.4786681694213 0.71238803448739 172.389049125539 0.712388034487389 172.389049125539 0.418208929734394 98.8741761803563 
19                             0.361941476108416 71.4913940533532 0.717907735630778 164.492792840778 0.717907735630777 164.492792840778 0.403028634843711 93.434318132985  
19.05                          0.343282609237333 61.777777564205  0.722868206682814 156.374492925853 0.722868206682813 156.374492925853 0.387399205845286 87.7105668237971 
19.1                           0.325981113504317 51.2583027756669 0.726857708260158 148.020548838709 0.726857708260157 148.020548838709 0.372201740858038 81.5876382315317 
19.15                          0.311719479035701 39.9036537344314 0.729449400809831 139.419311498715 0.72944940080983 139.419311498715 0.358377125185407 74.9018893849626 
19.2                           0.302321919245843 27.7853374811465 0.730198228519243 130.559719841821 0.730198228519241 130.559719841821 0.346913417209643 67.4415890659865 
19.25                          0.299570247876896 15.1202468702109 0.728626074183528 121.430303107465 0.728626074183524 121.430303107464 0.338861103052431 58.9647970410331 
19.3                           0.30495198201068 2.26428859432573 0.72419667520265 112.019284125093 0.724196675202646 112.019284125093 0.335383089580792 49.2433025328017 
19.35                          0.319431352063891 -10.3765620813357 0.716289211744121 102.316661872228 0.716289211744116 102.316661872227 0.337807313072628 38.1337375778122 
19.4                           0.343339439447056 -22.4804407837388 0.704189344313651 92.3190656415427 0.704189344313645 92.3190656415426 0.347593339775483 25.6587046776949 
19.45                          0.376377319000689 -33.8982167063242 0.687125597434975 82.0376539053691 0.687125597434969 82.037653905369  0.366102863801644 12.0557516190768 
19.5                           0.417632521121376 -44.6450320168121 0.664379743153132 71.5081623560221 0.664379743153127 71.5081623560221 0.394153611679935 -2.25294012786272 
19.55                          0.465555587546523 -54.8239929445596 0.635480360026534 60.8004059380444 0.635480360026531 60.8004059380445 0.431526404073415 -16.770680618785 
19.6                           0.517970103353825 -64.5426078741136 0.600441593451063 50.0228095481416 0.600441593451063 50.0228095481416 0.476714548179984 -31.0498317599941 
19.65                          0.57224112662349 -73.861397131213 0.559950589150925 39.3174518382539 0.559950589150927 39.3174518382539 0.52710175115645 -44.7586698377157 
19.7                           0.625641311863462 -82.7827332173368 0.5153865238297  28.8441183339652 0.515386523829704 28.8441183339648 0.57951325815896 -57.6835270694249 
19.75                          0.675804043790708 -91.2682521518878 0.468617445136861 18.7572413630604 0.468617445136864 18.7572413630598 0.630899287605115 -69.7026090281535 
19.8                           0.72107332384731 -99.2666673806948 0.421643128948694 9.18374537729196 0.421643128948696 9.18374537729105 0.678878823720496 -80.7611808792153 
19.85                          0.7606211960462  -106.73707859878 0.376236073814388 0.209257933459934 0.37623607381439 0.209257933458697 0.721984155936783 -90.8549145580834 
19.9                           0.794341129774183 -113.661000391455 0.333711270047987 -8.12459071608207 0.333711270047987 -8.12459071608349 0.759614126366843 -100.017390350664 
19.95                          0.822622012787824 -120.043815361304 0.294863182189637 -15.814088273873 0.294863182189636 -15.8140882738746 0.791816300063413 -108.308446053266 
20                             0.846113781576414 -125.909943137737 0.260028075049352 -22.8831385725465 0.260028075049351 -22.8831385725482 0.819030685171239 -115.803199578339 
20.05                          0.865548083775064 -131.295988388736 0.229203491622513 -29.372702734745 0.22920349162251 -29.3727027347467 0.841877452923921 -122.582846857302 
20.1                           0.881628185876384 -136.244498765667 0.202171481624702 -35.3321723585233 0.202171481624699 -35.332172358525 0.861014977884142 -128.727973341835 
20.15                          0.894975327157428 -140.799357674785 0.178598625225293 -40.8132950172739 0.17859862522529 -40.8132950172755 0.877060739387193 -134.314365809962 
20.2                           0.906111728371681 -145.002860123699 0.158106155205768 -45.8663879329977 0.158106155205766 -45.8663879329992 0.89055623621524 -139.410836155239 
20.25                          0.915463521619689 -148.894118153216 0.140313821404023 -50.5382656596919 0.140313821404021 -50.5382656596932 0.901958081826732 -144.078442000392 
20.3                           0.923372484595761 -152.508375004023 0.124864360597603 -54.8713132366266 0.1248643605976  -54.8713132366277 0.911642516170069 -148.370565881938 
20.35                          0.930110272123367 -155.876878048846 0.111435106023104 -58.9032594884126 0.111435106023101 -58.9032594884135 0.919915527284764 -152.333458546263 
20.4                           0.935892049767363 -159.027062038577 0.0997417502859505 -62.6673420467256 0.0997417502859487 -62.6673420467264 0.927024348571817 -156.006988575988 
20.45                          0.940888289338267 -161.982882560685 0.0895376939453608 -66.1926670735314 0.0895376939453593 -66.192667073532 0.933168306860878 -159.425444602648 
20.5                           0.94523444011115 -164.765203909773 0.0806111590928183 -69.5046456271774 0.0806111590928171 -69.5046456271779 0.938508226863141 -162.618306591578 
20.55                          0.949038620279164 -167.392188038048 0.0727813712862356 -72.6254402379611 0.0727813712862348 -72.6254402379614 0.943174221731521 -165.610946395048 
20.6                           0.952387628308845 -169.879657535892 0.0658945446218415 -75.574387179515 0.0658945446218408 -75.5743871795153 0.947271981563284 -168.425243209769 
20.65                          0.955351597214966 -172.241421024691 0.0598200543703415 -78.3683787760087 0.0598200543703412 -78.3683787760089 0.950887774913335 -171.080113379967 
20.7                           0.957987582945286 -174.489557937599 0.0544469748571786 -81.0222007220712 0.0544469748571784 -81.0222007220714 0.954092395255006 -173.591960792588 
20.75                          0.96034232890851 -176.634664135013 0.0496810435131002 -83.5488250577211 0.0496810435131002 -83.5488250577213 0.956944264055082 -175.975056909678 
20.8                           0.96245439925383 -178.686061880765 0.0454420496502843 -85.9596621957865 0.0454420496502844 -85.9596621957867 0.959491869367621 -178.24186010831 
20.85                          0.964355830410473 179.348021549293 0.0416616159851078 -88.2647765082535 0.041661615985108 -88.2647765082537 0.961775685036978 179.596716470179 
20.9                           0.966073415288027 177.460302314644 0.0382813284191076 -90.4730701950982 0.038281328419108 -90.4730701950983 0.963829685414891 177.531080311092 
20.95                          0.967629706991162 175.644311505855 0.0352511668585035 -92.5924399239129 0.0352511668585038 -92.5924399239132 0.965682545344464 175.55277100877  
21                             0.969043807750985 173.894286127196 0.0325281920920438 -94.6299102904299 0.0325281920920442 -94.6299102904303 0.96735859498219 173.654301774632 
21.05                          0.970331992737481 172.205076484145 0.0300754482255786 -96.591747645784 0.0300754482255791 -96.5917476457844 0.968878583187145 171.829025890505 
21.1                           0.971508206340503 170.572067352335 0.0278610453893641 -98.4835573375347 0.0278610453893645 -98.4835573375351 0.970260290929937 170.071023886401 
21.15                          0.972584459440887 168.991110717597 0.0258573926070585 -100.310366952299 0.025857392607059 -100.310366952299 0.971519026729053 168.375007952679 
21.2                           0.973571149391837 167.458468236425 0.0240405554688145 -102.076697741875 0.0240405554688149 -102.076697741876 0.972668028881718 166.736240707942 
21.25                          0.974477319322162 165.970761872825 0.022389717436894 -103.786626064481 0.0223897174368943 -103.786626064482 0.973718793711606 165.150465950458 
21.3                           0.97531086952642 164.524931425519 0.0208867272039851 -105.443836375137 0.0208867272039855 -105.443836375137 0.97468134480676 163.613849437786 
21.35                          0.976078730801253 163.118197874733 0.0195157175553398 -107.051667048911 0.0195157175553401 -107.051667048912 0.975564454958964 162.122928081199 
21.4                           0.976787007383211 161.748031656504 0.018262783715891 -108.613150111482 0.0182627837158912 -108.613150111483 0.976375830004447 160.674566221407 
21.45                          0.97744109546432 160.412125120395 0.0171157112604453 -110.131045777147 0.0171157112604456 -110.131045777147 0.97712226182585 159.265917881183 
21.5                           0.978045781976452 159.108368548772 0.0160637453951333 -111.607872549593 0.0160637453951334 -111.607872549594 0.977809756271236 157.894394078005 
21.55                          0.978605327346907 157.834829216921 0.0150973948418294 -113.045933520396 0.0150973948418295 -113.045933520397 0.978443640574851 156.557634433553 
21.6                           0.97912353516322 156.589733056904 0.0142082647268624 -114.447339400305 0.0142082647268626 -114.447339400305 0.979028653948622 155.253482443101 
21.65                          0.979603811091183 155.371448557279 0.0133889138358579 -115.814028735276 0.013388913835858 -115.814028735276 0.979569024294322 153.979963871648 
21.7                           0.980049212925989 154.178472588331 0.0126327323855642 -117.14778569009 0.0126327323855642 -117.14778569009 0.980068533419018 152.735267829262 
21.75                          0.98046249329206 153.009417890149 0.0119338371121156 -118.450255724692 0.0119338371121156 -118.450255724692 0.980530572686922 151.517730148847 
21.8                           0.980846136219481 151.863002000766 0.0112869810090085 -119.722959440226 0.0112869810090085 -119.722959440226 0.980958190683001 150.325818748225 
21.85                          0.981202388596882 150.738037434764 0.0106874754880471 -120.967304831381 0.0106874754880471 -120.96730483138 0.981354134177638 149.158120707117 
21.9                           0.98153328731873 149.63342295061  0.0101311230997834 -122.184598147768 0.0101311230997834 -122.184598147767 0.981720883452006 148.01333083029  
21.95                          0.981840682799321 148.548135768368 0.00961415925045195 -123.376053538548 0.00961415925045189 -123.376053538547 0.982060682858591 146.890241502012 
22                             0.982126259408509 147.481224619075 0.00913320160144015 -124.542801630415 0.00913320160144008 -124.542801630414 0.982375567341314 145.787733665446 
22.05                          0.982391553289377 146.431803523716 0.00868520604416831 -125.685897168696 0.00868520604416825 -125.685897168695 0.982667385517775 144.70476878451  
22.1                           0.982637967941073 145.399046213749 0.00826742831540429 -126.806325833974 0.00826742831540422 -126.806325833972 0.982937819826559 143.640381665862 
22.15                          0.982866787887149 144.382181117086 0.00787739046162917 -127.905010331928 0.00787739046162915 -127.905010331925 0.983188404160973 142.593674035698 
22.2                           0.983079190698282 143.380486843553 0.00751285148111018 -128.982815841469 0.0075128514811101 -128.982815841467 0.983420539343421 141.563808780481 
22.25                          0.983276257595887 142.393288112539 0.00717178157290216 -130.040554895459 0.00717178157290212 -130.040554895456 0.983635506739232 140.550004772951 
22.3                           0.983458982828135 141.419952072912 0.00685233950644411 -131.078991759012 0.00685233950644406 -131.078991759009 0.983834480262789 139.551532215233 
22.35                          0.983628281980844 140.459884971648 0.00655285269647298 -132.098846362384 0.00655285269647291 -132.09884636238 0.984018536990623 138.567708439721 
22.4                           0.983784999361587 139.512529133055 0.00627179962790331 -133.100797838526 0.00627179962790328 -133.100797838523 0.984188666564258 137.597894116114 
22.45                          0.983929914575147 138.577360215187 0.00600779432596874 -134.085487709383 0.00600779432596872 -134.085487709379 0.984345779538912 136.641489819448 
22.5                           0.984063748391521 137.653884714082 0.00575957260981511 -135.053522759767 0.00575957260981506 -135.053522759764 0.984490714811741 135.697932919668 
22.55                          0.984187167993449 136.74163768998  0.00552597990414287 -136.005477633137 0.00552597990414283 -136.005477633134 0.984624246244458 134.766694758092 
22.6                           0.984300791678423 135.840180692719 0.00530596041446002 -136.941897179567 0.00530596041446001 -136.941897179564 0.984747088579175 133.847278080332 
22.65                          0.984405193079926 134.949099866146 0.00509854749789472 -137.863298582748 0.00509854749789471 -137.863298582745 0.984859902732842 132.939214698883 
22.7                           0.984500904964038 134.068004213701 0.00490285508404988 -138.770173289775 0.00490285508404988 -138.770173289772 0.984963300544136 132.042063361706 
22.75                          0.984588422650168 133.196524009331 0.00471807001966291 -139.662988764789 0.00471807001966293 -139.662988764786 0.985057849036887 131.155407805927 
22.8                           0.984668207098351 132.334309339647 0.00454344522736055 -140.542190085154 0.00454344522736056 -140.542190085152 0.985144074255783 130.278854978115 
22.85                          0.984740687700207 131.481028764809 0.00437829358299405 -141.408201396766 0.00437829358299407 -141.408201396764 0.985222464722882 129.412033404721 
22.9                           0.984806264805976 130.636368086939 0.0042219824282557 -142.261427243216 0.00422198242825569 -142.261427243215 0.985293474557389 128.554591698074 
22.95                          0.984865312016085 129.800029216085 0.00407392864580551 -143.102253781912 0.00407392864580551 -143.102253781911 0.985357526295799 127.70619718494  
23                             0.984918178262245 128.971729124794 0.00393359423323143 -143.931049898786 0.00393359423323141 -143.931049898786 0.985415013444974 126.866534646044 
