! Touchstone file exported from HFSS 3D Layout Design 2026.1.0
!        File:           D:/Work/SIM/ADS_AUTO_SIM/projects/RFSOC_RF/TX_Fillter.aedt
!        Generated:      08:12:37 PM Aug 30, 2026
!        Design:         TX_BAND1_MCFIL_BB_14_23G
!        Project:        TX_Fillter
!
# GHz S MA R 50.000000
! Terminal data exported
! Port[1] = Port1
! Port[2] = Port2
14                             0.96209954515144 -101.666182943092 0.00453437937382016 -146.113768665495 0.00453437937382016 -146.113768665495 0.947186778940961 152.682351016249 
14.05                          0.961874755162025 -102.177718202605 0.00456249132283072 -147.118732800159 0.00456249132283072 -147.118732800159 0.947198079872972 151.805629783403 
14.1                           0.961648495462033 -102.691063942816 0.00459069029237267 -148.12628732068 0.00459069029237267 -148.12628732068 0.947210048870086 150.930982681533 
14.15                          0.961420772415263 -103.206232657608 0.0046189704121211 -149.13631363746 0.0046189704121211 -149.13631363746 0.947222716735864 150.058441006889 
14.2                           0.961191591924977 -103.723236923054 0.00464732579883144 -150.148690521703 0.00464732579883144 -150.148690521703 0.947236112347481 149.188035232645 
14.25                          0.960960959419371 -104.242089397451 0.00467575056999297 -151.163294186243 0.00467575056999297 -151.163294186243 0.947250262646333 148.319795006268 
14.3                           0.960728879836993 -104.76280282135 0.00470423885787838 -152.179998373194 0.00470423885787838 -152.179998373194 0.94726519263111 147.453749147531 
14.35                          0.960495357612097 -105.285390017594 0.00473278482394852 -153.198674448358 0.00473278482394852 -153.198674448358 0.947280925353327 146.589925647141 
14.4                           0.960260396659927 -105.80986389136 0.00476138267356802 -154.219191502317 0.00476138267356802 -154.219191502317 0.947297481915235 145.728351665989 
14.45                          0.960024000361949 -106.336237430211 0.00479002667098497 -155.241416458086 0.00479002667098497 -155.241416458086 0.947314881470085 144.869053534982 
14.5                           0.959786171551022 -106.86452370415 0.00481871115452481 -156.265214185183 0.00481871115452481 -156.265214185183 0.947333141224685 144.012056755476 
14.55                          0.959546912496509 -107.394735865684 0.00484743055194657 -157.290447619942 0.00484743055194657 -157.290447619942 0.947352276444202 143.157386000265 
14.6                           0.959306224889335 -107.926887149908 0.00487617939590712 -158.316977891849 0.00487617939590712 -158.316977891849 0.947372300459143 142.305065115134 
14.65                          0.959064109826984 -108.460990874585 0.00490495233947755 -159.344664455667 0.00490495233947756 -159.344664455667 0.947393224674469 141.455117120945 
14.7                           0.958820567798445 -108.997060440255 0.00493374417165422 -160.373365229074 0.00493374417165422 -160.373365229074 0.947415058580768 140.607564216247 
14.75                          0.958575598669109 -109.535109330348 0.00496254983280575 -161.402936735514 0.00496254983280575 -161.402936735514 0.947437809767437 139.762427780403 
14.8                           0.958329201665601 -110.075151111321 0.00499136442999675 -162.433234251923 0.00499136442999675 -162.433234251923 0.947461483937791 138.919728377193 
14.85                          0.958081375360573 -110.617199432812 0.00502018325212844 -163.464111960971 0.00502018325212844 -163.464111960971 0.94748608492606 138.079485758903 
14.9                           0.957832117657435 -111.161268027813 0.00504900178483651 -164.495423107445 0.00504900178483651 -164.495423107445 0.947511614716181 137.241718870871 
14.95                          0.957581425775046 -111.707370712869 0.00507781572508692 -165.527020158332 0.00507781572508692 -165.527020158332 0.947538073462321 136.406445856461 
15                             0.957329296232341 -112.255521388299 0.00510662099541116 -166.558754966205 0.00510662099541117 -166.558754966205 0.947565459511084 135.573684062478 
15.05                          0.957075724832919 -112.805734038451 0.00513541375772384 -167.590478935423 0.00513541375772384 -167.590478935423 0.947593769425302 134.743450044977 
15.1                           0.956820706649574 -113.358022731975 0.00516419042666694 -168.62204319069 0.00516419042666694 -168.62204319069 0.94762299800936 133.915759575458 
15.15                          0.956564236008778 -113.912401622145 0.00519294768242731 -169.653298747477 0.00519294768242731 -169.653298747477 0.947653138335977 133.09062764744  
15.2                           0.956306306475108 -114.468884947197 0.00522168248297619 -170.684096683801 0.00522168248297619 -170.684096683801 0.947684181774373 132.268068483382 
15.25                          0.956046910835627 -115.027487030726 0.00525039207568241 -171.714288312852 0.00525039207568241 -171.714288312852 0.947716118019754 131.448095541937 
15.3                           0.955786041084204 -115.588222282103 0.00527907400825402 -172.743725355936 0.00527907400825402 -172.743725355936 0.947748935124038 130.630721525531 
15.35                          0.955523688405786 -116.151105196953 0.00530772613896646 -173.772260115221 0.00530772613896646 -173.772260115221 0.94778261952776 129.815958388227 
15.4                           0.955259843160605 -116.716150357671 0.00533634664613908 -174.799745645745 0.00533634664613909 -174.799745645745 0.947817156093083 129.003817343888 
15.45                          0.954994494868335 -117.283372433992 0.0053649340368257 -175.826035926157 0.0053649340368257 -175.826035926157 0.947852528137837 128.194308874592 
15.5                           0.954727632192175 -117.852786183615 0.00539348715468905 -176.85098602768 0.00539348715468905 -176.85098602768 0.947888717470541 127.387442739297 
15.55                          0.954459242922878 -118.424406452884 0.00542200518703331 -177.874452280763 0.00542200518703332 -177.874452280763 0.947925704426308 126.58322798274  
15.6                           0.954189313962702 -118.998248177534 0.00545048767097317 -178.896292438924 0.00545048767097317 -178.896292438924 0.94796346790359 125.781672944543 
15.65                          0.953917831309289 -119.574326383501 0.00547893449872246 -179.916365839278 0.00547893449872246 -179.916365839278 0.948001985401696 124.982785268515 
15.7                           0.953644780039474 -120.152656187803 0.00550734592199009 179.065466440714 0.00550734592199009 179.065466440714 0.948041233058996 124.186571912143 
15.75                          0.953370144292991 -120.733252799497 0.00553572255547524 178.049341430755 0.00553572255547525 178.049341430755 0.948081185691779 123.393039156231 
15.8                           0.953093907256106 -121.316131520717 0.00556406537945861 177.035394119922 0.00556406537945861 177.035394119922 0.948121816833678 122.602192614698 
15.85                          0.952816051145141 -121.901307747792 0.00559237574149059 176.023757313987 0.00559237574149059 176.023757313987 0.948163098775607 121.814037244502 
15.9                           0.952536557189896 -122.488796972465 0.00562065535718203 175.014561498267 0.00562065535718203 175.014561498267 0.948205002606153 121.028577355682 
15.95                          0.952255405616949 -123.078614783195 0.0056489063101067 174.007934706358 0.0056489063101067 174.007934706358 0.948247498252365 120.245816621492 
16                             0.951972575632836 -123.670776866571 0.00567713105082934 173.004002395121 0.00567713105082934 173.004002395121 0.948290554520878 119.465758088637 
16.05                          0.951688045407093 -124.265299008829 0.00570533239507611 172.002887326224 0.00570533239507612 172.002887326224 0.948334139139312 118.688404187559 
16.1                           0.951401792055141 -124.862197097482 0.00573351352106837 171.004709454544 0.00573351352106838 171.004709454544 0.9483782187979  117.913756742796 
16.15                          0.951113791621013 -125.461487123075 0.00576167796604341 170.009585823691 0.00576167796604341 170.009585823691 0.948422759191291 117.141816983375 
16.2                           0.950824019059903 -126.063185181065 0.00578982962198902 169.017630468888 0.00578982962198902 169.017630468888 0.948467725060463 116.372585553234 
16.25                          0.950532448220511 -126.667307473833 0.0058179727306211 168.028954327423 0.00581797273062111 168.028954327423 0.948513080234709 115.606062521662 
16.3                           0.950239051827178 -127.273870312847 0.00584611187763583 167.043665156837 0.00584611187763583 167.043665156837 0.948558787673642 114.842247393739 
16.35                          0.94994380146179 -127.882890120966 0.00587425198626972 166.06186746102  0.00587425198626972 166.06186746102  0.948604809509161 114.081139120763 
16.4                           0.949646667545414 -128.494383434908 0.0059023983102026 165.083662424325 0.0059023983102026 165.083662424325 0.948651107087353 113.322736110663 
16.45                          0.949347619319662 -129.108366907883 0.00593055642583938 164.109147853806 0.00593055642583938 164.109147853806 0.948697641010254 112.567036238364 
16.5                           0.949046624827748 -129.724857312408 0.00595873222400765 163.138418129655 0.00595873222400765 163.138418129655 0.948744371177457 111.814036856117 
16.55                          0.948743650895198 -130.343871543295 0.00598693190110823 162.171564163893 0.00598693190110824 162.171564163893 0.948791256827494 111.063734803765 
16.6                           0.948438663110204 -130.965426620853 0.00601516194975635 161.208673367349 0.00601516194975635 161.208673367349 0.948838256578971 110.316126418943 
16.65                          0.948131625803575 -131.589539694279 0.00604342914895022 160.249829624931 0.00604342914895022 160.249829624931 0.948885328471402 109.571207547195 
16.7                           0.947822502028241 -132.216228045278 0.00607174055380416 159.295113279206 0.00607174055380416 159.295113279206 0.948932430005702 108.828973552007 
16.75                          0.947511253538295 -132.845509091903 0.00610010348488157 158.344601122249 0.00610010348488157 158.344601122249 0.948979518184313 108.089419324731 
16.8                           0.947197840767501 -133.477400392642 0.00612852551716273 157.398366395763 0.00612852551716273 157.398366395763 0.949026549550893 107.352539294414 
16.85                          0.946882222807242 -134.111919650751 0.00615701446868051 156.4564787994   0.00615701446868051 156.4564787994   0.94907348022957 106.618327437492 
16.9                           0.946564357383848 -134.749084718859 0.00618557838885578 155.519004507277 0.00618557838885578 155.519004507277 0.949120265963691 105.886777287367 
16.95                          0.946244200835259 -135.388913603842 0.00621422554656218 154.586006192617 0.00621422554656218 154.586006192617 0.949166862154038 105.157881943845 
17                             0.945921708086948 -136.031424472002 0.00624296441794827 153.657543060484 0.00624296441794827 153.657543060484 0.949213223896481 104.431634082431 
17.05                          0.945596832627061 -136.676635654544 0.00627180367404253 152.733670888568 0.00627180367404252 152.733670888568 0.949259306019026 103.708025963463 
17.1                           0.945269526480694 -137.324565653378 0.00630075216816495 151.814442075996 0.00630075216816494 151.814442075996 0.94930506311822 102.987049441096 
17.15                          0.944939740183231 -137.975233147261 0.00632981892316609 150.899905700138 0.00632981892316609 150.899905700138 0.949350449594879 102.268695972112 
17.2                           0.944607422752679 -138.628656998294 0.00635901311851263 149.990107581403 0.00635901311851263 149.990107581403 0.9493954196891  101.552956624553 
17.25                          0.944272521660902 -139.28485625879 0.00638834407723574 149.085090356045 0.00638834407723573 149.085090356045 0.949439927514528 100.839822086174 
17.3                           0.943934982803665 -139.943850178537 0.0064178212527567 148.184893556998 0.00641782125275669 148.184893556998 0.949483927091832 100.129282672708 
17.35                          0.943594750469402 -140.605658212465 0.00644745421560171 147.289553702806 0.0064474542156017 147.289553702806 0.949527372381357 99.4213283359276 
17.4                           0.943251767306585 -141.270300028745 0.00647725264001606 146.399104394737 0.00647725264001605 146.399104394737 0.949570217314915 98.7159486715147 
17.45                          0.9429059742896  -141.937795517345 0.00650722629048598 145.513576422197 0.00650722629048598 145.513576422197 0.949612415826676 98.0131329267116 
17.5                           0.942557310682996 -142.608164799046 0.00653738500817506 144.632997876601 0.00653738500817506 144.632997876601 0.949653921883123 97.3128700077632 
17.55                          0.942205714003986 -143.281428234962 0.00656773869728084 143.757394273906 0.00656773869728084 143.757394273906 0.949694689512019 96.6151484871371 
17.6                           0.941851119983057 -143.957606436576 0.00659829731131673 142.886788686049 0.00659829731131673 142.886788686049 0.949734672830362 95.9199566105181 
17.65                          0.941493462522548 -144.636720276312 0.00662907083932392 142.021201881584 0.00662907083932391 142.021201881584 0.949773826071274 95.2272823035707 
17.7                           0.941132673653026 -145.31879089869 0.00666006929201855 141.160652475867 0.00666006929201855 141.160652475867 0.949812103609781 94.5371131784656 
17.75                          0.940768683487299 -146.00383973206 0.00669130268788048 140.305157091206 0.00669130268788048 140.305157091206 0.949849459987444 93.8494365401638 
17.8                           0.940401420171886 -146.691888500968 0.00672278103919179 139.45473052743  0.00672278103919179 139.45473052743  0.949885849935781 93.164239392455  
17.85                          0.940030809835739 -147.382959239177 0.00675451433803635 138.609385943445 0.00675451433803635 138.609385943445 0.949921228398453 92.4815084437428 
17.9                           0.939656776536023 -148.077074303361 0.00678651254227549 137.769135050363 0.00678651254227549 137.769135050363 0.94995555055213 91.8012301125751 
17.95                          0.939279242200718 -148.774256387525 0.00681878556152032 136.933988316907 0.00681878556152032 136.933988316907 0.949988771826018 91.1233905329124 
18                             0.938898126567819 -149.474528538164 0.00685134324312791 136.103955187867 0.0068513432431279 136.103955187867 0.95002084791996 90.4479755591311 
18.05                          0.938513347120864 -150.177914170211 0.00688419535825706 135.279044316454 0.00688419535825706 135.279044316454 0.950051734821065 89.7749707707566 
18.1                           0.938124819020537 -150.884437083804 0.0069173515880299 134.459263811507 0.0069173515880299 134.459263811507 0.950081388818809 89.1043614769215 
18.15                          0.937732455032041 -151.594121481902 0.00695082150985793 133.644621500594 0.00695082150985792 133.644621500594 0.950109766518516 88.4361327205459 
18.2                           0.937336165447935 -152.306991988812 0.00698461458400657 132.835125210142 0.00698461458400657 132.835125210142 0.950136824853179 87.7702692822335 
18.25                          0.936935858006114 -153.023073669644 0.00701874014049028 132.030783063839 0.00701874014049028 132.030783063839 0.950162521093527 87.1067556838813 
18.3                           0.936531437802559 -153.742392050748 0.00705320736641155 131.231603800644 0.00705320736641155 131.231603800644 0.950186812856258 86.4455761919969 
18.35                          0.936122807198496 -154.464973141186 0.0070880252938823 130.43759711385  0.0070880252938823 130.43759711385  0.95020965811037 85.7867148207202 
18.4                           0.935709865721558 -155.190843455268 0.00712320278869549 129.648774012748 0.00712320278869549 129.648774012748 0.950231015181484 85.1301553345449 
18.45                          0.935292509960509 -155.92003003622 0.00715874853994895 128.865147208527 0.00715874853994895 128.865147208527 0.950250842754076 84.4758812507362 
18.5                           0.934870633453081 -156.652560481026 0.00719467105086275 128.086731526161 0.00719467105086275 128.086731526161 0.950269099871517 83.8238758414392 
18.55                          0.93444412656643 -157.388462966493 0.00723097863107718 127.313544344107 0.00723097863107718 127.313544344107 0.950285745933805 83.1741221354752 
18.6                           0.934012876369684 -158.127766276617 0.00726767939077076 126.545606063715 0.00726767939077076 126.545606063715 0.950300740692891 82.5266029198207 
18.65                          0.933576766498028 -158.870499831278 0.00730478123699748 125.782940610319 0.00730478123699748 125.782940610319 0.950314044245474 81.8813007407651 
18.7                           0.933135677007715 -159.616693716352 0.00734229187271107 125.025575968035 0.00734229187271107 125.025575968035 0.950325617023131 81.2381979047433 
18.75                          0.932689484221387 -160.366378715299 0.00738021879902167 124.273544750277 0.00738021879902167 124.273544750277 0.950335419779653 80.5972764788376 
18.8                           0.932238060563001 -161.119586342281 0.00741856932131829 123.526884808018 0.0074185693213183 123.526884808018 0.950343413575453 79.9585182909458 
18.85                          0.931781274381651 -161.876348876899 0.00745735055998984 122.785639877761 0.00745735055998984 122.785639877761 0.950349559758868 79.3219049296109 
18.9                           0.931318989763488 -162.636699400613 0.00749656946658877 122.049860271076 0.00749656946658878 122.049860271076 0.950353819944221 78.6874177435068 
18.95                          0.930851066330925 -163.40067183493 0.00753623284640652 121.319603607387 0.00753623284640652 121.319603607387 0.950356155986456 78.0550378405773 
19                             0.930377359028236 -164.168300981428 0.00757634738856833 120.59493559147  0.00757634738856833 120.59493559147  0.950356529952157 77.424746086822  
19.05                          0.929897717892585 -164.939622563722 0.00761691970490945 119.875930836773 0.00761691970490945 119.875930836773 0.950354904086772 76.7965231047262 
19.1                           0.929411987809501 -165.714673271442 0.00765795637906369 119.162673735233 0.00765795637906369 119.162673735233 0.950351240777821 76.1703492713289 
19.15                          0.928920008251683 -166.493490806328 0.00769946402738118 118.455259373699 0.00769946402738119 118.455259373699 0.950345502513878 75.5462047159251 
19.2                           0.928421613000008 -167.276113930536 0.00774144937349373 117.75379449635  0.00774144937349374 117.75379449635  0.950337651839079 74.9240693173975 
19.25                          0.927916629845485 -168.062582517262 0.00778391933856359 117.058398511587 0.00778391933856359 117.058398511587 0.950327651302925 74.3039227011725 
19.3                           0.927404880270842 -168.852937603787 0.00782688114948367 116.369204540799 0.00782688114948368 116.369204540799 0.950315463405096 73.6857442357971 
19.35                          0.926886179110328 -169.647221447054 0.00787034246754281 115.686360505045 0.00787034246754281 115.686360505045 0.95030105053501 73.0695130291304 
19.4                           0.926360334186229 -170.44547758191 0.00791431154032514 115.010030244097 0.00791431154032515 115.010030244097 0.950284374905817 72.4552079241469 
19.45                          0.925827145920459 -171.247750882116 0.00795879737987549 114.340394660404 0.0079587973798755 114.340394660404 0.950265398482519 71.8428074943455 
19.5                           0.925286406919526 -172.054087624274 0.0080038099704262 113.677652878264 0.0080038099704262 113.677652878264 0.950244082903864 71.2322900387613 
19.55                          0.924737901530995 -172.864535554794 0.00804936050923934 113.022023405918 0.00804936050923934 113.022023405917 0.950220389397679 70.6236335765746 
19.6                           0.924181405369484 -173.67914396006 0.00809546168436206 112.373745285256 0.00809546168436206 112.373745285256 0.950194278689227 70.0168158413144 
19.65                          0.923616684810069 -174.497963739922 0.00814212799331097 111.733079210413 0.00814212799331098 111.733079210413 0.950165710902218 69.4118142746514 
19.7                           0.923043496446827 -175.321047484701 0.00818937610688053 111.100308592646 0.00818937610688054 111.100308592646 0.950134645452015 68.8086060197769 
19.75                          0.922461586514087 -176.148449555843 0.00823722528239319 110.475740544597 0.0082372252823932 110.475740544597 0.950101040930599 68.2071679143658 
19.8                           0.921870690267796 -176.980226170421 0.00828569783075677 109.859706752282 0.00828569783075678 109.859706752282 0.950064854982792 67.6074764831185 
19.85                          0.92127053132419 -177.816435489649 0.00833481964164403 109.252564198025 0.00833481964164403 109.252564198024 0.950026044173234 67.0095079298815 
19.9                           0.920660820952812 -178.657137711607 0.00838462077093517 108.654695692071 0.00838462077093517 108.654695692071 0.949984563843564 66.4132381293427 
19.95                          0.920041257320653 -179.502395168377 0.00843513609423827 108.066510164952 0.00843513609423827 108.066510164952 0.949940367959226 65.8186426183015 
20                             0.919411524684006 179.647727572202 0.00848640602979418 107.488442666869 0.00848640602979418 107.488442666869 0.949893408945283 65.2256965865125 
20.05                          0.918771292524333 178.793163599941 0.00853847733335039 106.920954014777 0.00853847733335039 106.920954014777 0.949843637510593 64.6343748671027 
20.1                           0.918120214624229 177.933843550631 0.00859140396662181 106.364530022595 0.00859140396662181 106.364530022594 0.949791002459654 64.044651926564  
20.15                          0.917457928079237 177.06969548907  0.00864524803971515 105.819680245518 0.00864524803971515 105.819680245517 0.949735450491378 63.4565018543217 
20.2                           0.916784052240987 176.200644786516 0.00870008082635579 105.286936166104 0.00870008082635578 105.286936166104 0.949676925984036 62.8698983518844 
20.25                          0.9160981875868  175.32661399231  0.0087559838489036 104.766848748202 0.00875598384890359 104.766848748201 0.949615370765541 62.2848147215781 
20.3                           0.915399914510539 174.447522699395 0.00881305002797529 104.259985285433 0.00881305002797528 104.259985285432 0.949550723868204 61.701223854872  
20.35                          0.914688792029105 173.563287403428 0.00887138488901719 103.766925474554 0.00887138488901718 103.766925474554 0.949482921267041 61.1190982203028 
20.4                           0.913964356398585 172.673821355188 0.00893110781542886 103.288256651194 0.00893110781542884 103.288256651194 0.949411895600671 60.5384098510089 
20.45                          0.913226119633601 171.779034405968 0.00899235333488551 102.824568137038 0.00899235333488549 102.824568137038 0.949337575873765 59.959130331886  
20.5                           0.91247356792295 170.878832845599 0.0090552724224383 102.376444664124 0.00905527242243828 102.376444664123 0.949259887139971 59.3812307863775 
20.55                          0.911706159934113 169.973119232785 0.00912003380091403 101.944458864125 0.009120033800914 101.944458864125 0.949178750164169 58.8046818629206 
20.6                           0.910923324998677 169.061792217361 0.00918682521625585 101.52916283878  0.00918682521625582 101.52916283878  0.949094081062847 58.229453721064  
20.65                          0.910124461170125 168.144746354117 0.00925585466294748 101.131078862102 0.00925585466294745 101.131078862102 0.949005790921332 57.6555160172857 
20.7                           0.90930893314482 167.221871907782 0.00932735153278427 100.750689305507 0.00932735153278424 100.750689305507 0.948913785386531 57.0828378905359 
20.75                          0.908476070036363 166.293054648764 0.00940156765926107 100.388425922761 0.00940156765926104 100.388425922761 0.948817964233777 56.5113879475384 
20.8                           0.907625162992767 165.358175639228 0.00947877823002069 100.044658681487 0.00947877823002066 100.044658681487 0.948718220906296 55.9411342478876 
20.85                          0.906755462645125 164.417111009049 0.00955928254142664 99.719684379896  0.00955928254142661 99.7196843798959 0.948614442025752 55.3720442889825 
20.9                           0.90586617637566 163.469731721226 0.00964340457264511 99.4137153388959 0.00964340457264507 99.4137153388957 0.948506506872214 54.8040849908476 
20.95                          0.90495646539213 162.515903326238 0.00973149336184662 99.1268685074295 0.00973149336184658 99.1268685074294 0.948394286831866 54.2372226808939 
21                             0.904025441594669 161.555485704896 0.00982392317439278 98.859155359146  0.00982392317439273 98.8591553591458 0.94827764481066 53.6714230786828 
21.05                          0.903072164220136 160.58833279918  0.00992109346217225 98.6104729870594 0.0099210934621722 98.6104729870592 0.948156434612038 53.1066512807623 
21.1                           0.902095636247984 159.61429233054  0.0100234286244777 98.3805968156389 0.0100234286244777 98.3805968156388 0.948030500276804 52.5428717456554 
21.15                          0.90109480055057 158.633205505161 0.0101313775937056 98.1691753429469 0.0101313775937056 98.1691753429468 0.947899675383087 51.9800482790876 
21.2                           0.900068535769628 157.644906705651 0.0102454132832946 97.9757272960397 0.0102454132832946 97.9757272960396 0.947763782304334 51.4181440195534 
21.25                          0.899015651899365 156.64922316862  0.0103660319501399 97.7996415291531 0.0103660319501399 97.7996415291531 0.947622631423124 50.8571214243324 
21.3                           0.897934885555376 155.645974647613 0.0104937525385541 97.6401799162371 0.0104937525385541 97.6401799162371 0.947476020298569 50.2969422560794 
21.35                          0.89682489490714 154.63497306086  0.010629116086966 97.4964833892138 0.010629116086966 97.4964833892137 0.947323732784988 49.7375675701244 
21.4                           0.895684254250455 153.61602212331  0.0107726852912187 97.3675811551412 0.0107726852912186 97.3675811551411 0.947165538099474 49.1789577026379 
21.45                          0.894511448194674 152.58891696244  0.0109250443289045 97.2524029955368 0.0109250443289044 97.2524029955368 0.947001189835915 48.6210722598296 
21.5                           0.893304865438033 151.553443717318 0.0110867990571579 97.1497944174411 0.0110867990571578 97.1497944174411 0.946830424923006 48.0638701083712 
21.55                          0.892062792102794 150.509379120454 0.0112585777014591 97.0585342974386 0.0112585777014591 97.0585342974387 0.946652962523746 47.5073093672494 
21.6                           0.89078340460031 149.456490061999 0.0114410321553146 96.9773545461143 0.0114410321553146 96.9773545461143 0.946468502873873 46.951347401283  
21.65                          0.889464761994455 148.394533135881 0.0116348400105251 96.904961229951  0.0116348400105251 96.904961229951  0.946276726056734 46.3959408165551 
21.7                           0.888104797830274 147.323254167547 0.0118407074358301 96.8400565275311 0.0118407074358301 96.8400565275312 0.94607729071209 45.8410454580442 
21.75                          0.886701311393082 146.242387723041 0.0120593730190271 96.781360871795  0.0120593730190271 96.7813608717951 0.945869832676365 45.2866164097613 
21.8                           0.885251958361721 145.151656599228 0.0122916126854901 96.7276346419013 0.0122916126854901 96.7276346419013 0.945653963551993 44.7326079977322 
21.85                          0.883754240818255 144.050771295096 0.0125382458058391 96.677698815767  0.0125382458058391 96.6776988157671 0.945429269203566 44.1789737961982 
21.9                           0.882205496575118 142.939429464208 0.0128001426089697 96.630454073666  0.0128001426089697 96.6304540736661 0.945195308178669 43.6256666374424 
21.95                          0.880602887779658 141.817315348489 0.0130782330254641 96.5848979480552 0.0130782330254641 96.5848979480553 0.944951610051454 43.0726386256876 
22                             0.878943388755262 140.684099193771 0.0133735171023455 96.5401397372892 0.0133735171023455 96.5401397372892 0.944697673687298 42.5198411555542 
22.05                          0.877223773037865 139.539436647715 0.0136870771550496 96.4954130326305 0.0136870771550496 96.4954130326305 0.944432965427146 41.967224935608  
22.1                           0.875440599566725 138.382968140978 0.0140200918583148 96.4500858408179 0.0140200918583148 96.4500858408179 0.944156917190553 41.4147400175783 
22.15                          0.873590197989094 137.214318252815 0.0143738525266102 96.4036684113193 0.0143738525266102 96.4036684113193 0.943868924496883 40.8623358318737 
22.2                           0.871668653039853 136.033095062655 0.0147497818992713 96.3558189928558 0.0147497818992714 96.3558189928558 0.943568344404681 40.3099612300777 
22.25                          0.869671787959677 134.838889489581 0.0151494558288702 96.3063478444704 0.0151494558288703 96.3063478444703 0.943254493369861 39.7575645351644 
22.3                           0.867595146918836 133.631274622145 0.0155746283776107 96.2552199111666 0.0155746283776107 96.2552199111666 0.942926645024128 39.2050936002293 
22.35                          0.865433976418836 132.409805041463 0.0160272609611877 96.2025566439722 0.0160272609611877 96.2025566439722 0.942584027875948 38.6524958765983 
22.4                           0.863183205650777 131.174016141184 0.0165095563499697 96.1486375021923 0.0165095563499697 96.1486375021923 0.942225822937397 38.0997184922379 
22.45                          0.860837425798181 129.923423448591 0.0170239985536428 96.0939017264421 0.0170239985536428 96.0939017264421 0.941851161281409 37.5467083414607 
22.5                           0.858390868283264 128.657521951961 0.0175733998913844 96.0389510212316 0.0175733998913844 96.0389510212316 0.94145912153532 36.9934121869864 
22.55                          0.855837381969834 127.375785440147 0.0181609569042086 95.9845538434739 0.0181609569042087 95.9845538434738 0.941048727318151 36.4397767754927 
22.6                           0.853170409353657 126.077665861409 0.01879031722552 95.9316520681134 0.01879031722552 95.9316520681133 0.940618944630838 35.8857489678592 
22.65                          0.850382961792768 124.762592709663 0.0194656601265515 95.8813709061565 0.0194656601265515 95.8813709061564 0.940168679210639 35.3312758853799 
22.7                           0.847467593856672 123.42997244754  0.0201917942461382 95.8350330989084 0.0201917942461382 95.8350330989084 0.939696773863149 34.7763050732908 
22.75                          0.844416376905171 122.079187977112 0.0209742770710418 95.7941786249552 0.0209742770710418 95.7941786249552 0.939202005787936 34.2207846830253 
22.8                           0.841220872045829 120.70959817061  0.0218195621561435 95.7605914601646 0.0218195621561435 95.7605914601646 0.938683083916551 33.6646636746775 
22.85                          0.837872102664341 119.320537475174 0.0227351820106578 95.7363353631611 0.0227351820106578 95.7363353631611 0.938138646284827 33.107892041205  
22.9                           0.834360526775764 117.911315607445 0.0237299772418847 95.7238012732147 0.0237299772418847 95.7238012732147 0.937567257464792 32.5504210559622 
22.95                          0.83067600950722 116.481217355716 0.0248143862588869 95.72576978349   0.0248143862588869 95.7257697834901 0.936967406085286 31.9922035451853 
23                             0.826807796095761 115.029502509365 0.0260008150689954 95.7454934090345 0.0260008150689954 95.7454934090346 0.936337502474497 31.4331941870832 
