! Touchstone file exported from HFSS 3D Layout Design 2026.1.0
!        File:           D:/Work/SIM/ADS_AUTO_SIM/projects/RFSOC_RF/TX_Fillter.aedt
!        Generated:      08:07:48 AM Aug 31, 2026
!        Design:         TX_BAND1_MCFIL_R74_CNN023
!        Project:        TX_Fillter
!
# GHz S MA R 50.000000
! Terminal data exported
! Port[1] = Port1
! Port[2] = Port2
14                             0.973308162386352 -163.620771589327 0.0036499143371823 -176.517348120035 0.00364991433718229 -176.517348120034 0.974777819897642 -159.772080064484 
14.05                          0.972819174627714 -164.506068178429 0.00372056835669061 -176.900829178242 0.00372056835669061 -176.900829178242 0.974331963723998 -160.613931346072 
14.1                           0.972314907895493 -165.397360789854 0.00379457744527185 -177.26367450223 0.00379457744527184 -177.26367450223 0.973872583003558 -161.461098599126 
14.15                          0.971794609255934 -166.294832076755 0.00387220586603191 -177.605451162187 0.00387220586603191 -177.605451162186 0.973399025098789 -162.313739001403 
14.2                           0.9712574755767  -167.19867437116 0.00395374377239525 -177.925765242892 0.00395374377239525 -177.925765242891 0.972910594577889 -163.172017880051 
14.25                          0.970702649323728 -168.109090323605 0.00403951004387608 -178.224269731816 0.00403951004387609 -178.224269731815 0.972406549679844 -164.036109240405 
14.3                           0.970129213932518 -169.026293594182 0.00412985545366917 -178.500673244038 0.00412985545366916 -178.500673244037 0.971886098425595 -164.906196336532 
14.35                          0.9695361887031  -169.950509599949 0.00422516620865298 -178.754749609436 0.00422516620865299 -178.754749609435 0.971348394333463 -165.7824722875  
14.4                           0.968922523160894 -170.881976324235 0.0043258679076687 -178.986348334133 0.0043258679076687 -178.986348334132 0.970792531691285 -166.665140743773 
14.45                          0.968287090817629 -171.820945193976 0.00443242996999105 -179.195405931145 0.00443242996999106 -179.195405931144 0.970217540331111 -167.554416608604 
14.5                           0.967628682257059 -172.767682031969 0.00454537059288553 -179.381958094228 0.00454537059288552 -179.381958094227 0.969622379844629 -168.450526819896 
14.55                          0.966945997459368 -173.722468091685 0.00466526230522688 -179.546152663963 0.00466526230522688 -179.546152663962 0.969005933168631 -169.353711198587 
14.6                           0.966237637265432 -174.685601183259 0.00479273819355684 -179.688263306197 0.00479273819355686 -179.688263306196 0.968366999459468 -170.264223370363 
14.65                          0.965502093867311 -175.657396900256 0.00492849888794714 -179.808703790327 0.00492849888794714 -179.808703790326 0.967704286163387 -171.182331768272 
14.7                           0.964737740194024 -176.638189958033 0.00507332040793881 -179.90804271932 0.00507332040793881 -179.908042719319 0.967016400175564 -172.108320724744 
14.75                          0.963942818041293 -177.628335655837 0.00522806298404765 -179.987018525668 0.00522806298404766 -179.987018525667 0.96630183796407 -173.04249166255 
14.8                           0.963115424770074 -178.628211476329 0.00539368098834968 179.953445490679 0.00539368098834968 179.953445490679 0.965558974515635 -173.985164395418 
14.85                          0.962253498370445 -179.638218837948 0.00557123412908566 179.912226343136 0.00557123412908567 179.912226343136 0.964786050937134 -174.936678550319 
14.9                           0.961354800654095 179.341214982442 0.00576190008977356 179.887987051701 0.00576190008977358 179.887987051701 0.963981160519692 -175.897395125027 
14.95                          0.960416898299096 178.309634736916 0.00596698882387368 179.879163168347 0.00596698882387367 179.879163168346 0.963142233040246 -176.867698196216 
15                             0.959437141423576 177.266554881517 0.00618795875267165 179.883950470524 0.00618795875267164 179.883950470524 0.962267017037281 -177.847996795396 
15.05                          0.958412639308806 176.211457013625 0.00642643515801839 179.90029416148  0.00642643515801838 179.900294161481 0.961353059752065 -178.838726972201 
15.1                           0.957340232825065 175.143787042836 0.00668423111443696 179.925879902077 0.00668423111443695 179.925879902077 0.9603976843724  -179.840354067153 
15.15                          0.956216463033014 174.06295206263  0.00696337136874888 179.958126965002 0.00696337136874886 179.958126965002 0.959397964150784 179.14662478104  
15.2                           0.955037535336317 172.968316885485 0.00726611965204709 179.994183746363 0.00726611965204707 179.994183746363 0.95835069289053 178.121677865251 
15.25                          0.953799278443968 171.859200198889 0.00759501000128602 -179.969074209748 0.00759501000128599 -179.969074209748 0.95725235119881 177.084235844506 
15.3                           0.952497097258727 170.7348702937   0.00795288277931142 -179.935043620962 0.0079528827793114 -179.935043620962 0.956099067791066 176.033688346746 
15.35                          0.951125918635296 169.594540309372 0.00834292621687492 -179.907390382678 0.00834292621687492 -179.907390382678 0.95488657499205 174.969380198211 
15.4                           0.949680128741016 168.437362932701 0.00876872446307084 -179.890044206057 0.00876872446307081 -179.890044206057 0.953610157409044 173.89060723225  
15.45                          0.94815350049371 167.262424477688 0.00923431332784035 -179.887191351304 0.00923431332784032 -179.887191351305 0.952264592545205 172.79661162403  
15.5                           0.946539109234108 166.068738263883 0.00974424513932685 -179.903265995403 0.00974424513932684 -179.903265995403 0.95084408186604 171.68657669055  
15.55                          0.944829234399058 164.855237198974 0.0103036644293716 -179.942940940835 0.0103036644293715 -179.942940940835 0.949342170517909 170.559621087501 
15.6                           0.94301524447775 163.620765458375 0.0109183965140661 179.988881465915 0.0109183965140661 179.988881465915 0.947751653509156 169.414792325963 
15.65                          0.941087461932056 162.364069140242 0.011595051467646 179.887077186201 0.011595051467646 179.887077186201 0.946064465682607 168.251059522791 
15.7                           0.939035004013123 161.083785758746 0.0123411465153113 179.746305955782 0.0123411465153113 179.746305955782 0.944271552208512 167.067305289076 
15.75                          0.936845594470083 159.778432422025 0.0131652505163955 179.561013092118 0.0131652505163955 179.561013092118 0.942362715577923 165.862316651854 
15.8                           0.934505339972467 158.446392524781 0.0140771550016071 179.325426266377 0.014077155001607 179.325426266377 0.940326434138389 164.634774896079 
15.85                          0.931998463591165 157.0859007703   0.0150880772011605 179.033545773916 0.0150880772011605 179.033545773916 0.93814964603531 163.383244208335 
15.9                           0.929306985820651 155.69502632516  0.0162109016962813 178.679126750857 0.0162109016962813 178.679126750857 0.935817490938663 162.106159003106 
15.95                          0.926410341272654 154.271653905916 0.0174604687948759 178.25565169098  0.0174604687948759 178.25565169098  0.933313000063461 160.801809820519 
16                             0.923284916195322 152.813462606971 0.0188539195318809 177.756291502567 0.018853919531881 177.756291502567 0.930616722629792 159.468327707168 
16.05                          0.919903488205708 151.317902312783 0.0204111093924659 177.173853192904 0.020411109392466 177.173853192904 0.927706273925917 158.103667038374 
16.1                           0.916234544862627 149.782167611951 0.0221551055228523 176.500712061658 0.0221551055228523 176.500712061658 0.924555786379265 156.70558682542  
16.15                          0.912241451707285 148.203169271386 0.0241127853963469 175.728726006375 0.0241127853963469 175.728726006375 0.921135240321627 155.271630697921 
16.2                           0.907881432883329 146.577503577075 0.026315558688218 174.849129179276 0.0263155586882181 174.849129179276 0.917409645253323 153.799105994875 
16.25                          0.903104318130119 144.901420269557 0.0288002384763515 173.852401775584 0.0288002384763515 173.852401775583 0.913338035168327 152.285062793827 
16.3                           0.897850998588756 143.170790501718 0.0316100927065434 172.728112182064 0.0316100927065435 172.728112182063 0.908872232760441 150.726274342938 
16.35                          0.892051520419169 141.381077390962 0.0347961118020271 171.46472709429  0.0347961118020272 171.46472709429  0.903955327130189 149.119221372088 
16.4                           0.885622730099597 139.527313594403 0.0384185326045857 170.049384584632 0.0384185326045858 170.049384584632 0.898519798406694 147.460084360713 
16.45                          0.878465369845067 137.604093332963 0.0425486610133895 168.467624601952 0.0425486610133896 168.467624601951 0.892485211807287 145.74475036822  
16.5                           0.870460509193375 135.605591116101 0.0472710329304754 166.703071262018 0.0472710329304755 166.703071262018 0.885755396115428 143.968845014374 
16.55                          0.861465196660015 133.525627177567 0.0526859403606798 164.737062009085 0.0526859403606798 164.737062009084 0.878215023684954 142.127806452648 
16.6                           0.851307237900298 131.357812090649 0.0589123178708791 162.548221117358 0.0589123178708791 162.548221117358 0.869725533314891 140.217027973754 
16.65                          0.839779081817285 129.095822993424 0.0660909189728127 160.111980476306 0.0660909189728127 160.111980476306 0.860120407230735 138.232111118111 
16.7                           0.826630975182618 126.733895703318 0.0743875874437707 157.400061548171 0.0743875874437706 157.400061548171 0.849199972085006 136.169294641    
16.75                          0.811563922560439 124.267667385914 0.0839962058519436 154.379952659938 0.0839962058519436 154.379952659938 0.836726217643538 134.026160121859 
16.8                           0.794223722388281 121.695582905061 0.0951405247495427 151.014451346831 0.0951405247495426 151.014451346831 0.822418744646801 131.802766792924 
16.85                          0.774198704437089 119.021196685259 0.10807346589574 147.261400757668 0.10807346589574 147.261400757668 0.805954068767337 129.503439269508 
16.9                           0.751026157964156 116.256872055674 0.12307157880322 143.073842425601 0.12307157880322 143.073842425601 0.786972404150195 127.139517817689 
16.95                          0.724216288823598 113.429598366346 0.140421110235358 138.400942987239 0.140421110235358 138.400942987239 0.765099021354721 124.733453807057 
17                             0.69330817540216 110.589855561125 0.160390860334641 133.19022338115  0.160390860334641 133.190223381151 0.739991332020243 122.324605785949 
17.05                          0.657978906782092 107.824443883358 0.183186456905997 127.391778210806 0.183186456905998 127.391778210806 0.711426919735774 119.976746422603 
17.1                           0.618231259715141 105.273361233267 0.208882705254405 120.965186445382 0.208882705254405 120.965186445383 0.679447960229534 117.786173855835 
17.15                          0.574676933357428 103.147705746553 0.237338198264596 113.889418987625 0.237338198264596 113.889418987625 0.64456482833087 115.886700987681 
17.2                           0.528891427111102 101.737372377076 0.268111879913785 106.174896137544 0.268111879913786 106.174896137545 0.607981620261642 114.443104006572 
17.25                          0.483715102282678 101.380802952962 0.300421862236709 97.8748089630848 0.300421862236711 97.8748089630851 0.571729129653787 113.619414678054 
17.3                           0.443204539607024 102.350297226487 0.333197639841714 89.090608993581  0.333197639841715 89.0906089935812 0.538505580516526 113.510737478052 
17.35                          0.411807985027596 104.629468176553 0.365253729922741 79.9661586885902 0.365253729922742 79.9661586885903 0.511045557904296 114.052496695983 
17.4                           0.392626764005524 107.7056396608   0.395547701323755 70.6685170874357 0.395547701323755 70.6685170874358 0.491115162708459 114.969560665123 
17.45                          0.385659397359321 110.6704763255   0.423417930154665 61.3600545180112 0.423417930154665 61.3600545180112 0.478679150590432 115.841238096053 
17.5                           0.387642639468603 112.683527477063 0.448692395932892 52.171887534121  0.448692395932892 52.1718875341211 0.471870085631283 116.267081922838 
17.55                          0.393735626540332 113.351417571504 0.471634471271476 43.1878443296973 0.471634471271475 43.1878443296974 0.467779633696368 116.008802427721 
17.6                           0.399441420675973 112.713080748313 0.492779906352043 34.4420443201438 0.492779906352042 34.4420443201439 0.463449031255038 115.017874274611 
17.65                          0.401532346172739 111.023690127026 0.512751690648662 25.9269289843672 0.512751690648661 25.9269289843674 0.456497746018741 113.378589745148 
17.7                           0.398078576771671 108.585158623254 0.532113386077944 17.6061014106486 0.532113386077943 17.6061014106488 0.445301065247525 111.240098201896 
17.75                          0.388130757605259 105.678484453886 0.551278988835125 9.42737764628542 0.551278988835125 9.42737764628563 0.428910351594684 108.77650840726  
17.8                           0.371408142410611 102.56155052876  0.570470420007761 1.33372955900173 0.57047042000776 1.33372955900193 0.406913536657453 106.178218972489 
17.85                          0.348110951106571 99.4984409866081 0.589707055665465 -6.72840694814686 0.589707055665465 -6.72840694814669 0.379342320195732 103.666702852539 
17.9                           0.318869080218578 96.8078502298465 0.608816336153358 -14.8031418294604 0.608816336153358 -14.8031418294602 0.346663895674999 101.528503661558 
17.95                          0.28481795277111 94.9343944926264 0.627461501640925 -22.9210217402115 0.627461501640924 -22.9210217402115 0.309869294843383 100.171202312662 
18                             0.247813823054685 94.5549805487707 0.645186904200205 -31.0965924497422 0.645186904200204 -31.0965924497422 0.270677430800165 100.207797814035 
18.05                          0.210845604949389 96.712504259607  0.661481213179928 -39.3276992331852 0.661481213179928 -39.3276992331853 0.231898823119328 102.556143814269 
18.1                           0.178681267861661 102.803596175426 0.675854284864849 -47.5967132762735 0.675854284864848 -47.5967132762736 0.197967849911167 108.410832870664 
18.15                          0.158183347821704 113.673674701873 0.687916658947926 -55.8737358338452 0.687916658947924 -55.8737358338453 0.175167324019353 118.541843769386 
18.2                           0.155817941180787 127.209119838819 0.697445504762634 -64.1214606709846 0.697445504762632 -64.1214606709847 0.169636894247161 131.44003625697  
18.25                          0.171791995600574 138.524775833366 0.704421343977203 -72.3009320328369 0.704421343977201 -72.300932032837 0.182401782587912 143.051644684645 
18.3                           0.199704364813977 144.982665171343 0.709027237543845 -80.3771559614676 0.709027237543842 -80.3771559614676 0.208110342415081 150.57318526488  
18.35                          0.232544265349308 147.171057883877 0.711613314014946 -88.3235752730057 0.711613314014944 -88.3235752730057 0.239932079657139 154.072178031512 
18.4                           0.265617806845862 146.46387339437  0.712639025096683 -96.124789216014 0.712639025096681 -96.124789216014 0.272907970366599 154.693512147965 
18.45                          0.296236956198179 143.911657453984 0.712609167898208 -103.7774068379  0.712609167898207 -103.7774068379  0.304089066978191 153.454168971159 
18.5                           0.322948558706282 140.170926628491 0.712017156180478 -111.289349346171 0.712017156180478 -111.289349346171 0.331858086664539 151.03682608568  
18.55                          0.345024547037017 135.631219696526 0.711303036619065 -118.678132923277 0.711303036619066 -118.678132923277 0.355399525872059 147.868558532801 
18.6                           0.362169249569699 130.518789631426 0.710827729742496 -125.968669212878 0.710827729742497 -125.968669212878 0.374378516305871 144.213314619284 
18.65                          0.37435011547158 124.960265881834 0.710860994078154 -133.190996095864 0.710860994078156 -133.190996095864 0.388751655640766 140.234714391756 
18.7                           0.381699201262222 119.019684911258 0.711579036732993 -140.378188242185 0.711579036732994 -140.378188242185 0.398655260716024 136.034439348474 
18.75                          0.384458970345035 112.719984155266 0.713067874423509 -147.564557542758 0.713067874423511 -147.564557542758 0.404341045745571 131.675198750426 
18.8                           0.382958215459255 106.055542528594 0.715329601751212 -154.784163594131 0.715329601751213 -154.784163594132 0.406142246886613 127.194292635134 
18.85                          0.377609524012881 98.9994876600013 0.718289962816187 -162.069614261213 0.718289962816187 -162.069614261214 0.404459400639918 122.611180033794 
18.9                           0.368922346147695 91.5080085109234 0.721806648478326 -169.451134408549 0.721806648478326 -169.451134408549 0.399757876912448 117.930818490352 
18.95                          0.357526802038775 83.5233374708016 0.725678362059769 -176.955902114649 0.725678362059768 -176.955902114649 0.392570584585761 113.143586732122 
19                             0.344203280819182 74.9771752764349 0.72965482889    175.392319447631 0.729654828889999 175.39231944763  0.383499956479226 108.222123130148 
19.05                          0.329911552383591 65.7970506176917 0.733447553971835 167.573205626117 0.733447553971835 167.573205626117 0.373214221547959 103.11536331924  
19.1                           0.315810147933171 55.9192004534824 0.736740325967574 159.569504340408 0.736740325967575 159.569504340408 0.362435064548216 97.7405176888174 
19.15                          0.303251950258498 45.3119784489605 0.739197433035849 151.366278571581 0.739197433035851 151.366278571582 0.351918010496503 91.9747848502251 
19.2                           0.293736966884869 34.0107994074967 0.740466689105796 142.94984718925  0.740466689105801 142.949847189251 0.342433445497846 85.6501786027173 
19.25                          0.288805067127183 22.1554220556962 0.740174230766129 134.306654099374 0.740174230766137 134.306654099374 0.334763186820488 78.5565357134913 
19.3                           0.289872203258191 10.0044638028106 0.737909281125763 125.422469107252 0.737909281125773 125.422469107252 0.329729589649177 70.4587884158019 
19.35                          0.298054971197816 -2.10270693269669 0.733200280868319 116.282498392824 0.733200280868331 116.282498392824 0.328262850529727 61.1338825093557 
19.4                           0.314055344078106 -13.8376425135308 0.725489314309291 106.873102014683 0.725489314309303 106.873102014683 0.331480280837035 50.4285797374285 
19.45                          0.338139193395598 -24.9807601910399 0.714119336035837 97.1857851030642 0.714119336035848 97.1857851030639 0.340704047817431 38.3286587201022 
19.5                           0.370157701242031 -35.4663007381342 0.698356466563304 87.2237962807861 0.698356466563312 87.2237962807858 0.357314709706608 25.011666588689  
19.55                          0.409527049030906 -45.3569489797604 0.677472498108802 77.0108458566644 0.677472498108807 77.0108458566641 0.38238731104685 10.8427786193157 
19.6                           0.455146125760454 -54.7770314628305 0.650901731769472 66.6000803922997 0.650901731769473 66.6000803922996 0.416208110702096 -3.70457790250685 
19.65                          0.505330598061374 -63.8445695265129 0.618453019293498 56.0798972450081 0.618453019293496 56.0798972450083 0.457918023712368 -18.1652463782477 
19.7                           0.557882089724868 -72.6280177202186 0.580508239310694 45.5725418639609 0.580508239310692 45.5725418639616 0.505509504195655 -32.1683104716004 
19.75                          0.610352850340091 -81.1347980782505 0.53810518830462 35.2230655001882 0.538105188304619 35.2230655001895 0.556211165144794 -45.4612744080914 
19.8                           0.66044316413017 -89.3251551697368 0.492830307291919 25.1802912318351 0.49283030729192 25.180291231837  0.607091744231299 -57.8929241745344 
19.85                          0.706373340055864 -97.1380581068993 0.446539233515339 15.5757064439893 0.446539233515344 15.5757064439917 0.655632974954821 -69.3872228903017 
19.9                           0.747083835630013 -104.515938077757 0.401017123609858 6.50740287743698 0.401017123609867 6.50740287743956 0.700078388155537 -79.923249616734 
19.95                          0.782221508901928 -111.420298051409 0.357710319382067 -1.96668289289255 0.357710319382079 -1.96668289288993 0.739503907144083 -89.5210878010899 
20                             0.811975694725756 -117.836820542755 0.317600380196166 -9.82652857865392 0.31760038019618 -9.82652857865149 0.773681910647472 -98.2301132678549 
20.05                          0.83686542701611 -123.772942453777 0.281211588694337 -17.0821629510979 0.281211588694352 -17.0821629510957 0.802858280362723 -106.118239423386 
20.1                           0.857553692125904 -129.251949571821 0.248698477444222 -23.7640369673838 0.248698477444237 -23.7640369673821 0.827537875505385 -113.262556575401 
20.15                          0.874719678827984 -134.306647310286 0.219958375048567 -29.9142935363416 0.219958375048581 -29.9142935363403 0.848324094189849 -119.742093468802 
20.2                           0.888987353248369 -138.974163033284 0.194733881959678 -35.5801023915197 0.194733881959691 -35.5801023915189 0.865818892291444 -125.632920233282 
20.25                          0.900895087704682 -143.292306539995 0.172690987668603 -40.8091740555407 0.172690987668614 -40.8091740555403 0.88057077269144 -131.00530554    
20.3                           0.910890094517069 -147.297329456096 0.153471773010878 -45.6470676492434 0.153471773010887 -45.6470676492434 0.893054305372107 -135.922409794723 
20.35                          0.919335453547428 -151.022729438127 0.136726429744035 -50.1357852593292 0.136726429744043 -50.1357852593296 0.9036675999997  -140.439992816494 
20.4                           0.926522108544319 -154.498750185609 0.122130552711621 -54.3132044287381 0.122130552711626 -54.3132044287387 0.912738570821437 -144.606718610603 
20.45                          0.93268169697508 -157.752304641909 0.109392858318349 -58.2130136610598 0.109392858318353 -58.2130136610606 0.920534571744126 -148.46476524782 
20.5                           0.937998285924104 -160.807132671503 0.098257135354602 -61.8649240045932 0.098257135354605 -61.864924004594 0.927272530485837 -152.050554469452 
20.55                          0.942618320830834 -163.684072613501 0.0885009902223958 -65.2950133590036 0.088500990222398 -65.2950133590044 0.933128248563949 -155.395493010053 
20.6                           0.946658710538191 -166.401374453346 0.0799330022626514 -68.5261181257348 0.0799330022626528 -68.5261181257355 0.938244378756213 -158.526668623785 
20.65                          0.95021323870576 -168.97501405914 0.0723892533812197 -71.5782244192216 0.0723892533812204 -71.578224419222 0.942737015498581 -161.46747510503 
20.7                           0.953357576966667 -171.418987601272 0.065729775029192 -74.4688342628036 0.0657297750291923 -74.4688342628039 0.946701021724649 -164.238158622245 
20.75                          0.956153175564794 -173.745576927341 0.059835195683277 -77.2132959206844 0.0598351956832769 -77.2132959206844 0.950214280665784 -166.856287336332 
20.8                           0.958650273442311 -175.965583246368 0.0546037179094599 -79.8250952800472 0.0546037179094596 -79.8250952800469 0.953341066901834 -169.337150907848 
20.85                          0.960890226754757 -178.088529973185 0.0499484665934283 -82.3161093358554 0.0499484665934276 -82.3161093358548 0.956134711510538 -171.694098264039 
20.9                           0.962907313617935 179.877162733537 0.0457952029181809 -84.6968248345206 0.0457952029181802 -84.6968248345195 0.9586397086279  -173.938822215221 
20.95                          0.964730137619646 177.924028553113 0.0420803755794343 -86.9765259202845 0.0420803755794336 -86.9765259202834 0.960893383076826 -176.081598958102 
21                             0.96638272407942 176.045427423218 0.0387494713117246 -89.1634547525243 0.0387494713117238 -89.1634547525227 0.962927214201622 -178.131489623026 
21.05                          0.967885380660137 174.235436704659 0.0357556248771244 -91.2649488481667 0.0357556248771238 -91.2649488481648 0.964767890605868 179.90348994696  
21.1                           0.969255376721838 172.488758308379 0.0330584506031463 -93.2875585372245 0.0330584506031456 -93.2875585372222 0.966438154030518 178.016225932109 
21.15                          0.970507482713787 170.800639352487 0.0306230612524667 -95.2371475044063 0.0306230612524661 -95.2371475044039 0.967957477620602 176.200385378791 
21.2                           0.97165440100034 169.166804260028 0.0284192442983321 -97.1189789803321 0.0284192442983316 -97.1189789803296 0.969342613703705 174.450313476278 
21.25                          0.972707112051109 167.583396522497 0.0264207699468244 -98.9377897685409 0.0264207699468239 -98.9377897685384 0.97060803836463 172.760946220394 
21.3                           0.973675154299505 166.046928631446 0.0246048091880738 -100.697853959816 0.0246048091880735 -100.697853959813 0.971766314053125 171.127735941613 
21.35                          0.97456685172812 164.55423891971  0.0229514436489254 -102.403037895503 0.0229514436489252 -102.4030378955  0.97282838680117 169.546587611143 
21.4                           0.975389500028202 163.102454256968 0.0214432520324325 -104.056847694163 0.0214432520324323 -104.056847694161 0.973803831033065 168.01380419861  
21.45                          0.976149519743762 161.688957715462 0.020064960487359 -105.662470446899 0.0200649604873588 -105.662470446896 0.974701052176385 166.526039651476 
21.5                           0.976852582954959 160.311360464816 0.0188031463986731 -107.22281001113 0.018803146398673 -107.222810011127 0.975527455133122 165.080258309939 
21.55                          0.977503718635706 158.967477274301 0.0176459868805174 -108.740518185688 0.0176459868805174 -108.740518185686 0.976289585001394 163.673699771301 
21.6                           0.978107400729656 157.655305100243 0.0165830447387557 -110.218021927372 0.0165830447387557 -110.21802192737 0.976993245137236 162.303848382256 
21.65                          0.978667622146497 156.373004318979 0.0156050858992567 -111.657547166684 0.0156050858992567 -111.657547166683 0.977643596628086 160.968406672995 
21.7                           0.979187957227094 155.118882234496 0.0147039233132429 -113.061139694905 0.0147039233132429 -113.061139694903 0.978245242449912 159.665272158496 
21.75                          0.979671614716577 153.891378547248 0.0138722831889608 -114.430683523212 0.0138722831889608 -114.430683523211 0.978802298949025 158.392517024551 
21.8                           0.980121482885257 152.689052518391 0.013103690090616 -115.767917054673 0.013103690090616 -115.767917054672 0.979318456789772 157.148370292242 
21.85                          0.980540168122865 151.510571603646 0.0123923680167956 -117.074447359775 0.0123923680167956 -117.074447359775 0.979797033111604 155.931202117837 
21.9                           0.980930028082814 150.354701364387 0.0117331550429207 -118.351762803948 0.0117331550429207 -118.351762803948 0.980241016321229 154.739509937604 
21.95                          0.981293200255266 149.220296491663 0.0111214295032602 -119.601244240006 0.0111214295032601 -119.601244240006 0.980653104690505 153.571906210903 
22                             0.981631626689677 148.106292802404 0.0105530460122117 -120.824174948399 0.0105530460122116 -120.8241749484  0.981035739725255 152.427107551519 
22.05                          0.981947075460459 147.011700086996 0.010024279893777 -122.021749482743 0.0100242798937769 -122.021749482745 0.981391135103877 151.303925067919 
22.1                           0.982241159366974 145.935595704194 0.00953177881216531 -123.195081556486 0.00953177881216513 -123.195081556487 0.981721301849542 150.201255758918 
22.15                          0.982515352276039 144.877118833618 0.00907252058318969 -124.345211088196 0.00907252058318953 -124.345211088198 0.982028070289546 149.118074832972 
22.2                           0.982771003447532 143.83546530815  0.00864377630210474 -125.473110507258 0.00864377630210453 -125.473110507261 0.982313109265183 148.053428837693 
22.25                          0.983009350128428 142.809882958878 0.00824307805408662 -126.579690408327 0.00824307805408636 -126.57969040833 0.982577942981318 147.006429501757 
22.3                           0.983231528655246 141.799667414031 0.0078681905830593 -127.665804631371 0.00786819058305899 -127.665804631374 0.982823965823644 145.97624820457  
22.35                          0.98343858426744 140.804158300863 0.0075170863866045 -128.732254834223 0.00751708638660422 -128.732254834226 0.983052455420983 144.962111000331 
22.4                           0.983631479803371 139.822735805933 0.00718792378220875 -129.779794616037 0.00718792378220844 -129.77979461604 0.983264584187861 143.963294132741 
22.45                          0.983811103424734 138.854817554748 0.00687902755552245 -130.80913324266 0.00687902755552213 -130.809133242663 0.983461429547534 142.979119984815 
22.5                           0.983978275493866 137.899855776569 0.00658887185663956 -131.820939018564 0.00658887185663924 -131.820939018567 0.983643983006266 142.008953415321 
22.55                          0.984133754710422 136.957334724278 0.00631606505729754 -132.815842344465 0.00631606505729723 -132.815842344468 0.983813158225063 141.05219843945  
22.6                           0.984278243598816 136.026768322813 0.00605933632172112 -133.794438494946 0.00605933632172082 -133.794438494949 0.983969798214315 140.108295216498 
22.65                          0.984412393425113 135.107698022783 0.00581752367771899 -134.757290146257 0.00581752367771871 -134.757290146259 0.984114681759317 139.176717311937 
22.7                           0.984536808611293 134.199690838571 0.00558956340353575 -135.704929680815 0.00558956340353549 -135.704929680818 0.984248529169822 138.25696920508  
22.75                          0.984652050705729 133.302337552606 0.005374480570643 -136.637861291801 0.00537448057064277 -136.637861291804 0.984372007434184 137.348584017003 
22.8                           0.984758641960919 132.415251069527 0.00517138060378169 -137.556562908444 0.0051713806037815 -137.556562908447 0.984485734847974 136.451121436291 
22.85                          0.984857068562924 131.538064905778 0.00497944173768487 -138.461487960237 0.00497944173768474 -138.46148796024 0.984590285177755 135.56416582278  
22.9                           0.984947783551273 130.670431801749 0.00479790826547731 -139.353066996179 0.00479790826547719 -139.353066996181 0.984686191412935 134.687324471684 
22.95                          0.985031209463252 129.812022444957 0.00462608448714713 -140.231709173306 0.00462608448714708 -140.231709173307 0.984773949151851 133.82022602247  
23                             0.985107740732298 128.962524293998 0.00446332927803936 -141.097803627181 0.00446332927803936 -141.097803627181 0.984854019662493 132.962518998572 
