! Touchstone file exported from HFSS 3D Layout Design 2026.1.0
!        File:           D:/Work/SIM/ADS_AUTO_SIM/projects/RFSOC_RF/TX_Fillter.aedt
!        Generated:      05:53:46 AM Aug 31, 2026
!        Design:         TX_BAND1_MCFIL_R57_CNN016
!        Project:        TX_Fillter
!
# GHz S MA R 50.000000
! Terminal data exported
! Port[1] = Port1
! Port[2] = Port2
14                             0.973063992000731 -165.051186603563 0.00368569108462604 -177.423340628924 0.00368569108462604 -177.423340628924 0.974064115288816 -161.330857059258 
14.05                          0.972574178675892 -165.948970087796 0.00375886463882295 -177.811690314824 0.00375886463882291 -177.811690314824 0.973590301713347 -162.194382254796 
14.1                           0.972069269554352 -166.852752975041 0.0038355524849243 -178.179533371539 0.00383555248492425 -178.179533371539 0.973101685248307 -163.063679823317 
14.15                          0.971548529786956 -167.762715794135 0.00391603282351345 -178.526470447516 0.00391603282351335 -178.526470447517 0.97259753492778 -163.938925447022 
14.2                           0.971011176094731 -168.679048622317 0.00400061116539579 -178.852145429315 0.00400061116539569 -178.852145429316 0.972077070840354 -164.820304093435 
14.25                          0.970456372761277 -169.601951708822 0.00408962332249738 -179.156253632386 0.00408962332249725 -179.156253632386 0.971539460007523 -165.708010631604 
14.3                           0.969883227223864 -170.531636147783 0.0041834387484248 -179.438550817427 0.00418343874842471 -179.438550817427 0.970983811842252 -166.602250498146 
14.35                          0.969290785215827 -171.468324605151 0.00428246427148943 -179.698863049146 0.00428246427148931 -179.698863049146 0.970409173137266 -167.503240417977 
14.4                           0.968678025406378 -172.412252104803 0.00438714826858946 -179.93709739926 0.00438714826858933 -179.93709739926 0.96981452252573 -168.411209185106 
14.45                          0.968043853476449 -173.36366687965 0.00449798533477662 179.846746522893 0.00449798533477649 179.846746522893 0.969198764348806 -169.326398509508 
14.5                           0.967387095560534 -174.32283129417 0.00461552151076125 179.652564251128 0.00461552151076113 179.652564251128 0.968560721855269 -170.249063936776 
14.55                          0.966706490974432 -175.290022845553 0.00474036013923055 179.480133419638 0.00474036013923042 179.480133419639 0.967899129647421 -171.179475848056 
14.6                           0.966000684137071 -176.265535251501 0.00487316843089984 179.329100091524 0.00487316843089973 179.329100091525 0.967212625274836 -172.117920548661 
14.65                          0.96526821558096 -177.249679633642 0.00501468483297978 179.198964586357 0.00501468483297967 179.198964586357 0.966499739862631 -173.06470145479 
14.7                           0.964507511929852 -178.242785806633 0.00516572730657469 179.089066969797 0.00516572730657458 179.089066969798 0.965758887643556 -174.020140388916 
14.75                          0.963716874703492 -179.245203684231 0.00532720263586262 178.998572404676 0.00532720263586251 178.998572404676 0.964988354242785 -174.984578995769 
14.8                           0.962894467787336 179.742695184996 0.00550011691127346 178.926456598843 0.00550011691127337 178.926456598843 0.964186283540234 -175.958380292303 
14.85                          0.962038303379244 178.720515938047 0.00568558735191622 178.871491618382 0.00568558735191616 178.871491618382 0.963350662906879 -176.941930366791 
14.9                           0.961146226194531 177.687838557892 0.00588485565998956 178.83223236286  0.00588485565998949 178.83223236286  0.962479306577921 -177.935640244148 
14.95                          0.960215895674498 176.644215855769 0.00609930313277668 178.807004019309 0.00609930313277662 178.807004019309 0.961569836885809 -178.939947936837 
15                             0.95924476590051 175.589171254903 0.00633046779721475 178.793890820351 0.0063304677972147 178.793890820351 0.960619663028618 -179.955320703295 
15.05                          0.958230062864286 174.522196352473 0.00658006387930323 178.790726426125 0.00658006387930316 178.790726426124 0.959625956992629 179.017742461211 
15.1                           0.957168758683747 173.442748233602 0.00685000397742797 178.795086226427 0.00685000397742795 178.795086226426 0.95858562618004 177.978708073006 
15.15                          0.956057542280097 172.350246507632 0.00714242437701682 178.804281816104 0.00714242437701677 178.804281816103 0.957495282211189 176.927005115475 
15.2                           0.954892785943333 171.244070032924 0.00745971402621323 178.815357831643 0.00745971402621321 178.815357831643 0.956351205272332 175.862021664901 
15.25                          0.953670507106493 170.123553291877 0.00780454779138015 178.825091249338 0.00780454779138014 178.825091249338 0.955149303261158 174.783101144797 
15.3                           0.95238632451958 168.987982372605 0.00817992473077209 178.829993136156 0.00817992473077206 178.829993136156 0.953885064837983 173.689538160971 
15.35                          0.951035407856978 167.836590507815 0.008589212268987 178.826312715767 0.00858921226898699 178.826312715767 0.952553505314985 172.580573862764 
15.4                           0.949612419600534 166.668553114624 0.00903619732915977 178.810043467768 0.00903619732915976 178.810043467767 0.951149104101379 171.455390768163 
15.45                          0.948111447806258 165.48298227153  0.00952514569085372 178.776930823135 0.00952514569085371 178.776930823135 0.949665732159546 170.313106981617 
15.5                           0.946525928074921 164.278920560121 0.010060871097383 178.722480859278 0.010060871097383 178.722480859277 0.948096567603784 169.15276972341  
15.55                          0.944848552692732 163.055334189692 0.0106488159469325 178.641969240171 0.0106488159469326 178.64196924017  0.946433997174218 167.9733480781   
15.6                           0.943071164470575 161.811105312489 0.0112951457798699 178.530449497048 0.0112951457798699 178.530449497048 0.94466950082403 166.773724856989 
15.65                          0.941184632267633 160.545023426145 0.0120068602356277 178.382759607868 0.0120068602356277 178.382759607867 0.942793516043716 165.552687455756 
15.7                           0.939178704510182 159.255775748197 0.0127919237157945 178.193525712524 0.0127919237157946 178.193525712523 0.940795277779724 164.30891757355  
15.75                          0.93704183617402 157.941936436068 0.0136594196794907 177.957161696064 0.0136594196794907 177.957161696063 0.938662628846127 163.04097964445  
15.8                           0.934760983644968 156.601954515414 0.0146197333421322 177.667863281579 0.0146197333421322 177.667863281579 0.936381794524699 161.74730781718  
15.85                          0.932321360549509 155.234140372127 0.0156847685852362 177.319595192513 0.0156847685852362 177.319595192513 0.933937113534714 160.426191305786 
15.9                           0.929706145985265 153.83665066113  0.0168682061563473 176.9060698619   0.0168682061563473 176.9060698619   0.931310715643915 159.075757925402 
15.95                          0.926896134488208 152.407471492837 0.0181858117958837 176.420716072002 0.0181858117958838 176.420716072001 0.928482133778799 157.693955627379 
16                             0.923869314437294 150.944399782716 0.0196558048310812 175.856635787811 0.0196558048310812 175.856635787811 0.925427835439916 156.278531864059 
16.05                          0.92060035827909 149.445022701627 0.0212993000917715 175.206547286548 0.0212993000917716 175.206547286548 0.922120654367245 154.827010656293 
16.1                           0.917060003788652 147.906695261649 0.0231408387953637 174.462712466462 0.0231408387953637 174.462712466462 0.918529098526119 153.336667324225 
16.15                          0.913214300378029 146.326516240786 0.0252090273765754 173.616845927289 0.0252090273765755 173.616845927289 0.914616504352995 151.804501001907 
16.2                           0.909023688018433 144.70130293218  0.0275373071281232 172.66000304004  0.0275373071281233 172.66000304004  0.910339999543384 150.227205333451 
16.25                          0.904441868477253 143.027565665189 0.0301648819280532 171.582443761545 0.0301648819280533 171.582443761545 0.905649227216809 148.601138213108 
16.3                           0.899414419204258 141.301483790347 0.0331378360709788 170.3734684092   0.0331378360709789 170.3734684092   0.900484772868031 146.922292195922 
16.35                          0.89387708949909 139.518886010492 0.0365104788352535 169.021221029286 0.0365104788352536 169.021221029286 0.894776222153975 145.186268447277 
16.4                           0.887753707265104 137.675239832487 0.0403469559501243 167.51245544945  0.0403469559501244 167.512455449451 0.888439762855309 143.388259102487 
16.45                          0.88095361451937 135.765657911232 0.044723168736738 165.832258764603 0.0447231687367382 165.832258764603 0.881375230009637 141.523046123823 
16.5                           0.873368544849067 133.784933793883 0.0497290360100549 163.963727167858 0.0497290360100552 163.963727167859 0.873462483216284 139.585029893863 
16.55                          0.86486886418872 131.727627037577 0.0554711158597948 161.887590246146 0.0554711158597949 161.887590246146 0.864557007765601 137.568309019532 
16.6                           0.855299133074443 129.588229399345 0.0620755638579855 159.58178305728  0.0620755638579856 159.58178305728  0.854484662922808 135.466845958653 
16.65                          0.844473042634392 127.361462101321 0.0696913237848329 157.020972092053 0.0696913237848331 157.020972092053 0.843035592428786 133.274773962676 
16.7                           0.832167979780157 125.042782443989 0.0784932986824706 154.176054238081 0.0784932986824707 154.176054238081 0.82995752093813 130.98693380112  
16.75                          0.818119879406529 122.629220885339 0.0886849909871703 151.013671281134 0.0886849909871703 151.013671281135 0.814949086312539 128.599780169119 
16.8                           0.802019771917225 120.1207325095   0.100499669842257 147.49582255515  0.100499669842257 147.49582255515  0.797654671554927 126.112876202148 
16.85                          0.783514761173864 117.522333385176 0.114198448081887 143.579723541058 0.114198448081886 143.579723541059 0.777663670394485 123.531309815205 
16.9                           0.762218372043009 114.847397489974 0.130062674789756 139.218157769275 0.130062674789755 139.218157769275 0.754519623170241 120.869522798537 
16.95                          0.737738555655723 112.122580065611 0.148376821634433 134.360707769684 0.148376821634433 134.360707769684 0.727748593713513 118.157225962067 
17                             0.709735988574179 109.39480157874  0.169396918935453 128.956413128273 0.169396918935453 128.956413128273 0.696921588558397 115.448196527301 
17.05                          0.678029121515969 106.740302862452 0.193299596500106 122.958526017645 0.193299596500105 122.958526017645 0.661771500405088 112.832557278234 
17.1                           0.642760926977242 104.274394136586 0.220109962304931 116.331960093629 0.22010996230493 116.331960093629 0.622386376322654 110.451964148097 
17.15                          0.604625027203739 102.157215997829 0.249615796234829 109.063482005207 0.249615796234829 109.063482005207 0.57948669528681 108.513578461404 
17.2                           0.565100334218066 100.584795986495 0.281292331831547 101.17337554174  0.281292331831547 101.17337554174  0.534745465809516 107.290498589888 
17.25                          0.526555971079797 99.7478445419629 0.314280910039644 92.7252566586673 0.314280910039644 92.7252566586675 0.491006454610356 107.082368643382 
17.3                           0.492001225288281 99.7439152900536 0.347468718893463 83.8289069336874 0.347468718893463 83.8289069336875 0.452113176059348 108.100188095822 
17.35                          0.464303716649934 100.463582941715 0.379683853929085 74.6314380390271 0.379683853929086 74.631438039027  0.422016892655375 110.274741199376 
17.4                           0.445050604905537 101.537579442521 0.409952141287288 65.2963245408275 0.409952141287288 65.2963245408274 0.403202059060125 113.114729693712 
17.45                          0.433734227615998 102.441112824481 0.437707336698085 55.9762506143314 0.437707336698084 55.9762506143312 0.395331742289018 115.834362263161 
17.5                           0.427929461364573 102.712760360694 0.462861771442041 46.789536753276  0.46286177144204 46.7895367532758 0.395337760686543 117.736835376241 
17.55                          0.424317832038049 102.111628637204 0.485725262982227 37.8077553151152 0.485725262982225 37.8077553151149 0.398920196273345 118.499696376428 
17.6                           0.419761616263096 100.61963436412  0.506836181759865 29.0559712450313 0.506836181759863 29.0559712450311 0.402131513531044 118.157673775277 
17.65                          0.411877139794064 98.3549735797265 0.526785921437837 20.5218229086119 0.526785921437834 20.5218229086118 0.402137148419945 116.934492029847 
17.7                           0.399122765143929 95.4903653425917 0.54608694113869 12.1681498585215 0.546086941138687 12.1681498585213 0.397254207255783 115.107280734162 
17.75                          0.380656809082432 92.2120352094779 0.565095764753477 3.94523296633769 0.565095764753474 3.94523296633767 0.386704485203733 112.94929491741  
17.8                           0.356166901817441 88.7152969858198 0.583980582712076 -4.19919027582377 0.583980582712073 -4.19919027582375 0.370368270370988 110.726235747073 
17.85                          0.32576063486462 85.2266075120375 0.602719115746986 -12.3124734877482 0.602719115746984 -12.3124734877482 0.348641829722431 108.719110586053 
17.9                           0.28994071300963 82.0520949719602 0.621117138835824 -20.4318684100899 0.621117138835822 -20.4318684100898 0.322411066763165 107.259562109056 
17.95                          0.249672788748245 79.6712722787718 0.638843762628168 -28.5812344080961 0.638843762628168 -28.5812344080961 0.293127463648292 106.769650425644 
18                             0.206589812135977 78.9305045459086 0.65548229979937 -36.7694854197775 0.655482299799371 -36.7694854197775 0.262965526932888 107.788050802469 
18.05                          0.16350865382097 81.4565121061364 0.670594265733053 -44.990787880359 0.670594265733054 -44.9907878803591 0.235003895738364 110.9218130176   
18.1                           0.125762083540645 90.3287356142203 0.68378975319197 -53.2265374250999 0.683789753191971 -53.2265374251001 0.213212323975909 116.579544595767 
18.15                          0.103500867543485 108.94222682055  0.69479266730517 -61.448950341972 0.694792667305172 -61.4489503419722 0.201701951595812 124.380413033494 
18.2                           0.107598740337517 131.733768217088 0.703487416223502 -69.6257820720756 0.703487416223503 -69.6257820720759 0.202850606701454 132.745224293985 
18.25                          0.133893771426238 146.399521503379 0.709936827091416 -77.7253927458961 0.709936827091416 -77.7253927458964 0.215657335285461 139.681527092627 
18.3                           0.169568960853405 152.122304869345 0.714368671598378 -85.7212858590562 0.714368671598378 -85.7212858590566 0.236472162141818 144.106883205586 
18.35                          0.206663554999277 152.692479917365 0.717136846288142 -93.5954183331752 0.717136846288142 -93.5954183331755 0.261167677753176 146.043383952241 
18.4                           0.241503381140784 150.531384626993 0.718668988051205 -101.339944240457 0.718668988051204 -101.339944240457 0.286474759376566 146.004189371194 
18.45                          0.272363532191727 146.851115008186 0.719413126728206 -108.957449513026 0.719413126728205 -108.957449513026 0.310200074085014 144.53516137327  
18.5                           0.298427339356139 142.263369371955 0.719792709807897 -116.460016578642 0.719792709807897 -116.460016578642 0.331005470056709 142.063981639293 
18.55                          0.319359012097456 137.08849779347  0.720174423521334 -123.867567545756 0.720174423521335 -123.867567545756 0.348146735440373 138.892032698354 
18.6                           0.335103212396377 131.496500154784 0.720848956162686 -131.205899361427 0.720848956162689 -131.205899361427 0.361274601963296 135.222895273915 
18.65                          0.345778728433894 125.573896258583 0.722022314372021 -138.504712357359 0.722022314372024 -138.504712357359 0.370300596994714 131.191376470965 
18.7                           0.351620159933388 119.357368927837 0.723814505313001 -145.795809181447 0.723814505313005 -145.795809181447 0.375312108262228 126.885306664595 
18.75                          0.35294929610399 112.851493055276 0.726262761790104 -153.111543485767 0.72626276179011 -153.111543485767 0.376522371889154 122.360275470231 
18.8                           0.350167178650433 106.038223488405 0.729327364367324 -160.483540561142 0.72932736436733 -160.483540561142 0.374244621521209 117.648840695259 
18.85                          0.343761239587535 98.881799814542  0.732899018022402 -167.941692307514 0.732899018022408 -167.941692307514 0.368882168182011 112.765447282639 
18.9                           0.334323226535437 91.3310734246028 0.736807377022967 -175.513435315508 0.736807377022973 -175.513435315508 0.36092765618291 107.707752412656 
18.95                          0.322574039054388 83.3207869598253 0.740830528300008 176.77666100506  0.740830528300012 176.77666100506  0.350965620659288 102.454648824227 
19                             0.309391361658704 74.7736858286662 0.744704987905492 168.906955179356 0.744704987905495 168.906955179356 0.339673373178378 96.9611753573769 
19.05                          0.295834864417765 65.6064434895801 0.74813508605896 160.858408461595 0.74813508605896 160.858408461595 0.327816947487544 91.1508995577616 
19.1                           0.283161035560003 55.7438995375133 0.750799701636959 152.613880560752 0.750799701636957 152.613880560752 0.316242160768302 84.9075193296476 
19.15                          0.272814628269909 45.1464351604649 0.752353520844702 144.157141061501 0.752353520844699 144.157141061501 0.305866012719723 78.0695545405952 
19.2                           0.266377592735089 33.8504124126295 0.752419875883016 135.471827177627 0.752419875883012 135.471827177627 0.297678934385045 70.4348229522956 
19.25                          0.265457060110642 22.00695968821   0.750573424318451 126.540751408342 0.750573424318448 126.540751408343 0.292768371889617 61.7835507427501 
19.3                           0.271515132359563 9.88575895183401 0.746314133321733 117.346144427443 0.746314133321731 117.346144427444 0.292359743270022 51.9272576060484 
19.35                          0.285683537376421 -2.18518398671113 0.739039756976155 107.871554176835 0.739039756976156 107.871554176836 0.297836135089899 40.7800426578762 
19.4                           0.308623791353717 -13.925011830066 0.728032161241977 98.1061101572544 0.728032161241981 98.1061101572555 0.310658292214738 28.4271642650453 
19.45                          0.340448281080051 -25.1825513431335 0.712481630214863 88.0515317825407 0.712481630214869 88.0515317825418 0.332110740015806 15.1453867976298 
19.5                           0.380658002820788 -35.9437196566606 0.691577110772133 77.7313949388892 0.69157711077214 77.7313949388899 0.362894640103323 1.34319434553735 
19.55                          0.428068918747017 -46.2752220725837 0.664678848912319 67.2006784040612 0.664678848912325 67.2006784040616 0.402727011096566 -12.5519337821305 
19.6                           0.480782704738461 -56.2529507909662 0.631552950729259 56.5518962628848 0.631552950729261 56.551896262885  0.450156206191204 -26.1867287326311 
19.65                          0.536308724467075 -65.9134282184572 0.592591104763683 45.9134035726149 0.592591104763681 45.9134035726149 0.502712126647269 -39.3115766246046 
19.7                           0.591891547447362 -75.2401437726527 0.548900752441064 35.4372839092237 0.548900752441057 35.4372839092237 0.557359462672875 -51.7627079589655 
19.75                          0.644968772467551 -84.177356371367 0.502182885518779 25.2787523328424 0.502182885518767 25.2787523328427 0.61109664209795 -63.4354324929941 
19.8                           0.693582826084783 -92.6560545305739 0.454420736643474 15.5736655407716 0.45442073664346 15.5736655407723 0.661485090586447 -74.2684354723263 
19.85                          0.73658941159686 -100.6177935995  0.407507675021024 6.42186083165304 0.407507675021009 6.42186083165426 0.706939756337946 -84.2379357696748 
19.9                           0.7736256863284  -108.028485716898 0.36296037049654 -2.11931703256742 0.362960370496526 -2.11931703256557 0.746742534943742 -93.3539179901723 
19.95                          0.804917250897978 -114.881372254537 0.321791394852186 -10.0319594453151 0.321791394852174 -10.0319594453127 0.780862621438107 -101.653996827553 
20                             0.831039099010549 -121.192739250903 0.284526150755251 -17.3288531665627 0.284526150755241 -17.3288531665597 0.809709015180483 -109.195020451865 
20.05                          0.852712524950043 -126.994717328321 0.251302643661285 -24.0432017329302 0.251302643661278 -24.0432017329267 0.833908476921951 -116.044430036172 
20.1                           0.870668676791173 -132.328223219337 0.221994115979329 -30.2195397127884 0.221994115979325 -30.2195397127847 0.854148301726002 -122.273072896141 
20.15                          0.885574245425797 -137.23745483589 0.196317981326725 -35.906943103018 0.196317981326723 -35.9069431030141 0.871084130907703 -127.950146035666 
20.2                           0.898001243260022 -141.766202674775 0.1739172727108  -41.1545553839006 0.173917272710799 -41.1545553838968 0.885296318157088 -133.140157961311 
20.25                          0.908422790999069 -145.955691674301 0.154414614027788 -46.0089683499247 0.154414614027788 -46.008968349921 0.897276547094743 -137.901443278786 
20.3                           0.917221742511819 -149.843519628113 0.137444378258424 -50.5129045943971 0.137444378258425 -50.5129045943936 0.907430626304618 -142.285718151682 
20.35                          0.924704119295845 -153.463299926757 0.122669604708967 -54.7047309817815 0.122669604708968 -54.7047309817783 0.916088456069761 -146.338257137761 
20.4                           0.931113101514253 -156.84471597564 0.109789175191458 -58.6184600836456 0.109789175191459 -58.6184600836427 0.923516107802991 -150.098395562807 
20.45                          0.936641653385576 -160.01379139679 0.0985392234855118 -62.2840119155174 0.0985392234855135 -62.284011915515 0.929927508788849 -153.600168745928 
20.5                           0.94144313585478 -162.99325457381 0.0886914080516736 -65.7275948054822 0.0886914080516753 -65.7275948054802 0.935494691204337 -156.872977457322 
20.55                          0.94563988169683 -165.802927149652 0.0800496812345246 -68.9721229462282 0.0800496812345259 -68.9721229462267 0.940356328568214 -159.942220454917 
20.6                           0.949329967717722 -168.460098656271 0.0724465144661312 -72.0376255809903 0.0724465144661323 -72.0376255809892 0.944624639327698 -162.829866553834 
20.65                          0.952592494224794 -170.979869144877 0.0657391099635676 -74.9416254737822 0.0657391099635684 -74.9416254737815 0.948390875810713 -165.554956934963 
20.7                           0.95549167336278 -173.375453020758 0.0598058682607531 -77.6994775071949 0.0598058682607535 -77.6994775071945 0.951729647666232 -168.134038246262 
20.75                          0.958079987059513 -175.65844345972 0.0545432282767976 -80.3246655564009 0.0545432282767977 -80.3246655564009 0.954702312093332 -170.581531866891 
20.8                           0.960400627049913 -177.839039886363 0.0498629113348328 -82.8290595699332 0.0498629113348328 -82.8290595699334 0.957359629136653 -172.910046644595 
20.85                          0.962489384453955 -179.926242337107 0.0456895557312477 -85.223136527417 0.0456895557312473 -85.2231365274174 0.959743843545964 -175.130642796076 
20.9                           0.964376118390161 178.071983094251 0.0419587072397212 -87.5161695423613 0.0419587072397205 -87.5161695423618 0.961890321261335 -177.253054252734 
20.95                          0.966085902625341 176.14856365708  0.0386151230157011 -89.7163893687444 0.0386151230157002 -89.7163893687452 0.963828840493263 -179.285875980322 
21                             0.967639925512193 174.297200479736 0.0356113456017232 -91.8311222630054 0.0356113456017223 -91.8311222630062 0.96558461474665 178.763278059087 
21.05                          0.96905620027751 172.512266976345 0.0329065065415191 -93.8669077225942 0.032906506541518 -93.8669077225951 0.967179107365787 176.887641477286 
21.1                           0.97035012893085 170.788722314479 0.0304653234587712 -95.8295991630689 0.03046532345877 -95.8295991630699 0.968630683416504 175.081182504717 
21.15                          0.971534952659319 169.122037557197 0.0282572592316207 -97.7244501561767 0.0282572592316195 -97.7244501561774 0.969955134154652 173.338508124226 
21.2                           0.972622113742841 167.50813246969  0.026255816520078 -99.5561884535182 0.0262558165200767 -99.5561884535189 0.971166101250619 171.654782481644 
21.25                          0.973621548129604 165.943321306656 0.0244379451103913 -101.32907967188 0.0244379451103901 -101.329079671881 0.972275421771887 170.025657243013 
21.3                           0.974541923367654 164.424266173514 0.0227835432285602 -103.046982217135 0.0227835432285592 -103.046982217136 0.973293410215905 168.447211969352 
21.35                          0.97539083322985 162.947936787391 0.0212750371354839 -104.71339477008 0.0212750371354828 -104.71339477008 0.974229090283257 166.915902911554 
21.4                           0.976174957822037 161.511575658116 0.0198970259844677 -106.331497444481 0.0198970259844668 -106.331497444481 0.975090386318762 165.428518901339 
21.45                          0.976900196024704 160.112667870993 0.0186359811527179 -107.904187549427 0.018635981152717 -107.904187549427 0.97588428222289 163.982143239055 
21.5                           0.977571775634999 158.748914787024 0.0174799911117982 -109.434110739499 0.0174799911117975 -109.434110739498 0.976616953994729 162.574120663949 
21.55                          0.978194345436322 157.418211087222 0.0164185444354433 -110.923688212603 0.0164185444354427 -110.923688212603 0.977293880795201 161.202028644579 
21.6                           0.978772052542789 156.118624679582 0.0154423448087111 -112.375140512312 0.0154423448087106 -112.375140512312 0.977919938428207 159.863652352157 
21.65                          0.979308607683165 154.848379063508 0.0145431529457129 -113.790508405794 0.0145431529457125 -113.790508405794 0.978499478362242 158.556962782866 
21.7                           0.979807340556542 153.605837809799 0.0137136511827967 -115.171671236879 0.0137136511827964 -115.171671236878 0.979036394805891 157.280097580409 
21.75                          0.98027124697481 152.389490866958 0.0129473272226025 -116.520363094006 0.0129473272226024 -116.520363094005 0.979534181869777 156.031344180694 
21.8                           0.980703029178389 151.197942448442 0.0122383740888623 -117.838187082754 0.0122383740888623 -117.838187082753 0.979995982466256 154.809124959084 
21.85                          0.981105130451539 150.02990029219  0.0115816038344704 -119.126627950615 0.0115816038344704 -119.126627950614 0.980424630294369 153.611984109466 
21.9                           0.981479764956693 148.884166114418 0.0109723729444943 -120.387063276303 0.0109723729444944 -120.387063276303 0.980822686014512 152.438576024995 
21.95                          0.981828943541826 147.759627105474 0.0104065177064328 -121.620773406031 0.010406517706433 -121.62077340603 0.981192468521909 151.287654984423 
22                             0.982154496142067 146.655248337231 0.00988029809439279 -122.828950293887 0.00988029809439303 -122.828950293887 0.981536082070245 150.15806597645  
22.05                          0.982458091289563 145.5700659698   0.00939034894197576 -124.012705382025 0.00939034894197608 -124.012705382025 0.981855439868981 149.048736518496 
22.1                           0.982741253158752 144.503181160838 0.00893363736870461 -125.17307663804 0.00893363736870492 -125.173076638041 0.982152284673741 147.958669346585 
22.15                          0.983005376503445 143.45375459386  0.00850742558346086 -126.311034851372 0.00850742558346122 -126.311034851373 0.982428206804108 146.886935870061 
22.2                           0.983251739784306 142.421001553136 0.00810923832111687 -127.427489277147 0.00810923832111726 -127.427489277148 0.982684659953331 145.832670299431 
22.25                          0.983481516737833 141.404187482294 0.00773683427979669 -128.523292704442 0.00773683427979713 -128.523292704444 0.982922975096918 144.795064367913 
22.3                           0.983695786598769 140.402623971868 0.0073881810196611 -129.599246016075 0.00738818101966154 -129.599246016077 0.983144372759534 143.773362577777 
22.35                          0.983895543155498 139.415665128038 0.00706143286279463 -130.656102298479 0.00706143286279507 -130.656102298481 0.983349973860139 142.766857911557 
22.4                           0.984081702791022 138.442704280785 0.00675491140015046 -131.694570552913 0.0067549114001509 -131.694570552915 0.983540809322448 141.774887955884 
22.45                          0.984255111639688 137.483170994848 0.00646708826762767 -132.715319052829 0.00646708826762809 -132.715319052831 0.983717828610298 140.796831392291 
22.5                           0.984416551971005 136.536528351333 0.00619656990089775 -133.718978386719 0.00619656990089817 -133.718978386721 0.983881907324488 139.832104815023 
22.55                          0.984566747896134 135.60227047168  0.00594208401895424 -134.706144220953 0.00594208401895462 -134.706144220955 0.984033853978287 138.880159840777 
22.6                           0.984706370479294 134.679920259022 0.00570246762069213 -135.677379812919 0.00570246762069248 -135.677379812922 0.984174416052439 137.940480479543 
22.65                          0.984836042325118 133.769027334882 0.00547665630808306 -136.63321830116 0.00547665630808339 -136.633218301163 0.984304285416683 137.012580739362 
22.7                           0.984956341703397 132.869166151697 0.00526367477450321 -137.574164795983 0.00526367477450349 -137.574164795985 0.984424103193039 136.096002441036 
22.75                          0.985067806264578 131.979934263837 0.00506262831815325 -138.50069829129 0.00506262831815351 -138.500698291291 0.984534464126138 135.19031322157  
22.8                           0.985170936392438 131.100950741742 0.00487269525884198 -139.41327341589 0.0048726952588422 -139.413273415892 0.984635920517328 134.295104707547 
22.85                          0.985266198234403 130.231854715469 0.00469312015215015 -140.312322040502 0.00469312015215032 -140.312322040503 0.984728985771979 133.409990841769 
22.9                           0.985354026444932 129.372304035445 0.00452320770854136 -141.198254754711 0.00452320770854146 -141.198254754711 0.984814137603181 132.534606348311 
22.95                          0.985434826672983 128.521974039517 0.00436231733666564 -142.071462226604 0.00436231733666571 -142.071462226604 0.984891820929589 131.668605322791 
23                             0.985508977820816 127.680556416524 0.00420985824018974 -142.93231645631 0.00420985824018975 -142.93231645631 0.984962450500578 130.811659936058 
