! Touchstone file exported from HFSS 3D Layout Design 2026.1.0
!        File:           D:/Work/SIM/ADS_AUTO_SIM/projects/RFSOC_RF/TX_Fillter.aedt
!        Generated:      09:39:19 PM Aug 30, 2026
!        Design:         TX_BAND1_MCFIL_R1_CNN003
!        Project:        TX_Fillter
!
# GHz S MA R 50.000000
! Terminal data exported
! Port[1] = Port1
! Port[2] = Port2
14                             0.95974217542843 159.834950654696 0.00718048739080012 136.913609402454 0.00718048739080012 136.913609402454 0.965079032073003 75.8353052650583 
14.05                          0.958982575808528 158.730704774648 0.00732984378003118 136.364897604038 0.0073298437800312 136.364897604038 0.964733131118021 74.9103925277774 
14.1                           0.958200758778612 157.616985769042 0.00748618399463395 135.821852421808 0.00748618399463394 135.821852421808 0.964385926333575 73.9845247848538 
14.15                          0.957395778163541 156.493504640907 0.00764994487969711 135.284097933889 0.00764994487969708 135.284097933889 0.964036945188461 73.0576600063005 
14.2                           0.956566634159084 155.359959802881 0.00782159490365259 134.751222941592 0.00782159490365257 134.751222941592 0.963685707352018 72.1297542286746 
14.25                          0.955712269487656 154.216036384635 0.00800163673233575 134.222779681964 0.00800163673233573 134.222779681964 0.963331723709772 71.2007614444422 
14.3                           0.954831565217069 153.061405492732 0.00819061004035146 133.698282585989 0.00819061004035144 133.698282585989 0.962974495278195 70.2706334831119 
14.35                          0.953923336207116 151.895723418936 0.00838909458491212 133.177207090107 0.00838909458491207 133.177207090107 0.962613512006895 69.3393198834231 
14.4                           0.95298632614448 150.718630792551 0.00859771357037593 132.658988508056 0.00859771357037589 132.658988508056 0.962248251454914 68.4067677558066 
14.45                          0.952019202121605 149.529751671957 0.00881713733519086 132.143020969186 0.0088171373351908 132.143020969186 0.961878177325954 67.4729216342577 
14.5                           0.951020548709589 148.328692569975 0.00904808739690298 131.628656428185 0.00904808739690294 131.628656428185 0.961502737845163 66.5377233166777 
14.55                          0.949988861468781 147.11504140716  0.00929134089538686 131.11520374971  0.00929134089538682 131.11520374971  0.96112136395756 65.6011116926501 
14.6                           0.948922539833467 145.888366386464 0.00954773547958235 130.601927869599 0.0095477354795823 130.601927869599 0.960733467325187 64.6630225575099 
14.65                          0.94781987929867 144.64821478201  0.00981817468887061 130.088049032213 0.00981817468887057 130.088049032213 0.960338438096556 63.7233884114543 
14.7                           0.946679062827408 143.394111633943 0.0101036338869034 129.572742100976 0.0101036338869033 129.572742100975 0.959935642417799 62.7821382423122 
14.75                          0.945498151385719 142.125558340371 0.0104051668133398 129.055135936362 0.0104051668133398 129.055135936361 0.959524419650044 61.8391972904507 
14.8                           0.944275073499854 140.84203113645  0.0107239128276973 128.534312832404 0.0107239128276973 128.534312832404 0.959104079251638 60.8944867941357 
14.85                          0.943007613715264 139.54297944947  0.0110611049295578 128.009307999281 0.0110611049295577 128.009307999281 0.958673897276945 59.9479237134827 
14.9                           0.941693399819738 138.22782411751  0.0114180786508979 127.479109075693 0.0114180786508979 127.479109075692 0.958233112435036 58.9994204309323 
14.95                          0.940329888673049 136.895955457772 0.0117962819295707 126.942655650552 0.0117962819295706 126.942655650552 0.957780921641645 58.0488844259486 
15                             0.93891435046213 135.546731168959 0.0121972860882353 126.398838769032 0.0121972860882353 126.398838769032 0.957316474985654 57.0962179213671 
15.05                          0.937443851173547 134.179474050215 0.0126227980606574 125.846500393191 0.0126227980606574 125.84650039319  0.95683887001681 56.1413174985005 
15.1                           0.935915233043141 132.793469516891 0.0130746740276613 125.284432782284 0.0130746740276613 125.284432782284 0.956347145243719 55.1840736777274 
15.15                          0.934325092705265 131.387962890933 0.013554934648591 124.711377752467 0.013554934648591 124.711377752467 0.955840272709672 54.2243704608254 
15.2                           0.932669756719993 129.962156440821 0.0140657821014655 124.126025769803 0.0140657821014655 124.126025769803 0.955317149487734 53.2620848307294 
15.25                          0.93094525410471 128.515206142656 0.0146096191767576 123.527014824399 0.0146096191767576 123.527014824399 0.954776587904674 52.2970862036644 
15.3                           0.929147285435076 127.04621813029  0.015189070706656 122.912929026957 0.015189070706656 122.912929026957 0.954217304264551 51.3292358276424 
15.35                          0.927271188007487 125.554244797963 0.0158070076547052 122.282296862002 0.0158070076547052 122.282296862002 0.953637905795612 50.3583861200568 
15.4                           0.925311896468586 124.03828051397  0.0164665742409549 121.633589024419 0.0164665742409549 121.633589024419 0.953036875487074 49.3843799354    
15.45                          0.923263898214152 122.497256898081 0.0171712185364854 120.965215757587 0.0171712185364854 120.965215757587 0.952412554413847 48.4070497518112 
15.5                           0.921121182736357 120.930037608752 0.0179247270299539 120.275523602052 0.0179247270299539 120.275523602052 0.951763121065846 47.4262167619502 
15.55                          0.918877183950542 119.335412578503 0.0187312637494707 119.562791453242 0.0187312637494707 119.562791453242 0.951086567103827 46.4416898492501 
15.6                           0.916524714355002 117.712091626864 0.019595414617838 118.825225814711 0.019595414617838 118.825225814711 0.950380668856689 45.4532644244216 
15.65                          0.914055889663203 116.058697370027 0.0205222378305671 118.060955119616 0.0205222378305672 118.060955119616 0.949642953760212 44.4607210885509 
15.7                           0.911462042289096 114.373757334372 0.0215173211771958 117.268022976961 0.0215173211771959 117.268022976961 0.948870660824073 43.4638240774778 
15.75                          0.908733621752741 112.655695167238 0.0225868473808696 116.444380180173 0.0225868473808697 116.444380180173 0.948060694121975 42.4623194265303 
15.8                           0.90586007969246 110.902820822369 0.0237376687131971 115.587875293019 0.0237376687131972 115.587875293018 0.947209568262127 41.4559327744485 
15.85                          0.902829736705696 109.113319579063 0.0249773923559871 114.696243601045 0.0249773923559872 114.696243601045 0.946313344866651 40.4443667003992 
15.9                           0.89962962767378 107.285239732963 0.0263144782343719 113.767094184601 0.026314478234372 113.767094184601 0.945367559349314 39.4272974598602 
15.95                          0.896245321531681 105.41647877224  0.0277583513435659 112.797894830991 0.027758351343566 112.797894830991 0.944367137839525 38.4043709585752 
16                             0.892660710591757 103.504767825534 0.0293195309414157 111.785954457112 0.0293195309414158 111.785954457112 0.943306305077674 37.3751977892514 
16.05                          0.888857763482639 101.547654137186 0.0310097793889316 110.728402658445 0.0310097793889318 110.728402658445 0.94217848558765 36.3393471729633 
16.1                           0.884816234473242 99.5424812911958 0.0328422738993782 109.622165933737 0.0328422738993783 109.622165933737 0.940976202355462 35.2963397284692 
16.15                          0.880513320358916 97.4863668684371 0.0348318050110631 108.46394005512  0.0348318050110633 108.463940055119 0.939690979200521 34.2456391821063 
16.2                           0.875923254119662 95.3761771830995 0.0369950062358874 107.250157958331 0.0369950062358875 107.250157958331 0.938313253983301 33.1866434746747 
16.25                          0.871016822131069 93.2084987064093 0.0393506200573319 105.976952414873 0.0393506200573319 105.976952414873 0.936832307845434 32.118676238116  
16.3                           0.865760788711218 90.9796057524427 0.0419198062528667 104.640112614605 0.0419198062528668 104.640112614605 0.935236208178227 31.0409802398321 
16.35                          0.860117208096529 88.6854239793107 0.044726499378337 103.23503363142  0.0447264993783372 103.23503363142  0.93351174761085 29.9527149147532 
16.4                           0.854042599414723 86.3214892607686 0.0477978231344935 101.756657564556 0.0477978231344937 101.756657564556 0.931644338293068 28.8529601477233 
16.45                          0.847486954712256 83.8829015275148 0.0511645701589305 100.199404944175 0.0511645701589306 100.199404944175 0.929617796047749 27.7407276168732 
16.5                           0.840392543452583 81.3642732950751 0.0548617564081409 98.5570947653937 0.054861756408141 98.5570947653936 0.927413935083874 26.6149791449044 
16.55                          0.832692469029817 78.7596728362248 0.0589292594710734 96.8228512794916 0.0589292594710735 96.8228512794916 0.925011905056218 25.4746492097285 
16.6                           0.824308923752581 76.0625624008921 0.063412549483257 94.9889954440748 0.0634125494832571 94.9889954440747 0.922387243016332 24.3186673721838 
16.65                          0.815151078699961 73.2657326649149 0.0683635191310525 93.0469187525621 0.0683635191310526 93.0469187525621 0.919510668778669 23.145977316841  
16.7                           0.805112534564934 70.3612359097343 0.0738414144941754 90.9869370930532 0.0738414144941755 90.9869370930532 0.916346693902044 21.9555529056337 
16.75                          0.794068250690849 67.3403226359719 0.0799138595055085 88.7981224398747 0.0799138595055086 88.7981224398747 0.91285211731261 20.7464170172601 
16.8                           0.78187086516754 64.1933899442772 0.0866579510176787 86.4681107452443 0.0866579510176788 86.4681107452443 0.908974445271448 19.5176741233196 
16.85                          0.768346325051397 60.9099559763955 0.0941613748880286 83.9828856792616 0.0941613748880286 83.9828856792615 0.904650227089924 18.2685713929014 
16.9                           0.753288773216607 57.4786844833048 0.102523450186637 81.3265403522228 0.102523450186637 81.3265403522229 0.899803276610718 16.998606060611  
16.95                          0.736454705666018 53.8874996547889 0.111855939971052 78.4810236066815 0.111855939971052 78.4810236066816 0.89434277997996 15.7077004512304 
17                             0.717556551838354 50.1238579033383 0.122283361113191 75.4258850444873 0.122283361113191 75.4258850444873 0.888161388758617 14.3964721383258 
17.05                          0.696256092212535 46.1752875860346 0.133942367138568 72.1380453411664 0.133942367138568 72.1380453411665 0.881133581151002 13.0666361616856 
17.1                           0.67215859392736 42.0303824876782 0.146979550284877 68.591637900932  0.146979550284877 68.5916379009321 0.873114875362095 11.7215886732065 
17.15                          0.644809338706234 37.6805637734338 0.161546700622005 64.7579973408392 0.161546700622005 64.7579973408393 0.863942951460388 10.3672343439982 
17.2                           0.613695509106941 33.1231532293962 0.177792181601743 60.6059123569808 0.177792181601743 60.605912356981  0.853442447457161 9.01312673675153 
17.25                          0.578258403121483 28.3667203848883 0.195846699956041 56.1023159378248 0.195846699956041 56.102315937825  0.841436180671739 7.67397670987435 
17.3                           0.537923892864402 23.4404815961532 0.215801548939439 51.2136492442507 0.215801548939439 51.2136492442509 0.827766718029441 6.37151866945971 
17.35                          0.49216315732616 18.411230954302  0.237677778135661 45.9081875718257 0.237677778135661 45.9081875718259 0.812333147983593 5.13655483325314 
17.4                           0.440601475137909 13.4151602421204 0.261386353239695 40.1596135768244 0.261386353239695 40.1596135768246 0.795147460001701 4.01064697913999 
17.45                          0.383202678495218 8.72167332879237 0.286683052454864 33.9519864292824 0.286683052454864 33.9519864292825 0.776410905209463 3.04632798924841 
17.5                           0.320583049911526 4.87334887580078 0.313128065035983 27.2858844405565 0.313128065035983 27.2858844405566 0.756600029403908 2.30393116716468 
17.55                          0.254607097609253 3.02695305052513 0.340067835489372 20.1848302153192 0.340067835489372 20.1848302153194 0.736533071374165 1.84264997117745 
17.6                           0.189827603067598 5.84223721854542 0.366661256065289 12.7002525520741 0.36666125606529 12.7002525520742 0.717365601403348 1.7043799559515  
17.65                          0.137715384308955 19.1443902697844 0.391966498012438 4.91262944438542 0.391966498012438 4.91262944438549 0.700459053438345 1.89269638216234 
17.7                           0.122588983197028 46.0680719130712 0.415083389464626 -3.07321827648316 0.415083389464627 -3.07321827648311 0.687105636555634 2.35568855968979 
17.75                          0.15491149532083 67.4882870643484 0.435315381672463 -11.1390064449073 0.435315381672464 -11.1390064449073 0.67818323776482 2.98540426419953 
17.8                           0.209706101084446 74.5785150665732 0.452294985077525 -19.167790621676 0.452294985077525 -19.167790621676 0.673896585491336 3.64078146976762 
17.85                          0.268036023607683 73.9583440336969 0.466026784230166 -27.0585296211308 0.466026784230166 -27.0585296211307 0.673743360355361 4.1854541442857  
17.9                           0.322459415162537 69.8549299392864 0.476839938960524 -34.736374582948 0.476839938960524 -34.7363745829479 0.676712641907235 4.52060914733306 
17.95                          0.370101875171295 64.0840305395082 0.485281012104969 -42.1567214570281 0.485281012104968 -42.1567214570281 0.681590724427441 4.59823512023808 
18                             0.409974220260902 57.4588848025599 0.491993227519384 -49.3036050659988 0.491993227519384 -49.3036050659988 0.687226520584391 4.41507048821627 
18.05                          0.44199806943912 50.3665020163143 0.497617696913952 -56.1845691195827 0.497617696913952 -56.1845691195827 0.692681289181466 3.99721216828922 
18.1                           0.466543308970463 42.9925500056449 0.50273098934373 -62.8243344423866 0.50273098934373 -62.8243344423866 0.697268128665881 3.38490320979536 
18.15                          0.484166816376271 35.4180287572954 0.50781641064401 -69.2589180296406 0.50781641064401 -69.2589180296406 0.700523896113012 2.62197692921069 
18.2                           0.495459406910807 27.6649413956825 0.513258637004665 -75.5310053393975 0.513258637004664 -75.5310053393974 0.70215503809117 1.75033364440856 
18.25                          0.500960349951408 19.7191416890413 0.51935076594466 -81.686739142569 0.51935076594466 -81.686739142569 0.701983216261323 0.80812111320208 
18.3                           0.501114973404045 11.5416778498512 0.526305448955199 -87.7737427416858 0.526305448955198 -87.7737427416858 0.699902336453118 -0.169841501049255 
18.35                          0.496259383514594 3.07354871266597 0.534264781211844 -93.8400695980516 0.534264781211844 -93.8400695980516 0.695850237968166 -1.15042295321453 
18.4                           0.486622852986977 -5.76400215675969 0.543305875501783 -99.9337628910705 0.543305875501783 -99.9337628910705 0.689794984796778 -2.09989111627693 
18.45                          0.472344101150055 -15.0730242394564 0.553440377621104 -106.102740525837 0.553440377621104 -106.102740525837 0.681735413535352 -2.98123819339079 
18.5                           0.453503232387673 -24.9867099370049 0.564606854952451 -112.394749791416 0.564606854952451 -112.394749791416 0.671716796880782 -3.75125739257527 
18.55                          0.430177703364117 -35.6832335354191 0.576655410619997 -118.857141500214 0.576655410619997 -118.857141500214 0.659864189910154 -4.35758481154869 
18.6                           0.402540368749414 -47.4088385531589 0.589324512449111 -125.5361920489  0.589324512449111 -125.5361920489  0.646437317681134 -4.73627149921461 
18.65                          0.371033715942829 -60.5152262626755 0.602211447577867 -132.475663472311 0.602211447577867 -132.475663472311 0.631910139580775 -4.81122366771489 
18.7                           0.336681097532754 -75.5155534665154 0.614740682194593 -139.714265942365 0.614740682194592 -139.714265942366 0.617072294145498 -4.49818791315355 
18.75                          0.301629316770428 -93.1456652699613 0.626139249756396 -147.281734421276 0.626139249756395 -147.281734421276 0.603133194248424 -3.71765198705322 
18.8                           0.269987340362515 -114.329003691271 0.635434798806971 -155.193447448898 0.635434798806971 -155.193447448898 0.59177765273447 -2.42159725588849 
18.85                          0.248582589950593 -139.694357324278 0.641497648433586 -163.444009067026 0.641497648433586 -163.444009067026 0.585080903038359 -0.634552850339158 
18.9                           0.245793386346998 -168.277922541801 0.643147316479864 -172.00101265733 0.643147316479863 -172.00101265733 0.58517965477184 1.50483862244651 
18.95                          0.266461134278631 163.10212663168  0.63932859817993 179.198908391433 0.639328598179929 179.198908391433 0.593688185418519 3.73470033080392 
19                             0.307730053928892 137.451281827882 0.629329235279251 170.249242734235 0.62932923527925 170.249242734235 0.611065325087343 5.72441283752605 
19.05                          0.362044292971176 115.53445367155  0.612972799601783 161.266302989318 0.612972799601783 161.266302989318 0.636306299795538 7.17901568879005 
19.1                           0.421984238698896 96.7520897216745 0.590705749762184 152.376042402225 0.590705749762184 152.376042402225 0.667195664780872 7.92946814783926 
19.15                          0.482078604234911 80.3299737112333 0.563530814502897 143.69824004551  0.563530814502897 143.69824004551  0.700976902700149 7.95554578949921 
19.2                           0.538807726106443 65.693498929853  0.532807830744318 135.332653084899 0.532807830744318 135.332653084899 0.735057471227101 7.34717328496149 
19.25                          0.590213436296142 52.464051900807  0.500000945707964 127.350732445253 0.500000945707964 127.350732445253 0.767457864383812 6.24553396757322 
19.3                           0.635487415797868 40.3901255022539 0.466459292876706 119.793910672639 0.466459292876706 119.793910672639 0.796944554589832 4.79631023779955 
19.35                          0.67459598190321 29.294351127094  0.433281863050237 112.677058341426 0.433281863050237 112.677058341426 0.822942383337239 3.12441094734567 
19.4                           0.707966792545974 19.0425572619166 0.401270809318438 105.99464287876  0.401270809318438 105.99464287876  0.845353883243861 1.32575143712524 
19.45                          0.736253930500051 9.5274049742645  0.370948519210891 99.7273722061504 0.370948519210891 99.7273722061504 0.86437590257917 -0.531425455127643 
19.5                           0.760180914571423 0.659963090742412 0.342607400248077 93.8479610854187 0.342607400248077 93.8479610854187 0.88035533226867 -2.40141513077682 
19.55                          0.780447964935107 -7.63480303629173 0.316368330810401 88.3254906708024 0.316368330810401 88.3254906708024 0.893692136831357 -4.25530207763515 
19.6                           0.797685208187287 -15.4207256833194 0.292234035418052 83.1283709699698 0.292234035418052 83.1283709699697 0.904782072732382 -6.07597280180715 
19.65                          0.81243511909749 -22.7522980921889 0.270131857747227 78.2261624140807 0.270131857747227 78.2261624140806 0.913987354838633 -7.85426700241504 
19.7                           0.825151639851026 -29.676132101331 0.249945280039619 73.5905684428662 0.249945280039619 73.5905684428662 0.92162483071235 -9.58619858221092 
19.75                          0.836207646656147 -36.2321789087043 0.231535759853301 69.1958746160078 0.231535759853301 69.1958746160078 0.927964080771054 -11.2710326900354 
19.8                           0.845905747390976 -42.4547763362184 0.214757090723458 65.0190443314691 0.214757090723458 65.0190443314691 0.93323054544007 -12.9099941762114 
19.85                          0.854489650308361 -48.3735480928039 0.199464367411684 61.0396176577471 0.199464367411684 61.039617657747  0.937610772337196 -14.5054200894785 
19.9                           0.862154742713186 -54.0141697917766 0.185519238417604 57.2395091013624 0.185519238417604 57.2395091013624 0.941258187344982 -16.0602150954908 
19.95                          0.869057323316604 -59.3990149524822 0.172792698401713 53.6027636671958 0.172792698401713 53.6027636671957 0.94429859051817 -17.5775092895829 
20                             0.875322362125826 -64.5476947960364 0.161166305822718 50.1153059885817 0.161166305822718 50.1153059885817 0.946835032972392 -19.0604491486403 
20.05                          0.881049871065521 -69.4775059633675 0.150532429239931 46.7647015018943 0.150532429239931 46.7647015018942 0.948951975225886 -20.5120749161131 
20.1                           0.886320055021294 -74.2037998500997 0.140793922295633 43.5399388819993 0.140793922295633 43.5399388819993 0.95071874870415 -21.9352533678191 
20.15                          0.89119743520891 -78.7402862022479 0.131863486180272 40.4312371683754 0.131863486180272 40.4312371683754 0.952192394868947 -23.3326455241893 
20.2                           0.89573412802045 -83.0992822145977 0.123662882993296 37.4298777461957 0.123662882993296 37.4298777461957 0.953419972985787 -24.7066959723644 
20.25                          0.899972440881864 -87.2919168486449 0.116122100294922 34.5280596344241 0.116122100294921 34.528059634424  0.954440426240639 -26.0596351612088 
20.3                           0.903946921505667 -91.3282985938418 0.109178526105755 31.7187757494915 0.109178526105755 31.7187757494915 0.955286086788585 -27.3934891239268 
20.35                          0.907685972698383 -95.217653523396 0.102776167374144 28.9957075654454 0.102776167374143 28.9957075654454 0.955983888612782 -28.7100931068046 
20.4                           0.911213123442367 -98.9684392852247 0.0968649284655841 26.3531356377583 0.0968649284655839 26.3531356377583 0.95655634537097 -30.0111069016899 
20.45                          0.914548028846681 -102.58843963068 0.0913999561319112 23.7858636526646 0.091399956131911 23.7858636526646 0.957022339845107 -31.2980305355267 
20.5                           0.917707256651491 -106.084843211556 0.086341051423376 21.2891539216435 0.0863410514233758 21.2891539216435 0.957397762573374 -32.5722195220673 
20.55                          0.920704905912342 -109.464309654033 0.0816521456205062 18.8586725131867 0.081652145620506 18.8586725131868 0.957696029750933 -33.8348992338036 
20.6                           0.923553093844963 -112.733025327265 0.0773008355101364 16.4904424754761 0.0773008355101362 16.4904424754761 0.957928504391688 -35.0871781751912 
20.65                          0.926262339149733 -115.896750744676 0.0732579725803808 14.1808038415426 0.0732579725803807 14.1808038415426 0.958104839846777 -36.330060076712 
20.7                           0.92884186407727 -118.960861149189 0.0694973005580614 11.9263793180686 0.0694973005580612 11.9263793180686 0.95823326087107 -37.564454812966 
20.75                          0.931299832720976 -121.930381523178 0.065995135902432 9.72404473973572 0.0659951359024319 9.72404473973579 0.958320794329592 -38.7911881963062 
20.8                           0.933643539264439 -124.810017015764 0.0627300862401094 7.57090352461948 0.0627300862401092 7.57090352461955 0.958373459181447 -40.0110107233269 
20.85                          0.935879556957803 -127.604179582219 0.0596828021789874 5.46426449533707 0.0596828021789872 5.46426449533712 0.958396423437041 -41.2246053631368 
20.9                           0.938013856277008 -130.317011472819 0.0568357584143172 3.40162253856997 0.0568357584143171 3.40162253857004 0.958394134247774 -42.4325944792446 
20.95                          0.940051898898013 -132.952406083446 0.0541730605038771 1.38064166523765 0.0541730605038769 1.38064166523774 0.958370426070173 -43.6355459746075 
21                             0.941998712687928 -135.514026580931 0.051680274122955 -0.600859892169372 0.0516802741229548 -0.600859892169239 0.958328610880842 -44.8339787441984 
21.05                          0.943858951792407 -138.005322637303 0.0493442740050417 -2.5449228472746 0.0493442740050416 -2.54492284727454 0.958271553650832 -46.0283675127972 
21.1                           0.945636945017536 -140.429545544531 0.0471531101279327 -4.4534585441366 0.0471531101279326 -4.45345854413651 0.958201735676434 -47.2191471285086 
21.15                          0.94733673501303 -142.789761931602 0.0450958890179856 -6.32825936814131 0.0450958890179855 -6.3282593681412 0.95812130787468 -48.4067163752905 
21.2                           0.948962110220949 -145.088866266153 0.0431626683200332 -8.17100805906467 0.0431626683200331 -8.17100805906458 0.958032135760441 -49.5914413608854 
21.25                          0.950516631128504 -147.329592291336 0.0413443630202698 -9.98328607358762 0.0413443630202698 -9.98328607358756 0.957935837507575 -50.7736585301284 
21.3                           0.952003652029636 -149.514523523293 0.0396326619179924 -11.7665811211776 0.0396326619179922 -11.7665811211774 0.957833816243235 -51.9536773477589 
21.35                          0.953426339238293 -151.646102914398 0.0380199531230122 -13.5222939779514 0.0380199531230121 -13.5222939779514 0.95772728751979 -53.1317826895974 
21.4                           0.954787686491156 -153.726641771088 0.0364992575123283 -15.2517446671542 0.0364992575123283 -15.2517446671541 0.957617302742908 -54.3082369762535 
21.45                          0.956090528116809 -155.758328001922 0.0350641692153879 -16.9561780816354 0.0350641692153879 -16.9561780816353 0.957504769199532 -55.483282079372 
21.5                           0.957337550422563 -157.743233760769 0.033708802314784 -18.6367691126976 0.0337088023147839 -18.6367691126975 0.957390467219538 -56.6571410267597 
21.55                          0.958531301651612 -159.683322541276 0.0324277430510233 -20.2946273405063 0.0324277430510233 -20.2946273405062 0.957275064915027 -57.8300195295132 
21.6                           0.959674200786271 -161.580455771535 0.0312160069082137 -21.9308013335859 0.0312160069082136 -21.9308013335858 0.95715913086747 -59.0021073514475 
21.65                          0.960768545412871 -163.436398951889 0.0300690000340386 -23.5462825984918 0.0300690000340385 -23.5462825984917 0.957043145072352 -60.1735795386579 
21.7                           0.961816518816973 -165.252827373865 0.028982484513844 -25.1420092153414 0.028982484513844 -25.1420092153413 0.956927508400988 -61.3445975248852 
21.75                          0.962820196440955 -167.031331453976 0.0279525470764324 -26.7188691903215 0.0279525470764323 -26.7188691903214 0.956812550797825 -62.5153101264767 
21.8                           0.963781551807507 -168.773421712629 0.0269755708594628 -28.2777035524212 0.0269755708594627 -28.2777035524211 0.956698538397333 -63.6858544390829 
21.85                          0.964702461990431 -170.480533425317 0.0260482099062018 -29.8193092183505 0.0260482099062018 -29.8193092183504 0.956585679716047 -64.8563566467969 
21.9                           0.965584712696867 -172.154030970653 0.0251673661036532 -31.3444416467956 0.0251673661036532 -31.3444416467956 0.956474131051627 -66.0269327531857 
21.95                          0.96643000301173 -173.795211897574 0.0243301683055555 -32.8538173007569 0.0243301683055556 -32.8538173007569 0.95636400120091 -67.1976892425639 
22                             0.967239949844749 -175.405310732005 0.0235339534130408 -34.3481159346385 0.0235339534130408 -34.3481159346385 0.956255355592354 -68.3687236788999 
22.05                          0.968016092112486 -176.985502541581 0.0227762492114293 -35.8279827209754 0.0227762492114293 -35.8279827209754 0.956148219914258 -69.5401252489073 
22.1                           0.968759894681497 -178.536906275435 0.0220547587841929 -37.2940302301188 0.0220547587841929 -37.2940302301188 0.956042583308438 -70.7119752551278 
22.15                          0.969472752093994 179.939412105286 0.0213673463449438 -38.7468402748586 0.0213673463449438 -38.7468402748586 0.955938401189077 -71.8843475641771 
22.2                           0.970155992093669 178.442436691771 0.0207120243457655 -40.1869656307665 0.0207120243457655 -40.1869656307665 0.955835597738107 -73.057309014747 
22.25                          0.970810878966452 176.97119887348  0.0200869417355903 -41.6149316420085 0.0200869417355903 -41.6149316420085 0.955734068121341 -74.2309197894631 
22.3                           0.971438616708778 175.524774753359 0.0194903732559158 -43.0312377214585 0.0194903732559158 -43.0312377214584 0.955633680463525 -75.4052337542564 
22.35                          0.972040352034205 174.102282720986 0.0189207096731594 -44.436358753128 0.0189207096731594 -44.436358753128 0.955534277615375 -76.5802987685194 
22.4                           0.972617177227891 172.702881173102 0.0183764488575799 -45.8307464042118 0.0183764488575799 -45.8307464042119 0.95543567874117 -77.756156968974 
22.45                          0.973170132857381 171.325766371778 0.0178561876281105 -47.2148303534056 0.0178561876281105 -47.2148303534056 0.955337680751817 -78.9328450298798 
22.5                           0.973700210347352 169.970170431149 0.0173586142908048 -48.5890194415745 0.0173586142908047 -48.5890194415745 0.955240059604992 -80.1103944019392 
22.55                          0.974208354425279 168.635359424291 0.0168825018060179 -49.9537027503422 0.0168825018060179 -49.9537027503422 0.955142571491218 -81.2888315320224 
22.6                           0.97469546544447 167.320631602431 0.0164267015260453 -51.3092506137036 0.0164267015260453 -51.3092506137037 0.955044953922334 -82.4681780656231 
22.65                          0.975162401590483 166.025315719208 0.0159901374508159 -52.65601556735  0.0159901374508159 -52.6560155673501 0.954946926736757 -83.6484510337697 
22.7                           0.975609980976573 164.74876945321  0.0155718009544752 -53.9943332400161 0.0155718009544752 -53.9943332400161 0.95484819303412 -84.8296630259504 
22.75                          0.976038983633497 163.4903779225   0.0151707459403634 -55.3245231908196 0.0151707459403634 -55.3245231908196 0.954748440050323 -86.0118223504605 
22.8                           0.976450153398749 162.24955228525  0.01478608438607 -56.6468896962538 0.01478608438607 -56.6468896962537 0.954647339982668 -87.1949331834505 
22.85                          0.976844199710052 161.025728421028 0.0144169822439724 -57.9617224902106 0.0144169822439724 -57.9617224902106 0.954544550773573 -88.3789957078352 
22.9                           0.977221799307711 159.818365687625 0.0140626556660113 -59.2692974601568 0.0140626556660113 -59.2692974601567 0.954439716860302 -89.5640062431129 
22.95                          0.977583597850233 158.626945748698 0.0137223675244412 -60.5698773023499 0.0137223675244412 -60.5698773023499 0.95433246989724 -90.7499573670566 
23                             0.977930211447429 157.450971467773 0.0133954242029818 -61.8637121387697 0.0133954242029817 -61.8637121387697 0.954222429456415 -91.9368380301467 
