! Touchstone file exported from HFSS 3D Layout Design 2026.1.0
!        File:           D:/Work/ADS/SIMADS_EM_PAR/SP8T/RF-PPA-SP10T-4F4H-ENIG-V1.0.aedt
!        Generated:      02:37:25 PM Aug  8, 2026
!        Design:         RF-PPA-SP10T-4F4H-ENIG-V1.0_Core1
!        Project:        RF-PPA-SP10T-4F4H-ENIG-V1.0
!
! Variables:
!        BendModel = 0
!
# GHz S MA R 50.000000
! Terminal data exported
! Port[1] = Port1
! Port[2] = Port2
0.5                            0.0455812371115967 -137.192101083273 0.983227934908033 -39.702346664432 0.983227934908034 -39.7023466644319 0.0452025921368481 -131.109946271088 
0.55                           0.0489798547396606 -141.750815781697 0.981805510380006 -43.6094511134783 0.981805510380007 -43.6094511134782 0.0485994272173461 -134.994459807957 
0.6                            0.0521272011560413 -146.269515052145 0.980418006564309 -47.5112986699043 0.98041800656431 -47.5112986699043 0.0517173329695244 -138.832439887155 
0.65                           0.0550164704229278 -150.757951337588 0.979062008466587 -51.4085147242758 0.979062008466587 -51.4085147242758 0.0545468372318878 -142.620680070236 
0.7                            0.0576410259759082 -155.22414312782 0.977734992250859 -55.3015645216865 0.977734992250859 -55.3015645216865 0.0570810933337902 -146.356344923128 
0.75                           0.0599945719194013 -159.674767286932 0.976435367750661 -59.190815509766 0.976435367750661 -59.190815509766 0.0593157336553276 -150.03682872251 
0.8                            0.062071337392551 -164.115490036194 0.975162320869681 -63.0765794583605 0.975162320869682 -63.0765794583604 0.0612487494011433 -153.659631614361 
0.85                           0.0638662451514799 -168.551246515142 0.973915585288385 -66.9591392964663 0.973915585288386 -66.9591392964663 0.0628804319421342 -157.222258320572 
0.9                            0.0653750520130725 -172.986476451328 0.972695210126544 -70.8387650158678 0.972695210126544 -70.8387650158678 0.0642134198669025 -160.722168654349 
0.95                           0.0665944584533556 -177.425323723405 0.97150135468113 -74.7157220444802 0.971501354681131 -74.7157220444802 0.0652528996051241 -164.156857582465 
1                              0.0675221897244803 178.128191936245 0.970334122145629 -78.5902746040856 0.970334122145631 -78.5902746040856 0.0660069739486164 -167.524243878881 
1.05                           0.0681570531321699 173.670022675669 0.969193434311294 -82.4626858534119 0.969193434311295 -82.4626858534119 0.0664870308817059 -170.82373254084 
1.1                            0.0684989768242319 169.195951269669 0.968078944479418 -86.3332160820307 0.96807894447942 -86.3332160820308 0.0667073132202354 -174.058516743665 
1.15                           0.0685490353561389 164.701452393456 0.966989983795716 -90.2021198320973 0.966989983795718 -90.2021198320974 0.066681344429893 -177.239252612996 
1.2                            0.0683094668895521 160.181547587875 0.96592553563157 -94.0696425477502 0.965925535631571 -94.0696425477503 0.0664113494445963 179.613986002131 
1.25                           0.0677836864204513 155.630644221688 0.964884232762415 -97.9360171556411 0.964884232762417 -97.9360171556412 0.0658729858446769 176.481670390895 
1.3                            0.0669762990942531 151.042347155099 0.963864372544945 -101.801460841386 0.963864372544946 -101.801460841386 0.0650196066510099 173.372144279185 
1.35                           0.0658931175655618 146.409229163462 0.962863945868881 -105.666172188929 0.962863945868881 -105.666172188929 0.0638252534902915 170.334553289732 
1.4                            0.0645411876121628 141.72254205829  0.961880676251691 -109.530328780974 0.961880676251691 -109.530328780974 0.0623148285182508 167.426533898964 
1.45                           0.0629288269573391 136.971844190807 0.960912066004714 -113.394085310371 0.960912066004714 -113.394085310371 0.0605386357996518 164.681663620918 
1.5                            0.0610656837012267 132.144510632359 0.959955446904417 -117.257572218788 0.959955446904417 -117.257572218788 0.058539402442002 162.113658162188 
1.55                           0.0589628232458985 127.225078223629 0.959008033245492 -121.120894855932 0.959008033245492 -121.120894855932 0.0563454760841448 159.733391454569 
1.6                            0.0566328566719114 122.19435640806  0.958066975533867 -124.984133137049 0.958066975533867 -124.984133137049 0.053977140077049 157.558765081462 
1.65                           0.0540901301097774 117.028202458325 0.957129413401861 -128.847341666295 0.957129413401862 -128.847341666295 0.0514528851288189 155.6182070632   
1.7                            0.0513510053158441 111.695810383004 0.95619252660112 -132.710550287232 0.95619252660112 -132.710550287232 0.0487931283403279 153.952290577873 
1.75                           0.0484342791004303 106.157287416363 0.955253583158317 -136.573765018101 0.955253583158317 -136.573765018101 0.0460224172174179 152.615657339203 
1.8                            0.0453618181255717 100.360177761861 0.954309983970946 -140.436969327728 0.954309983970945 -140.436969327728 0.0431712005232003 151.679851126555 
1.85                           0.0421595339408158 94.2344252217207 0.953359303281976 -144.300125707499 0.953359303281976 -144.300125707499 0.0402778196002959 151.236984441954 
1.9                            0.0388589045691189 87.6850382830926 0.952399324608615 -148.163177495173 0.952399324608614 -148.163177495172 0.0373911115516666 151.403562546208 
1.95                           0.0354993849263418 80.5814794030499 0.951428071816675 -152.026050907277 0.951428071816675 -152.026050907277 0.0345738464669862 152.322598852284 
2                              0.0321322657153649 72.7427932219127 0.950443835132378 -155.888657238128 0.950443835132378 -155.888657238128 0.0319069256509007 154.15966711187  
2.05                           0.0288268428511689 63.9186339160769 0.949445191971088 -159.750895185037 0.949445191971088 -159.750895185037 0.0294935014983356 157.084226724794 
2.1                            0.0256799918663178 53.7715149973946 0.948431022540262 -163.61265326095 0.948431022540262 -163.61265326095 0.0274604794992323 161.222945247533 
2.15                           0.0228296047607113 41.8821157105561 0.947400520243706 -167.473812257544 0.947400520243707 -167.473812257544 0.0259522109337406 166.575292367144 
2.2                            0.0204681762230699 27.8383806106698 0.946353196977574 -171.334247723667 0.946353196977574 -171.334247723667 0.0251098643365024 172.911444721214 
2.25                           0.0188400700066536 11.5109561517203 0.945288883466305 -175.193832425925 0.945288883466305 -175.193832425925 0.0250359955340326 179.730405062063 
2.3                            0.0181887590560027 -6.501558264205  0.944207724839518 -179.052438760234 0.944207724839519 -179.052438760234 0.0257596752558287 -173.630963379684 
2.35                           0.0186445364446804 -24.742418792933 0.943110171698898 177.090058914737 0.943110171698899 177.090058914737 0.0272269760564921 -167.769915077119 
2.4                            0.0201423029291844 -41.6168526281778 0.941996966967464 173.233782049172 0.941996966967465 173.233782049172 0.0293243292199591 -163.040254510484 
2.45                           0.0224696537292169 -56.2787904450426 0.940869128852116 169.378845803375 0.940869128852116 169.378845803375 0.0319155619598921 -159.533468373539 
2.5                            0.0253828722895023 -68.7077301137266 0.939727930283887 165.525357101001 0.939727930283888 165.525357101001 0.0348703350500271 -157.166623225294 
2.55                           0.0286788199046388 -79.2772583481881 0.93857487522859 161.673412854081 0.93857487522859 161.673412854081 0.0380772225879454 -155.780353162333 
2.6                            0.0322088077329753 -88.4193279920291 0.937411672283495 157.823098377127 0.937411672283494 157.823098377127 0.0414459182038311 -155.202227688096 
2.65                           0.0358679713779747 -96.4958453926083 0.93624020599311 153.974486005052 0.93624020599311 153.974486005052 0.0449045852460957 -155.276199186414 
2.7                            0.0395816574896123 -103.779179062638 0.935062506329038 150.127633926955 0.935062506329038 150.127633926955 0.0483960222287004 -155.871725471847 
2.75                           0.0432950733746479 -110.467029325922 0.933880716785404 146.282585245159 0.933880716785403 146.282585245159 0.0518741748345653 -156.883518309068 
2.8                            0.0469664597531308 -116.701988236796 0.932697061542566 142.4393672662   0.932697061542564 142.4393672662   0.0553014020228859 -158.227955561297 
2.85                           0.050562784731487 -122.587625139881 0.931513812148097 138.597991027777 0.931513812148096 138.597991027777 0.0586464648806715 -159.838882834398 
2.9                            0.0540570484020774 -128.200152900765 0.930333254155609 134.75845106298  0.930333254155607 134.75845106298  0.0618830866188423 -161.663829885065 
2.95                           0.05742658180562 -133.596535113044 0.929157654149333 130.920725400536 0.929157654149331 130.920725400536 0.064988930101511 -163.66091466404 
3                              0.0606519576018158 -138.820057148474 0.92798922756596 127.084775797195 0.927989227565957 127.084775797195 0.0679448701185083 -165.796416533357 
3.05                           0.0637162806672038 -143.90416521637 0.926830107705333 123.250548195898 0.926830107705331 123.250548195898 0.070734470736657 -168.042909688805 
3.1                            0.0666047182812689 -148.875137097976 0.925682316298872 119.417973400973 0.925682316298868 119.417973400973 0.0733436049485011 -170.377836499798 
3.15                           0.0693041840526006 -153.753963851063 0.924547735979237 115.586967959242 0.924547735979234 115.586967959242 0.0757601735913912 -172.782415937555 
3.2                            0.0718031222895885 -158.557694615697 0.923428084967239 111.757435233751 0.923428084967235 111.757435233751 0.0779738944038958 -175.240803553476 
3.25                           0.0740913591881502 -163.300412281706 0.922324894262552 107.929266654707 0.92232489426255 107.929266654707 0.0799761416602349 -177.739439114531 
3.3                            0.0761599992745149 -167.993952492987 0.921239487593674 104.102343130285 0.921239487593671 104.102343130285 0.0817598233551004 179.733466037194 
3.35                           0.0780013530676593 -172.64844224643 0.920172964349862 100.276536598082 0.920172964349859 100.276536598082 0.08331928734302 177.188337577729 
3.4                            0.0796088867019694 -177.272710482607 0.919126185683701 96.4517116964016 0.919126185683698 96.4517116964017 0.08465025082961 174.634569269543 
3.45                           0.0809771873335686 178.125392785837 0.918099763937357 92.6277275330171 0.918099763937355 92.6277275330171 0.0857497496217253 172.080796279782 
3.5                            0.0821019401790793 173.538742887314 0.917094055508603 88.8044395277733 0.917094055508603 88.8044395277733 0.086616104881322 169.535125575294 
3.55                           0.082979914392621 168.960733704012 0.916109157234352 84.9817013043275 0.916109157234349 84.9817013043276 0.0872489060080133 167.005334590184 
3.6                            0.0836089559190475 164.385103817106 0.9151449063295  81.1593666054716 0.915144906329501 81.1593666054716 0.0876490088461746 164.499046679255 
3.65                           0.0839879861249022 159.805785025246 0.91420088387783 77.3372912059131 0.914200883877829 77.3372912059132 0.0878185487776172 162.023889858936 
3.7                            0.0841170055065515 155.216764896083 0.913276421828973 73.5153347961243 0.913276421828973 73.5153347961243 0.0877609684927621 159.587643783048 
3.75                           0.0839971021786609 150.61195645043  0.912370613412072 69.6933628109042 0.912370613412072 69.6933628109042 0.0874810603817076 157.198378633627 
3.8                            0.0836304652077155 145.985068939302 0.911482326832177 65.871248176705  0.911482326832177 65.871248176705  0.0869850235834193 154.864588480024 
3.85                           0.0830204032160847 141.329474081047 0.910610222070723 62.0488729525364 0.910610222070725 62.0488729525363 0.0862805357918928 152.595320532522 
3.9                            0.0821713690787315 136.638062154518 0.909752770566821 58.2261298404275 0.90975277056682 58.2261298404276 0.0853768399403168 150.40030044052  
3.95                           0.0810889920031941 131.903082035412 0.908908277512375 54.4029235429852 0.908908277512377 54.4029235429851 0.0842848458438436 148.290052186521 
4                              0.0797801188633769 127.115958634869 0.908074906452118 50.5791719475597 0.90807490645212 50.5791719475596 0.0830172467248021 146.276008993751 
4.05                           0.0782528673953398 122.267080260208 0.907250705840279 46.7548071189026 0.907250705840281 46.7548071189025 0.0815886501759334 144.370608734889 
4.1                            0.0765166948153938 117.345547181223 0.906433637170098 42.9297760849521 0.906433637170099 42.929776084952  0.0800157223847995 142.587363286501 
4.15                           0.0745824866575833 112.338871198893 0.905621604261512 39.1040414034893 0.905621604261513 39.1040414034891 0.0783173431156525 140.940885766531 
4.2                            0.0724626722343409 107.232614406255 0.904812483267442 35.2775815008271 0.904812483267444 35.2775815008269 0.0765147666950426 139.446852292004 
4.25                           0.0701713751986146 102.009953907285 0.904004152941028 31.4503907773607 0.904004152941028 31.4503907773606 0.074631780634038 138.121865635283 
4.3                            0.067724610325845 96.6511586659062 0.903194524695956 27.6224794786651 0.903194524695958 27.6224794786648 0.0726948480043715 136.98317721181  
4.35                           0.0651405409017215 91.1329661920081 0.902381571990391 23.7938733347897 0.902381571990393 23.7938733347894 0.0707332117057317 136.048212390757 
4.4                            0.062439814938046 85.4278529322183 0.901563358572502 19.9646129743807 0.901563358572503 19.9646129743806 0.0687789279261864 135.333835025675 
4.45                           0.0596460024803216 79.5032076591085 0.900738065142564 16.1347531241735 0.900738065142565 16.1347531241733 0.0668667825850771 134.855285782017 
4.5                            0.0567861594675457 73.3204501507288 0.899904014012996 12.3043616081389 0.899904014012997 12.3043616081386 0.0650340297752022 134.624744080954 
4.55                           0.0538915434825467 66.8342022143114 0.899059691383201 8.47351816404897 0.899059691383201 8.47351816404868 0.0633198787718327 134.649507155354 
4.6                            0.0509984980459878 59.9917371702601 0.89820376689011 4.64231309835226 0.89820376689011 4.64231309835197 0.0617646526868177 134.929863799856 
4.65                           0.0481494946600397 52.7331385444498 0.897335110146839 0.810845802944056 0.897335110146839 0.810845802943776 0.0604085570592909 135.456869337918 
4.7                            0.0453942576279872 44.9929199133647 0.896452804039721 -3.02077684039219 0.896452804039721 -3.02077684039246 0.0592900412850098 136.21038636748  
4.75                           0.0427907686108545 36.704290128418  0.895556154616595 -6.85244214046697 0.895556154616594 -6.85244214046723 0.0584438157471946 137.1578941862   
4.8                            0.0404057266465241 27.8076547175995 0.894644697465027 -10.6840333336471 0.894644697465027 -10.6840333336473 0.0578986952821168 138.254606730421 
4.85                           0.0383137253679095 18.264882297996  0.893718200546223 -14.5154313484391 0.893718200546223 -14.5154313484392 0.0576755469722505 139.445289576536 
4.9                            0.0365941104219528 8.07943415153293 0.892776663517057 -18.3465165690274 0.892776663517056 -18.3465165690276 0.057785681337076 140.667804346542 
4.95                           0.0353245192511325 -2.68136661648179 0.891820313636947 -22.1771705698982 0.891820313636946 -22.1771705698983 0.0582299968309148 141.857922811822 
5                              0.0345709951863126 -13.8714106713451 0.890849598416703 -26.0072777950266 0.890849598416703 -26.0072777950266 0.0589990557163867 142.954539969552 
5.05                           0.0343765352567785 -25.2710983047954 0.889865175221303 -29.8367271569668 0.889865175221302 -29.8367271569669 0.0600740719454668 143.904277581869 
5.1                            0.0347520448031927 -36.6197715169628 0.888867898086661 -33.6654135334772 0.88886789808666 -33.6654135334772 0.0614286016943792 144.664679678694 
5.15                           0.035673846988936 -47.6662119631586 0.887858802050787 -37.4932391419668 0.887858802050786 -37.4932391419669 0.0630306134279179 145.20564962462  
5.2                            0.0370890376141291 -58.2148203435543 0.886839085331537 -41.3201147749844 0.886839085331536 -41.3201147749845 0.0648446043942187 145.509251381078 
5.25                           0.0389260422364659 -68.1484265087876 0.885810089706203 -45.1459608830812 0.885810089706203 -45.1459608830812 0.0668335038256651 145.5683164342   
5.3                            0.0411059285220154 -77.4249828929003 0.88477327946227 -48.9707084945991 0.884773279462269 -48.9707084945992 0.0689602135107372 145.38440115674  
5.35                           0.0435511626776222 -86.0585783201211 0.883730219294116 -52.7942999651599 0.883730219294117 -52.79429996516  0.0711887404458671 144.965572416882 
5.4                            0.0461907733175995 -94.0971575205237 0.882682551517737 -56.6166895527919 0.882682551517737 -56.616689552792 0.073484949893814 144.324350545512 
5.45                           0.0489624945191962 -101.60431740317 0.88163197296538 -60.4378438176553 0.881631972965379 -60.4378438176554 0.0758170059641114 143.475984168592 
5.5                            0.051812980144478 -108.647229955496 0.880580211905359 -64.2577418481487 0.880580211905357 -64.2577418481488 0.0781555780896092 142.43711179703  
5.55                           0.0546970407353852 -115.289852051954 0.879529005310091 -68.0763753177653 0.879529005310088 -68.0763753177654 0.0804738862025318 141.22479056889  
5.6                            0.0575765228164726 -121.589770641457 0.87848007676885 -71.8937483793528 0.87848007676885 -71.8937483793529 0.0827476441819885 139.85583614072  
5.65                           0.0604191636245368 -127.597216095283 0.877435115311816 -75.7098774054291 0.877435115311816 -75.7098774054292 0.0849549462654846 138.346407008138 
5.7                            0.0631975685778285 -133.355222736962 0.876395755379946 -79.5247905848659 0.876395755379945 -79.524790584866 0.0870761277247965 136.711770169004 
5.75                           0.0658883571990336 -138.90031406343 0.875363558141957 -83.3385273875976 0.875363558141957 -83.3385273875976 0.0890936203738092 134.966194999039 
5.8                            0.0684714749856948 -144.263367122159 0.874339994326222 -87.1511379100432 0.874339994326221 -87.1511379100435 0.0909918154853267 133.122933702887 
5.85                           0.070929649750032 -149.470480559065 0.873326428702495 -90.9626821146531 0.873326428702496 -90.9626821146532 0.0927569410474311 131.194257320924 
5.9                            0.0732479663111855 -154.543767292752 0.872324106316835 -94.7732289774406 0.872324106316834 -94.7732289774407 0.0943769564584664 129.191525072131 
5.95                           0.0754135349915498 -159.502044047004 0.871334140553229 -98.5828555575547 0.871334140553228 -98.5828555575548 0.0958414652499222 127.125271645933 
6                              0.0774152331027624 -164.361415397174 0.870357503068017 -102.391646002923 0.870357503068016 -102.391646002923 0.0971416448417839 125.005302132447 
6.05                           0.0792435026678736 -169.135761350672 0.869395015618096 -106.199690505766 0.869395015618095 -106.199690505766 0.0982701913825412 122.840787932965 
6.1                            0.0808901912803398 -173.83714156116 0.868447343781636 -110.007084221419 0.868447343781633 -110.007084221418 0.0992212772021939 120.640359554509 
6.15                           0.0823484260306175 -178.47612980001 0.867514992550391 -113.813926163365 0.867514992550388 -113.813926163365 0.0999905181754983 118.412193950393 
6.2                            0.0836125128412109 176.937908741189 0.866598303755729 -117.6203180868  0.866598303755726 -117.6203180868  0.100574948266844 116.16409524927  
6.25                           0.0846778554257721 172.396586353515 0.865697455276134 -121.426363372343 0.865697455276132 -121.426363372343 0.100972998652027 113.903568487529 
6.3                            0.0855408895298325 167.892298634253 0.864812461961823 -125.232165920788 0.864812461961821 -125.232165920788 0.10118447904998 111.637886445907 
6.35                           0.0861990292153089 163.41805947506  0.8639431782022  -129.037829069035 0.863943178202198 -129.037829069035 0.101210559224276 109.374149975294 
6.4                            0.0866506227980621 158.967358756484 0.86308930205375 -132.843454536554 0.863089302053749 -132.843454536554 0.101053749009672 107.119342334991 
6.45                           0.0868949167015281 154.534037342881 0.862250380839449 -136.649141410985 0.862250380839449 -136.649141410985 0.100717875663765 104.88037809425  
6.5                            0.0869320259999798 150.112174792509 0.861425818125548 -140.454985180712 0.861425818125547 -140.454985180711 0.100208057816998 102.66414708414  
6.55                           0.0867629108314718 145.695985810479 0.86061488197737 -144.261076821517 0.860614881977369 -144.261076821517 0.0995306757723973 100.47755373947  
6.6                            0.0863893581939197 141.279721901094 0.859816714392396 -148.067501943726 0.859816714392397 -148.067501943726 0.098693338363029 98.3275519385169 
6.65                           0.0858139689231595 136.857574941233 0.859030341806015 -151.874340005555 0.859030341806016 -151.874340005555 0.0977048469813039 96.2211751234895 
6.7                            0.0850401499105244 132.423579512561 0.858254686562913 -155.681663597733 0.858254686562914 -155.681663597733 0.0965751577185085 94.1655610536732 
6.75                           0.0840721118686781 127.971510806678 0.857488579244802 -159.489537803853 0.857488579244804 -159.489537803852 0.0953153427622467 92.1679699885941 
6.8                            0.0829148732167578 123.494774758279 0.856730771743105 -163.298019640266 0.856730771743109 -163.298019640266 0.0939375522589451 90.2357944015604 
6.85                           0.0815742709486916 118.986286767422 0.855979950963115 -167.1071575788  0.855979950963118 -167.107157578799 0.0924549777217818 88.3765574674902 
6.9                            0.0800569796932649 114.438334942786 0.855234753044026 -170.916991154946 0.85523475304403 -170.916991154946 0.0908818177131135 86.5978965440436 
6.95                           0.078370540595844 109.842423235797 0.85449377797724 -174.727550663656 0.854493777977244 -174.727550663656 0.089233245915085 84.9075266802845 
7                              0.0765234021786648 105.189089154621 0.853755604503159 -178.538856944268 0.853755604503165 -178.538856944268 0.0875253807833041 83.313177883801  
7.05                           0.0745249760034324 100.467689986072 0.853018805164797 177.649078744435 0.853018805164801 177.649078744435 0.085775254721457 81.8224985515194 
7.1                            0.0723857108055984 95.6661507022469 0.852281961394622 173.836254758636 0.852281961394626 173.836254758636 0.0840007790983096 80.4429163019088 
7.15                           0.0701171898351892 90.7706661720952 0.851543678509581 170.022679013528 0.851543678509586 170.022679013528 0.0822206994609565 79.1814467374996 
7.2                            0.0677322574602516 85.7653502950987 0.850802600488008 166.208368837746 0.850802600488014 166.208368837746 0.0804545330426776 78.044440872593  
7.25                           0.0652451826788284 80.6318258916908 0.850057424401513 162.393350739549 0.85005742440152 162.393350739549 0.0787224782746639 77.0372637129381 
7.3                            0.0626718689970065 75.3487528234449 0.849306914374894 158.577660086721 0.849306914374902 158.577660086721 0.0770452837781752 76.1639005557545 
7.35                           0.0600301219832489 69.8912999757702 0.84854991494793 154.761340702778 0.848549914947935 154.761340702778 0.0754440627069972 75.4264948196522 
7.4                            0.0573399872471937 64.2305829801356 0.847785363714448 150.944444382694 0.847785363714455 150.944444382694 0.0739400380016098 74.8248322519361 
7.45                           0.054624171625429 58.3331196927512 0.847012303116858 147.127030331999 0.847012303116862 147.127030331999 0.0725542059492445 74.3558012353675 
7.5                            0.051908557020908 52.1604084156317 0.846229891277785 143.309164533703 0.846229891277788 143.309164533703 0.0713069103009568 74.0128765260489 
7.55                           0.0492228059907742 45.6688220476356 0.845437411755581 139.490919048134 0.845437411755586 139.490919048134 0.070217327734141 73.785691320212  
7.6                            0.0466010345495588 38.8101486474449 0.844634282116197 135.672371251367 0.844634282116199 135.672371251367 0.0693028776975919 73.6597754035554 
7.65                           0.0440824811065733 31.5333018377038 0.843820061221206 131.853603018484 0.843820061221206 131.853603018484 0.0685785846032418 73.6165392761293 
7.7                            0.0417120187804446 23.7879485196741 0.842994455140041 128.034699858474 0.84299445514004 128.034699858474 0.0680564355617682 73.6335698748521 
7.75                           0.0395402327246298 15.5309516621756 0.842157321603804 124.215750008044 0.842157321603802 124.215750008044 0.0677447888505602 73.6852700810329 
7.8                            0.0376226264942079 6.73634681313102 0.841308672928375 120.396843492102 0.841308672928369 120.396843492102 0.067647893132165 73.7438244643384 
7.85                           0.0360173979608978 -2.5913699122762 0.840448677345698 116.578071159055 0.840448677345694 116.578071159055 0.067765572175912 73.7804172728704 
7.9                            0.0347812908513026 -12.4029639749305 0.839577658694055 112.759523699402 0.839577658694048 112.759523699402 0.0680931139501614 73.7665799767484 
7.95                           0.0339634981671895 -22.5944452175649 0.838696094430495 108.941290656408 0.838696094430486 108.941290656409 0.0686213790650614 73.6755190963835 
8                              0.0335985509665287 -33.0083777849974 0.837804611941392 105.123459437819 0.837804611941382 105.123459437819 0.0693371168876454 73.4832790075014 
8.05                           0.0337001964077849 -43.4511904114637 0.836903983140036 101.306114337729 0.836903983140024 101.306114337729 0.0702234543423375 73.1696275867441 
8.1                            0.0342585864930827 -53.7236307786279 0.835995117353015 97.4893355778151 0.835995117353   97.4893355778154 0.0712605073099729 72.7186044913268 
8.15                           0.0352420215370889 -63.6534502905795 0.835079052509809 93.6731983770829 0.835079052509794 93.6731983770831 0.0724260597168286 72.1187275882487 
8.2                            0.036602526048394 -73.1179145976031 0.834156944662259 89.857772059271  0.834156944662244 89.8577720592713 0.0736962598798693 71.3628990290633 
8.25                           0.0382830785944888 -82.0502565210487 0.83323005587217 86.0431192068845 0.833230055872152 86.0431192068849 0.0750462943286895 70.4480808366646 
8.3                            0.0402242548441991 -90.4326811603375 0.832299740516299 82.2292948706541 0.83229974051628 82.2292948706545 0.0764510123563813 69.374819447901  
8.35                           0.0423690082810539 -98.282791273107 0.831367430067997 78.4163458429745 0.831367430067981 78.416345842975  0.0778854867364015 68.1466932506682 
8.4                            0.0446653878789389 -105.639567385109 0.830434616424008 74.6043100035876 0.83043461642399 74.6043100035882 0.0793255054037332 66.7697427685454 
8.45                           0.04706762064086 -112.552173337389 0.829502833853123 70.7932157454572 0.829502833853107 70.7932157454578 0.0807479947692727 65.2519255435314 
8.5                            0.0495361485468407 -119.072377725678 0.828573639650731 66.9830814884243 0.828573639650717 66.9830814884247 0.0821313780366745 63.6026211204884 
8.55                           0.0520371149715875 -125.250079059055 0.827648593589695 63.1739152878757 0.82764859358968 63.1739152878763 0.0834558722828026 61.8321981180281 
8.6                            0.0545416312331792 -131.131041951765 0.8267292362636  59.3657145452679 0.826729236263588 59.3657145452683 0.0847037271604028 59.9516458885799 
8.65                           0.0570250114268725 -136.756029148454 0.825817066423403 55.5584658269713 0.825817066423394 55.5584658269717 0.0858594067893489 57.9722674345913 
8.7                            0.0594660669880674 -142.160731098044 0.824913517413014 51.7521447975277 0.824913517413007 51.7521447975281 0.0869097153833793 55.9054272890889 
8.75                           0.0618464957355588 -147.376103604709 0.82401993281347 47.9467162730386 0.824019932813466 47.9467162730388 0.0878438667951925 53.7623471063274 
8.8                            0.0641503706541205 -152.428880191888 0.823137541409701 44.142134400051  0.823137541409698 44.1421344000512 0.0886534985785213 51.5539419555636 
8.85                           0.0663637203298951 -157.342129041473 0.822267431598169 40.3383429649793 0.822267431598171 40.3383429649794 0.0893326322812024 49.290691161443  
8.9                            0.0684741882993071 -162.135787633373 0.821410525358774 36.5352758387623 0.82141052535878 36.5352758387621 0.0898775832808383 46.9825385726039 
8.95                           0.0704707581774017 -166.827144839874 0.820567551920154 32.7328575611643 0.820567551920165 32.7328575611638 0.0902868252687408 44.6388181160799 
9                              0.0723435328669682 -171.431260347772 0.819739021254498 28.9310040688127 0.819739021254511 28.931004068812  0.0905608161870398 42.2682012860656 
9.05                           0.0740835581776066 -175.961321658606 0.818925197546397 25.129623570768  0.818925197546416 25.129623570767  0.0907017937806559 39.8786637864945 
9.1                            0.0756826832215279 179.571056224713 0.818126072790352 21.3286175750992 0.818126072790375 21.3286175750978 0.0907135497693215 37.4774689165173 
9.15                           0.0771334517581294 175.155581459508 0.817341340683621 17.5278820695945 0.817341340683648 17.527882069593  0.0906011918947088 35.071165502747  
9.2                            0.0784290201560004 170.78307909797  0.816570370995318 13.7273088593414 0.816570370995351 13.7273088593392 0.0903709027614204 32.6655982969137 
9.25                           0.0795630988270131 166.445321041677 0.815812184609188 9.92678706344294 0.815812184609224 9.92678706344036 0.0900297035471614 30.2659288233421 
9.3                            0.0805299148886068 162.134886073472 0.815065429456302 6.12620477259544 0.815065429456342 6.12620477259242 0.0895852294336692 27.8766647177009 
9.35                           0.0813241944595849 157.845044591871 0.814328357575168 2.3254508685548  0.81432835757521 2.32545086855145 0.089045522154605 25.5016956737221 
9.4                            0.0819411634211806 153.569663384524 0.813598803560019 -1.47558299428121 0.813598803560063 -1.47558299428475 0.0884188435168045 23.1443342220766 
9.45                           0.0823765657026374 149.303126383141 0.81287416468331 -5.27700024596919 0.812874164683356 -5.27700024597303 0.0877135122551537 20.8073597085773 
9.5                            0.082626698197832 145.040267827544 0.812151383005147 -9.07889709879713 0.812151383005194 -9.07889709880123 0.0869377652272094 18.4930640129302 
9.55                           0.0826884613022435 140.776314633094 0.811426929809883 -12.881360089202 0.811426929809931 -12.8813600892065 0.0860996428061399 16.2032977452773 
9.6                            0.0825594237935855 136.506835013843 0.810696792737703 -16.6844634690186 0.810696792737749 -16.6844634690232 0.0852068974219073 13.9395158647828 
9.65                           0.0822379003834866 132.227690576786 0.809956466005658 -20.4882664532761 0.809956466005704 -20.4882664532808 0.0842669235358148 11.7028218716582 
9.7                            0.0817230397671611 127.934989184912 0.809200944137107 -24.2928103341087 0.80920094413715 -24.2928103341133 0.0832867068971022 9.49400992192715 
9.75                           0.0810149204276727 123.625035902299 0.808424719639275 -28.098115473026 0.808424719639314 -28.0981154730304 0.0822727906932931 7.31360439576358 
9.8                            0.0801146508571408 119.294279295759 0.80762178508442 -31.9041781868122 0.807621785084454 -31.9041781868162 0.0812312561326332 5.16189661063868 
9.85                           0.0790244702969739 114.939250285192 0.806785640058411 -35.7109675456788 0.80678564005844 -35.7109675456818 0.0801677150496066 3.03897850732379 
9.9                            0.0777478456414874 110.556490616659 0.805909303440047 -39.5184221059616 0.805909303440066 -39.5184221059641 0.0790873122674365 0.944773249439978 
9.95                           0.0762895598698909 106.142467882461 0.804985331462532 -43.3264466036018 0.804985331462544 -43.326446603603 0.0779947356531888 -1.12093723337015 
10                             0.0746557873476726 101.693473831548 0.804005841983262 -47.134908638803 0.804005841983263 -47.134908638803 0.0768942320354471 -3.15848766054506 
