! Touchstone file exported from HFSS 3D Layout Design 2026.1.0
!        File:           D:/Work/ADS/HFSS_VERDICT/hfss_sma_connector_cpw.aedt
!        Generated:      07:16:29 PM Aug  5, 2026
!        Design:         SINGLE_END_SMA_CPW_30MM
!        Project:        hfss_sma_connector_cpw
!
! Variables:
!        $sma_Base_D = 6.25mm
!        $sma_Base_L = 8mm
!        $sma_Feet_L = 4mm
!        $sma_Feet_W = 1mm
!        $sma_Front_L = 1.5mm
!        $sma_Front_W = 6.5mm
!        $sma_Hole_D = 1.25mm
!        $sma_PTFE_D = 4.2mm
!        $sma_Pin_D = 0.95mm
!        $sma_Pin_P = 1.7mm
!
# GHz S MA R 50.000000
! Terminal data exported
! Port[1] = Port1
! Port[2] = S1_1_Pin_T1
0.5                            0.0840033735235638 -135.034007725757 0.986257271693417 -42.1873476534376 0.986257271693416 -42.1873476534376 0.084463720701586 -131.148638512172 
0.6                            0.0974175640512394 -144.030803849653 0.983446117345605 -50.5079446160914 0.983446117345611 -50.5079446160918 0.0978450988908582 -139.142934819433 
0.7                            0.109265549951225 -153.021072987208 0.980684372277861 -58.8027656794652 0.980684372277866 -58.8027656794657 0.10961152217669 -146.97743554075 
0.8                            0.11942110818761 -162.034674066017 0.978030298691746 -67.0741077176245 0.978030298691747 -67.074107717625 0.11964575150804 -154.652585982792 
0.9                            0.127787218952879 -171.102166494902 0.975541313208733 -75.3248985982554 0.975541313208733 -75.3248985982556 0.127860356845767 -162.160833753191 
1                              0.134296115047261 179.743747414783 0.97326588515155 -83.5587391447095 0.973265885151551 -83.5587391447095 0.134198912524207 -169.487131837239 
1.1                            0.138910397287596 170.466503526645 0.971238982342506 -91.7797486666518 0.971238982342507 -91.7797486666518 0.138637845676118 -176.608623881154 
1.2                            0.141624739589575 161.023651607504 0.969479809185052 -99.9923530146206 0.969479809185054 -99.9923530146206 0.141188598378748 176.506448123649 
1.3                            0.142468261693648 151.364409726524 0.967990977941966 -108.201059797239 0.967990977941968 -108.201059797239 0.141900363723582 169.900656275261 
1.4                            0.141507952628399 141.426598853747 0.96675867732351 -116.410235314326 0.966758677323513 -116.410235314326 0.140863934577041 163.630158916417 
1.5                            0.138853710377963 131.132721743708 0.965753648793233 -124.623890644114 0.965753648793235 -124.623890644114 0.138217328600783 157.76831163969  
1.6                            0.134665723382644 120.385010663573 0.964932890570425 -132.845484185116 0.964932890570426 -132.845484185116 0.134153914561099 152.409878796341 
1.7                            0.129165092679366 109.059577041874 0.964242038636427 -141.077749126789 0.964242038636428 -141.077749126789 0.128933728549464 147.675007372846 
1.8                            0.122648679362368 97.0007256365715 0.963618359764968 -149.322555010872 0.963618359764968 -149.322555010872 0.122898277574676 143.710713390981 
1.9                            0.11550872121497 84.0188388003021 0.962994253912884 -157.580812262803 0.962994253912883 -157.580812262803 0.11648767743954 140.684762519061 
2                              0.108255550117277 69.9002754386444 0.962301114260687 -165.852427220545 0.962301114260686 -165.852427220545 0.11025501014489 138.762201663865 
2.1                            0.101535078177916 54.4460259390841 0.961473342441193 -174.136312782117 0.961473342441193 -174.136312782117 0.10486444534202 138.050940105251 
2.2                            0.096118358012451 37.5614086706491 0.960452273953593 177.569543560875 0.960452273953592 177.569543560875 0.10104807700049 138.510384040825 
2.3                            0.0928228683692929 19.3974712139362 0.959189744644287 169.267956600299 0.959189744644287 169.267956600299 0.0994947660968602 139.854417098498 
2.4                            0.09233506217613 0.464365305869051 0.957651032275639 160.962371873031 0.957651032275638 160.962371873031 0.100680119448117 141.536988753088 
2.5                            0.0949861694109911 -18.4411016184451 0.955816942631973 152.65665654039  0.955816942631972 152.65665654039  0.104719123729163 142.895477346668 
2.6                            0.100634893613691 -36.5307253111781 0.953684876496356 144.354866875362 0.953684876496355 144.354866875362 0.111346227648614 143.382228954682 
2.7                            0.108756894891303 -53.312704353324 0.951268804721951 136.061008579752 0.95126880472195 136.061008579752 0.120033884092005 142.709875277697 
2.8                            0.118653894793   -68.6517578711285 0.948598180543947 127.778806526746 0.948598180543946 127.778806526746 0.13015573495736 140.83862250981  
2.9                            0.129631153252172 -82.650833110014 0.945715915529171 119.511499175632 0.94571591552917 119.511499175632 0.141106655407619 137.879571003994 
3                              0.141084867044545 -95.5113917895218 0.942675623389517 111.261670062525 0.942675623389516 111.261670062525 0.152359526561329 134.002885792536 
3.1                            0.152522856138602 -107.446776975663 0.939538383881679 103.03112489883  0.939538383881679 103.03112489883  0.163478989946641 129.382832175283 
3.2                            0.163555353576529 -118.645653047073 0.936369293151503 94.8208185002972 0.936369293151504 94.8208185002972 0.174115463796306 124.173950366153 
3.3                            0.173877892273692 -129.263163748049 0.933234049696143 86.6308316143132 0.933234049696142 86.6308316143132 0.183993192951341 118.504771770354 
3.4                            0.183255034141771 -139.423517546131 0.930195784224985 78.4603941875693 0.930195784224985 78.4603941875693 0.192898218660882 112.479284510901 
3.5                            0.191507201657737 -149.225886838369 0.9273122873205  70.3079490140179 0.9273122873205  70.3079490140179 0.200668109211765 106.181002763801 
3.6                            0.198500561557355 -158.750376985764 0.924633731187674 62.1712481198768 0.924633731187675 62.1712481198768 0.207183696003656 99.6773939011356 
3.7                            0.204139360928498 -168.063061904967 0.922200929253833 54.0474736056899 0.922200929253833 54.0474736056899 0.212362583439658 93.0238549968708 
3.8                            0.208360143203816 -177.219962822981 0.92004413528118 45.9333747892112 0.92004413528118 45.9333747892112 0.216154138504395 86.2670513539495 
3.9                            0.211127424110174 173.729865108996 0.918182354217372 37.825414139908  0.918182354217373 37.825414139908  0.2185357197091  79.4476638521023 
4                              0.212430546726143 164.741914221614 0.916623119877161 29.7199154305791 0.916623119877162 29.7199154305791 0.219509970568079 72.6026602551335 
4.1                            0.212281533329118 155.774266695804 0.915362687600785 21.6132085564576 0.915362687600785 21.6132085564576 0.219103052213482 65.7672090244023 
4.2                            0.210713815790077 146.78592622778  0.914386590249518 13.5017664464027 0.914386590249518 13.5017664464027 0.217363721551889 58.976334469835  
4.3                            0.207781768241227 137.735301866232 0.913670510068809 5.38233033391697 0.913670510068809 5.38233033391702 0.21436318007314 52.266383822433  
4.4                            0.203560996186993 128.578737316954 0.913181424190352 -2.74797965866982 0.913181424190352 -2.74797965866968 0.21019562737882 45.6763418713733 
4.5                            0.198149362034266 119.269009522406 0.912878985600686 -10.8915711258199 0.912878985600687 -10.8915711258197 0.204979451758651 39.2489819800176 
4.6                            0.191668750429196 109.753761049392 0.912717102797935 -19.0503052317266 0.912717102797935 -19.0503052317266 0.198858970094475 33.0317730425306 
4.7                            0.184267593104046 99.9739000978522 0.912645679431421 -27.2254434630092 0.912645679431422 -27.2254434630091 0.192006573445826 27.0773549048426 
4.8                            0.176124164814941 89.8621315678849 0.912612470100805 -35.417616509616 0.912612470100806 -35.4176165096159 0.184625010901087 21.4432322294011 
4.9                            0.167450587853888 79.3420244505536 0.912565001011565 -43.6268160096246 0.912565001011566 -43.6268160096245 0.176949302872925 16.1901088366007 
5                              0.158497257295844 68.3284479151745 0.912452495728372 -51.8524093002691 0.912452495728372 -51.8524093002692 0.169247354124511 11.3780177441276 
5.1                            0.149556870038706 56.73088741036   0.912227738578044 -60.0931766157197 0.912227738578046 -60.0931766157197 0.161817697830615 7.05922012892578 
5.2                            0.140966189060113 44.4620268315742 0.911848803167588 -68.3473693803539 0.911848803167589 -68.3473693803539 0.15498202976181 3.26705904108809 
5.3                            0.133101936637055 31.4545712679234 0.911280572643263 -76.6127874080148 0.911280572643263 -76.6127874080149 0.149069683121611 0.00108926225870282 
5.4                            0.126365117937127 17.68818767509   0.91049598288143 -84.8868719959336 0.91049598288143 -84.8868719959336 0.14439183786457 -2.78866721113111 
5.5                            0.12114733405617 3.22330090620112 0.909476930208545 -93.166811170022 0.909476930208545 -93.1668111700221 0.141206205511535 -5.2120506269763 
5.6                            0.117776842925257 -11.7716653079322 0.908214801085622 -101.44965276861 0.908214801085621 -101.44965276861 0.139678391458627 -7.43554862538238 
5.7                            0.116454152735568 -27.0219372362061 0.906710601222477 -109.732420704403 0.906710601222478 -109.732420704403 0.139851587145956 -9.66089016583615 
5.8                            0.117201745305492 -42.1921892671969 0.90497468391321 -118.012229657046 0.904974683913208 -118.012229657046 0.141636708052151 -12.0901121764492 
5.9                            0.119854639893102 -56.9630931440627 0.903026099753297 -126.286393630362 0.903026099753297 -126.286393630362 0.144827787234833 -14.8905334655864 
6                              0.124098489632961 -71.0994240392645 0.900891610065466 -134.552524238535 0.900891610065466 -134.552524238535 0.14913646684864 -18.1731358420885 
6.1                            0.129535139106271 -84.4779555403004 0.898604422443223 -142.808615218016 0.898604422443222 -142.808615218016 0.154232782249865 -21.9891468000878 
6.2                            0.13574647882222 -97.0748207271535 0.8962027175712  -151.05311043278 0.896202717571198 -151.05311043278 0.159780705332872 -26.34026110325  
6.3                            0.142338715694117 -108.933236139969 0.893728041429191 -159.28495347813 0.893728041429188 -159.28495347813 0.165462843862975 -31.1943743562675 
6.4                            0.148964784580579 -120.131381423478 0.891223636430772 -167.503617824006 0.891223636430774 -167.503617824006 0.170994216668286 -36.5004978668575 
6.5                            0.155330989828382 -130.75938229761 0.888732779921351 -175.709117215761 0.888732779921352 -175.709117215761 0.176127800226855 -42.1999650778206 
6.6                            0.161195017112093 -140.905989036881 0.886297190113361 176.098003270668 0.886297190113358 176.098003270668 0.180654975972893 -48.2335865578388 
6.7                            0.166360397864834 -150.652298437031 0.883955549480622 167.916694560622 0.883955549480619 167.916694560622 0.184403343964287 -54.5455626273691 
6.8                            0.170670242675357 -160.069681592699 0.881742185309505 159.74544789641  0.881742185309505 159.745447896409 0.187233505668065 -61.0851847118694 
6.9                            0.174001522957683 -169.219885443997 0.879685937691544 151.582354389893 0.879685937691543 151.582354389893 0.189035732145826 -67.8071787245813 
7                              0.176260344742335 -178.156095687277 0.877809237538492 143.425177794406 0.877809237538492 143.425177794406 0.18972698642647 -74.6712787101095 
7.1                            0.177378269881989 173.075678785055 0.87612741156325 135.271438247959 0.876127411563251 135.271438247959 0.189248507567352 -81.6413919775145 
7.2                            0.177309586412773 164.435198201994 0.874648227511486 127.118504516685 0.874648227511483 127.118504516685 0.187564020374172 -88.6845552048526 
7.3                            0.176029384075533 155.886672671141 0.873371690757907 118.963692025627 0.873371690757902 118.963692025627 0.184658557370321 -95.7697746191852 
7.4                            0.173532288007852 147.397546043321 0.872290101874345 110.804363688809 0.872290101874345 110.804363688809 0.180537837053924 -102.866774156938 
7.5                            0.169831713916456 138.937347064244 0.871388382882053 102.638030243725 0.871388382882053 102.638030243725 0.17522811878911 -109.944627012653 
7.6                            0.164959520380033 130.476542209496 0.870644676469712 94.4624464784252 0.870644676469709 94.4624464784253 0.168776443878782 -116.970205272229 
7.7                            0.158965945865192 121.985299984338 0.870031216414568 86.27569945511   0.870031216414569 86.2756994551102 0.161251174686581 -123.906339124818 
7.8                            0.151919731448792 113.432046370755 0.86951545798034 78.0762846448671 0.869515457980341 78.0762846448672 0.152742763278798 -130.709522434543 
7.9                            0.143908349573833 104.781645866329 0.869061443862219 69.8631658713466 0.869061443862219 69.8631658713466 0.143364724889516 -137.326926736565 
8                              0.135038291154898 95.9929704042649 0.868631364678423 61.635815198664  0.868631364678423 61.6358151986639 0.133254868802645 -143.692384571107 
8.1                            0.125435417800481 87.0155025237408 0.868187254273065 53.394229463755  0.868187254273065 53.394229463755  0.122576960843292 -149.720879340459 
8.2                            0.115245477650952 77.7844351111941 0.867692741250383 45.1389210923142 0.867692741250382 45.1389210923142 0.111523166559951 -155.300974557126 
8.3                            0.104635035552354 68.2134475591815 0.867114761946013 36.8708821532306 0.867114761946014 36.8708821532306 0.100317843861325 -160.284693924382 
8.4                            0.0937933169324458 58.1839417750837 0.866425129515366 28.591522244719  0.866425129515365 28.5915222447189 0.0892234348109765 -164.475140079823 
8.5                            0.0829358577383955 47.5291057371178 0.865601851813261 20.3025826494745 0.865601851813262 20.3025826494745 0.0785490049642289 -167.615041750003 
8.6                            0.0723114130652782 36.011301228932  0.864630099226981 12.0060310745913 0.864630099226982 12.0060310745912 0.0686602864437013 -169.387787362534 
8.7                            0.0622140988483407 23.2941836125425 0.863502743166096 3.7039429985315  0.863502743166098 3.7039429985316  0.0599840585055805 -169.461437578007 
8.8                            0.0530019578644796 8.92395284897544 0.862220415329345 -4.60162302678117 0.862220415329347 -4.6016230267811 0.0529849704585205 -167.631468775673 
8.9                            0.0451161362295971 -7.62503324005684 0.860791074295264 -12.9087480015922 0.860791074295266 -12.9087480015923 0.0480740038076746 -164.093158239177 
9                              0.0390693306009673 -26.7047118316042 0.859229105310562 -21.2157648125802 0.859229105310565 -21.2157648125802 0.0454286640306672 -159.678359289773 
9.1                            0.0353254707300414 -47.9302392723273 0.857554016787911 -29.5213526473983 0.857554016787913 -29.5213526473984 0.0448241177638162 -155.663644406829 
9.2                            0.0340241144016167 -69.7328649766491 0.855788828775976 -37.8246070828966 0.85578882877598 -37.8246070828965 0.0456604210367758 -153.134328150611 
9.3                            0.0347684159213816 -90.0361381529289 0.853958271483097 -46.1250811608106 0.853958271483101 -46.1250811608108 0.0471873676108974 -152.554981107139 
9.4                            0.03679365520918 -107.583676833262 0.852086924362323 -54.4227948101972 0.852086924362326 -54.4227948101973 0.0487208914901038 -153.870160146081 
9.5                            0.0393366137818134 -122.235159056762 0.850197428445743 -62.7182121664995 0.850197428445744 -62.7182121664995 0.0497327065232281 -156.803058582416 
9.6                            0.0418384485010345 -134.384499591921 0.848308897933026 -71.0121885169059 0.848308897933029 -71.012188516906 0.0498488264009892 -161.06168597032 
9.7                            0.0439597945135881 -144.477743846197 0.846435643496356 -79.3058906572857 0.846435643496361 -79.3058906572857 0.0488189374877232 -166.427190732256 
9.8                            0.0455358703346208 -152.839719239582 0.844586301311657 -87.6006963102194 0.844586301311658 -87.6006963102193 0.04648723912266 -172.787013356108 
9.9                            0.0465380004256405 -159.656623066041 0.842763439818397 -95.8980798939333 0.8427634398184  -95.8980798939332 0.0427733436770163 179.833239141828 
10                             0.0470535860125344 -165.008476962451 0.840963691131021 -104.199493328841 0.84096369113102 -104.199493328841 0.0376663179275847 171.187725354303 
