! Touchstone file exported from HFSS 3D Layout Design 2026.1.0
!        File:           D:/Work/SIM/ADS_AUTO_SIM/projects/RFSOC_RF/TX_Fillter.aedt
!        Generated:      05:09:27 AM Aug 31, 2026
!        Design:         TX_BAND1_MCFIL_R51_CNN044
!        Project:        TX_Fillter
!
# GHz S MA R 50.000000
! Terminal data exported
! Port[1] = Port1
! Port[2] = Port2
14                             0.972982576658369 -164.189951536213 0.00375965405420714 -175.843381733924 0.00375965405420714 -175.843381733924 0.973770136150749 -161.246914233616 
14.05                          0.972488033344673 -165.079622749836 0.00383533835978086 -176.226127165724 0.00383533835978086 -176.226127165724 0.973294656434602 -162.130693440002 
14.1                           0.971978043242698 -165.97532569549 0.00391469497551188 -176.58861699843 0.0039146949755119 -176.588616998431 0.972804497260276 -163.020402892761 
14.15                          0.971451844127211 -166.877243916876 0.00399801515416638 -176.930497978596 0.00399801515416641 -176.930497978596 0.972298942683725 -163.916214986159 
14.2                           0.970908622831314 -167.78557069373 0.00408561861947448 -177.251464522283 0.00408561861947453 -177.251464522283 0.971777229361962 -164.818311158009 
14.25                          0.970347510967943 -168.70050968636 0.00417785665958618 -177.551267042846 0.00417785665958622 -177.551267042847 0.971238542604063 -165.726882484292 
14.3                           0.969767580216661 -169.622275632096 0.00427511557886292 -177.829721054984 0.00427511557886297 -177.829721054985 0.9706820120238  -166.642130321198 
14.35                          0.969167837123699 -170.551095098708 0.00437782055157068 -178.086717059145 0.00437782055157074 -178.086717059146 0.970106706746494 -167.564266999112 
14.4                           0.968547217356   -171.487207300347 0.00448643992674091 -178.322231194243 0.00448643992674097 -178.322231194244 0.969511630116167 -168.493516573599 
14.45                          0.967904579341677 -172.430864982274 0.00460149004003526 -178.536336627192 0.0046014900400353 -178.536336627194 0.968895713841521 -169.430115638998 
14.5                           0.967238697219652 -173.38233538131 0.0047235405960526 -178.729215624936 0.00472354059605265 -178.729215624937 0.968257811510526 -170.374314210886 
14.55                          0.966548253010004 -174.341901269797 0.00485322069335476 -178.901172228505 0.00485322069335484 -178.901172228506 0.967596691393268 -171.3263766844  
14.6                           0.965831827903473 -175.309862091775 0.00499122557480541 -179.05264541963 0.00499122557480544 -179.052645419632 0.966911028440855 -172.286582876234 
14.65                          0.9650878925533  -176.286535201118 0.00513832419791689 -179.184222639126 0.00513832419791693 -179.184222639127 0.96619939537441 -173.255229159057 
14.7                           0.964314796234684 -177.272257212615 0.00529536773414923 -179.296653483612 0.00529536773414927 -179.296653483613 0.965460252742003 -174.232629698157 
14.75                          0.963510754716141 -178.26738547829 0.00546329912294475 -179.390863374627 0.00546329912294478 -179.390863374629 0.964691937802458 -175.219117801336 
14.8                           0.962673836662336 -179.272299702863 0.00564316382625981 -179.46796696338 0.00564316382625983 -179.467966963381 0.963892652072691 -176.215047394427 
14.85                          0.961801948358826 179.712596286011 0.00583612195311919 -179.529281007561 0.00583612195311919 -179.529281007562 0.963060447348932 -177.220794636393 
14.9                           0.960892816514617 178.686872595032 0.00604346195206219 -179.576336436257 0.00604346195206218 -179.576336436257 0.962193209981168 -178.236759689722 
14.95                          0.95994396885752 177.650071130076 0.00626661610322548 -179.610889307686 0.00626661610322549 -179.610889307687 0.961288643143261 -179.26336866389 
15                             0.958952712188574 176.601703245886 0.00650717808236462 -179.634930365256 0.0065071780823646 -179.634930365256 0.960344246797407 179.698924248031 
15.05                          0.957916107503642 175.541247154912 0.00676692291773104 -179.650692912817 0.00676692291773101 -179.650692912818 0.959357294999316 178.649634416886 
15.1                           0.956830941720712 174.468145066117 0.00704782971906316 -179.660658762603 0.00704782971906315 -179.660658762604 0.958324810127996 177.588244183303 
15.15                          0.955693695467797 173.381800020502 0.00735210762801917 -179.667562060794 0.0073521076280191 -179.667562060795 0.957243533548953 176.514199992658 
15.2                           0.954500506285659 172.281572385567 0.00768222552360498 -179.674390867045 0.00768222552360493 -179.674390867045 0.956109892129293 175.42690922594  
15.25                          0.953247126477888 171.166775965567 0.00804094611747518 -179.684386455341 0.00804094611747515 -179.684386455341 0.954919959914102 174.325736688768 
15.3                           0.95192887469327 170.036673678443 0.00843136519599062 -179.701040412899 0.00843136519599056 -179.701040412899 0.953669414141213 173.210000715631 
15.35                          0.950540580145875 168.89047274331  0.00885695691299473 -179.728089738638 0.00885695691299469 -179.728089738637 0.952353484610773 172.078968840553 
15.4                           0.949076518159151 167.727319314525 0.00932162621480604 -179.769510279107 0.00932162621480599 -179.769510279107 0.950966895229846 170.931852978681 
15.45                          0.947530335451852 166.546292489317 0.00982976969356334 -179.829508982682 0.00982976969356331 -179.829508982682 0.949503796312261 169.767804055751 
15.5                           0.945894963253744 165.346397605788 0.0103863464250272 -179.912515596816 0.0103863464250272 -179.912515596816 0.947957685919039 168.585906013946 
15.55                          0.944162515932091 164.126558736668 0.0109969606624201 179.976825427316 0.0109969606624201 179.976825427316 0.946321318161345 167.385169113214 
15.6                           0.942324172306401 162.885610271464 0.0116679586415286 179.833661928229 0.0116679586415286 179.83366192823  0.944586595938497 166.16452243689  
15.65                          0.940370036203617 161.622287465794 0.0124065422197653 179.652938913675 0.0124065422197653 179.652938913675 0.942744445025963 164.92280549938  
15.7                           0.938288972027047 160.335215821861 0.0132209026426102 179.429400211532 0.0132209026426101 179.429400211533 0.940784665734241 163.658758842267 
15.75                          0.936068410138946 159.022899148818 0.0141203784287445 179.157585688106 0.0141203784287444 179.157585688106 0.938695757492894 162.371013493928 
15.8                           0.933694115636806 157.683706137134 0.015115642219605 178.831822750838 0.015115642219605 178.831822750838 0.936464710629063 161.058079157749 
15.85                          0.931149912570714 156.315855268722 0.0162189224856702 178.446210777278 0.0162189224856702 178.446210777279 0.934076758247864 159.718330986989 
15.9                           0.92841735371922 154.91739787728  0.0174442672633113 177.994597031639 0.0174442672633113 177.994597031639 0.931515079409359 158.349994803137 
15.95                          0.925475323607474 153.486199175728 0.0188078586627861 177.47054253307  0.0188078586627861 177.470542533071 0.928760442639798 156.951130623724 
16                             0.922299559380436 152.019917087035 0.0203283887972778 176.867276212656 0.0203283887972778 176.867276212656 0.925790776097266 155.519614392156 
16.05                          0.918862070270897 150.515978763069 0.0220275100969134 176.177635524736 0.0220275100969134 176.177635524736 0.922580647291018 154.053117857552 
16.1                           0.915130431528486 148.971554771853 0.0239303757516866 175.393991448254 0.0239303757516866 175.393991448255 0.919100630958913 152.549086654317 
16.15                          0.911066922571779 147.383531106451 0.0260662893214596 174.508155512609 0.0260662893214596 174.508155512609 0.915316538343768 151.004716807108 
16.2                           0.906627471543627 145.748479465239 0.0284694863718217 173.511266101158 0.0284694863718217 173.511266101158 0.911188474471977 149.416930180044 
16.25                          0.901760359161354 144.062626747402 0.0311800752742373 172.393650823175 0.0311800752742374 172.393650823175 0.906669681947926 147.78234986752  
16.3                           0.896404623631377 142.321825516056 0.0342451688233622 171.144661215804 0.0342451688233622 171.144661215804 0.901705120161696 146.097277294087 
16.35                          0.890488095585984 140.521528490041 0.0377202425557374 169.752475482567 0.0377202425557374 169.752475482567 0.896229717857198 144.357674020022 
16.4                           0.883924978245946 138.65677222902  0.0416707585545266 168.203864483716 0.0416707585545266 168.203864483716 0.890166225491072 142.559153200357 
16.45                          0.876612875303004 136.722178544313 0.0461740931141529 166.483915940031 0.0461740931141529 166.483915940031 0.88342258366242 140.696988731878 
16.5                           0.868429161757695 134.711987546227 0.0513217993302185 164.575712115099 0.0513217993302185 164.575712115099 0.875888719295477 138.766154993466 
16.55                          0.859226600127161 132.620144811391 0.0572222151798105 162.459957668232 0.0572222151798105 162.459957668232 0.867432690624074 136.761417751096 
16.6                           0.848828143478788 130.440478786418 0.0640033832196651 160.114557898676 0.0640033832196651 160.114557898676 0.857896141499199 134.677508817772 
16.65                          0.837020970225995 128.167026138469 0.0718161618389564 157.514154875034 0.0718161618389565 157.514154875034 0.84708912502669 132.509435780735 
16.7                           0.823550022506378 125.794596723133 0.0808372515918891 154.629642643066 0.0808372515918892 154.629642643065 0.834784569686641 130.253006944152 
16.75                          0.80811177322867 123.319722557014 0.0912715903957757 151.427707030213 0.0912715903957759 151.427707030213 0.820713080592832 127.905695183071 
16.8                           0.790349798043119 120.742215148325 0.103353128644864 147.870476697632 0.103353128644864 147.870476697632 0.804559546596741 125.46802792894  
16.85                          0.769855243013706 118.067671897291 0.117342310672194 143.915438179812 0.117342310672194 143.915438179812 0.785964390557797 122.94577744059  
16.9                           0.746177816027182 115.31142865511  0.133517618171214 139.515867115839 0.133517618171214 139.515867115839 0.764534552008679 120.353329777701 
16.95                          0.718856840725702 112.504631455524 0.15215734871726 134.622163349266 0.15215734871726 134.622163349266 0.739872674183981 117.718697079484 
17                             0.687487151513118 109.703203247507 0.173506807305637 129.18463079963  0.173506807305637 129.18463079963  0.711637275470258 115.090596030057 
17.05                          0.651839729711172 107.000235148761 0.197726347543275 123.158345379281 0.197726347543276 123.158345379281 0.6796502740786  112.547572780984 
17.1                           0.612057108648034 104.541052845115 0.224819276029768 116.510645888246 0.224819276029768 116.510645888246 0.6440661605395  110.207740985374 
17.15                          0.568927536897055 102.536464609625 0.254548246934979 109.23119578402  0.25454824693498 109.23119578402  0.605598951546673 108.234383174071 
17.2                           0.524191031612374 101.261238891249 0.286365403343947 101.343230192616 0.286365403343948 101.343230192616 0.56575391200084 106.826689028974 
17.25                          0.480727312844636 101.010909149757 0.319399107949076 92.9126243089497 0.319399107949076 92.9126243089495 0.526924970160175 106.17825870911  
17.3                           0.442340496891497 101.981760096266 0.352541322355669 84.0498137724478 0.352541322355669 84.0498137724478 0.492136318362816 106.389418940791 
17.35                          0.412831296970912 104.078634423429 0.384644705040963 74.9002943455482 0.384644705040963 74.9002943455482 0.464260000899124 107.354197727014 
17.4                           0.394441923897751 106.784617885607 0.414772646177198 65.6236975257822 0.414772646177198 65.6236975257823 0.444888754276567 108.708002027811 
17.45                          0.386600936540244 109.307225999652 0.442396624409143 56.3674982832416 0.442396624409143 56.3674982832417 0.433534455164893 109.930958333123 
17.5                           0.386121119609407 110.964686047247 0.46745531916184 47.2447081607341 0.46745531916184 47.2447081607342 0.427802902832377 110.56534604487  
17.55                          0.388711680676403 111.454611005701 0.490268880509913 38.3225342548529 0.490268880509914 38.3225342548531 0.424402208845842 110.373357754715 
17.6                           0.390493086779182 110.823599960336 0.511372056068894 29.6230711103626 0.511372056068896 29.6230711103628 0.420205534182814 109.342021270908 
17.65                          0.388691208257872 109.299032585165 0.531343485023325 21.132288735715  0.531343485023327 21.1322887357152 0.412826226567562 107.599394795305 
17.7                           0.381649458530092 107.159236927601 0.550677737419341 12.8122983086163 0.550677737419343 12.8122983086165 0.400716958119284 105.334928391492 
17.75                          0.368583894935132 104.682167523251 0.569710091809642 4.61322036688397 0.569710091809644 4.61322036688406 0.383042725229086 102.760761605626 
17.8                           0.349351422863823 102.148286950119 0.588584028587629 -3.51704073149822 0.588584028587631 -3.51704073149819 0.35952874428732 100.110951952166 
17.85                          0.324328889234664 99.8740772340888 0.607248130185571 -11.6254181998059 0.607248130185573 -11.6254181998058 0.330377781904846 97.6694171609151 
17.9                           0.294422300690495 98.2680737605049 0.625473912069104 -19.7484202237838 0.625473912069105 -19.7484202237838 0.296289937723157 95.8264503465365 
17.95                          0.261214184198038 97.9105942372375 0.642891680122087 -27.9086801773885 0.642891680122088 -27.9086801773886 0.258609758046778 95.1763853307159 
18                             0.227275914945496 99.6442065113374 0.659043951408208 -36.1132252411025 0.659043951408208 -36.1132252411025 0.219664308175631 96.6737988724014 
18.05                          0.196647780565249 104.55906546812  0.673454133155264 -44.3535558649404 0.673454133155263 -44.3535558649404 0.183418000690465 101.791064253346 
18.1                           0.175121204578827 113.43606697517  0.685702985073911 -52.6076339593814 0.68570298507391 -52.6076339593813 0.156352365567194 112.144744756938 
18.15                          0.168789591840894 125.176661544352 0.695499755992189 -60.8436510221998 0.695499755992188 -60.8436510221997 0.146669337178245 127.131762496117 
18.2                           0.179769174281914 136.210859004513 0.702732619006885 -69.0250672066412 0.702732619006883 -69.025067206641 0.158144863531306 141.615290336835 
18.25                          0.204111620577995 143.574754026295 0.70748674308106 -77.1160644971925 0.707486743081058 -77.1160644971923 0.185552366341776 150.991074961005 
18.3                           0.235564385852321 146.95002108781  0.71002727457662 -85.0864379857668 0.71002727457662 -85.0864379857666 0.220687425297871 155.196768115443 
18.35                          0.269119630334204 147.311812350004 0.710754563114997 -92.9151404771478 0.710754563114997 -92.9151404771477 0.257696464977285 155.885823440748 
18.4                           0.301602149234653 145.65198017056  0.710145413647992 -100.592110667422 0.710145413647991 -100.592110667422 0.293249208825031 154.419000476027 
18.45                          0.331167024143671 142.666672825445 0.70869472905574 -108.118464081543 0.70869472905574 -108.118464081543 0.325557129682728 151.641175183418 
18.5                           0.356809222944587 138.79717422811  0.706867784100226 -115.505440214844 0.706867784100226 -115.505440214844 0.353708977021171 148.049676844664 
18.55                          0.378044098464944 134.314010092511 0.705067545172707 -122.772613807538 0.705067545172706 -122.772613807538 0.377306910054821 143.937455873693 
18.6                           0.394710357636156 129.379251763082 0.7036165741183  -129.945828168928 0.703616574118299 -129.945828168928 0.39626219327157 139.478259510098 
18.65                          0.406848125290862 124.085926549313 0.70275030894786 -137.055174505965 0.702750308947858 -137.055174505965 0.410674325853409 134.774626562882 
18.7                           0.414624631352403 118.482112074458 0.702617768371236 -144.133196432467 0.702617768371233 -144.133196432467 0.420758436999317 129.885210156138 
18.75                          0.418292077511646 112.585644289307 0.703286249163967 -151.213385501801 0.703286249163964 -151.213385501801 0.426803574923625 124.840656771215 
18.8                           0.41816828808754 106.393121929878 0.704747632257582 -158.328964753616 0.704747632257579 -158.328964753617 0.429151949775802 119.652883010269 
18.85                          0.414633860881289 99.8854070978514 0.706924982416992 -165.511928363302 0.706924982416989 -165.511928363302 0.42819251611639 114.320271869975 
18.9                           0.408141216457578 93.0309955340106 0.709678960479142 -172.792305075016 0.709678960479139 -172.792305075016 0.42436392175175 108.830097062585 
18.95                          0.399231790226182 85.7882528476181 0.712814067170242 179.802371344437 0.71281406717024 179.802371344437 0.418162716185871 103.158851606402 
19                             0.388557820973053 78.1074681701194 0.716084880974132 172.247381728298 0.716084880974131 172.247381728298 0.410153235642805 97.270873904655  
19.05                          0.376904786966567 69.9339105306499 0.71920225778223 164.52091597775  0.71920225778223 164.52091597775  0.400976109405565 91.115666049526  
19.1                           0.365209426895628 61.213495061756  0.72183899715165 156.603933512811 0.721838997151652 156.603933512811 0.391353213719816 84.6246114813334 
19.15                          0.354566294547365 51.9029612873596 0.723633910161381 148.479816248944 0.723633910161384 148.479816248944 0.382088359877596 77.7084685053947 
19.2                           0.34621305408623 41.9858384571788 0.72419283869996 140.133911627145 0.724192838699964 140.133911627145 0.374064791620361 70.2579900962155 
19.25                          0.341482568963259 31.4926479202999 0.723085401405856 131.55316815408  0.72308540140586 131.553168154079 0.368241455032513 62.1509522841851 
19.3                           0.341711925776539 20.5181767205573 0.719837573448027 122.726189585128 0.71983757344803 122.726189585127 0.365647574765563 53.2689006106713 
19.35                          0.34810952378288 9.22318787551904 0.713923050260926 113.644141498904 0.713923050260927 113.644141498904 0.367366867311623 43.5246732146568 
19.4                           0.361600170207436 -2.18968086695756 0.704760705029345 104.302974489347 0.704760705029345 104.302974489347 0.374489922868057 32.8961461294614 
19.45                          0.382681557033024 -13.5209088684689 0.691730404558991 94.7072901965983 0.691730404558988 94.7072901965975 0.388005590236946 21.4540081104309 
19.5                           0.411319150938677 -24.6173280106831 0.674222419007441 84.8757617360322 0.674222419007437 84.8757617360316 0.408616608579246 9.36761563004317 
19.55                          0.446888803520823 -35.3900359478744 0.65173203366424 74.8472667711762 0.651732033664236 74.8472667711758 0.436509465953649 -3.11935476080749 
19.6                           0.488173704232128 -45.8020437688793 0.623995679645308 64.6859232885765 0.623995679645305 64.6859232885764 0.471161877582014 -15.7340759601454 
19.65                          0.533438795632968 -55.8400051749431 0.591137825159474 54.4825014421688 0.591137825159475 54.4825014421689 0.511289158892568 -28.2187243388558 
19.7                           0.580609873210599 -65.4889209926526 0.553771109944213 44.3499699937501 0.553771109944218 44.3499699937504 0.554987846331105 -40.3570952823655 
19.75                          0.627549053862099 -74.7206878420083 0.512989306651823 34.4127203075874 0.512989306651833 34.4127203075877 0.600050799696399 -51.9827742608888 
19.8                           0.672360141533936 -83.4967066706378 0.470229887824746 24.7917537318427 0.470229887824758 24.7917537318428 0.644350417539631 -62.9774371616195 
19.85                          0.713626734941023 -91.7781800301957 0.427044813921385 15.5901716394776 0.427044813921398 15.5901716394773 0.686160444713501 -73.2665376840165 
19.9                           0.750513898095048 -99.5367100503789 0.384861696036499 6.8831746954198  0.384861696036513 6.88317469541909 0.724326826047872 -82.814507392022 
19.95                          0.782729623442178 -106.760581528347 0.34481197451237 -1.28542864902943 0.344811974512384 -1.28542864903065 0.758274744935421 -91.6188953042591 
20                             0.81039611817395 -113.455772970555 0.307659071672505 -8.90088353897094 0.307659071672518 -8.90088353897273 0.787901714662663 -99.7031286461203 
20.05                          0.833894868880818 -119.643153577853 0.273813625408236 -15.9716025787214 0.273813625408246 -15.9716025787235 0.813426209726355 -107.108630294274 
20.1                           0.853731462678348 -125.353988118553 0.243400004456162 -22.5221624516189 0.243400004456169 -22.5221624516215 0.835245251447504 -113.887443818736 
20.15                          0.870439428247953 -130.625406540991 0.216339093321948 -28.5868755996112 0.216339093321953 -28.586875599614 0.853826622807079 -120.096216537201 
20.2                           0.884522808120861 -135.496711971395 0.192424604289949 -34.204729017306 0.192424604289953 -34.2047290173089 0.869639580612267 -125.791849326893 
20.25                          0.896428319548637 -140.006774711127 0.171382949366356 -39.4158236196887 0.171382949366357 -39.4158236196915 0.883116950986703 -131.028698271149 
20.3                           0.906536620445766 -144.192411626267 0.15291524251415 -44.2591055749581 0.152915242514151 -44.2591055749608 0.894638716895168 -135.857007191022 
20.35                          0.915164248028182 -148.087520949208 0.136724117189031 -48.7710713713819 0.136724117189031 -48.7710713713844 0.904528507700374 -140.32221252535 
20.4                           0.922570562484158 -151.722735909051 0.122529226107817 -52.9851432150857 0.122529226107817 -52.985143215088 0.913056882817713 -144.464811823737 
20.45                          0.928966340639147 -155.125404199573 0.110075014889006 -56.9314734106175 0.110075014889005 -56.9314734106194 0.920447581217868 -148.320564232955 
20.5                           0.934522255337661 -158.319753902373 0.0991335792234135 -60.637004338474 0.0991335792234127 -60.6370043384756 0.926884570175099 -151.920864353404 
20.55                          0.9393764460054  -161.327153027265 0.0895046005156187 -64.1256677371912 0.089504600515618 -64.1256677371924 0.932518792987225 -155.293188287985 
20.6                           0.943640922816858 -164.166404716598 0.0810136863949076 -67.4186493774001 0.081013686394907 -67.418649377401 0.937474140658533 -158.461551504722 
20.65                          0.947406815811541 -166.854044176162 0.073509953242062 -70.5346744437801 0.0735099532420615 -70.5346744437807 0.941852510908678 -161.446945189995 
20.7                           0.950748596668874 -169.40461898835 0.0668633537082444 -73.490288108299 0.0668633537082439 -73.4902881082993 0.945737984691319 -164.26773477899 
20.75                          0.953727436792455 -171.830944118854 0.0609620346746296 -76.3001178613353 0.0609620346746295 -76.3001178613352 0.949200221257179 -166.940014531698 
20.8                           0.956393862561305 -174.144328638453 0.055709874851225 -78.977111514762 0.0557098748512252 -78.9771115147617 0.95229719338192 -169.477917790413 
20.85                          0.958789849702391 -176.354774378593 0.0510242689036964 -81.5327490862704 0.0510242689036968 -81.5327490862698 0.955077380761871 -171.893885579874 
20.9                           0.960950475224921 -178.471148390803 0.0468341772536307 -83.9772291581699 0.0468341772536313 -83.9772291581693 0.95758152587062 -174.198897593921 
20.95                          0.962905222591776 179.498668187797 0.0430784344816983 -86.3196315223252 0.0430784344816991 -86.3196315223244 0.959844039981898 -176.402670050759 
21                             0.964679015924799 177.547652053717 0.0397042960978038 -88.568058450334 0.0397042960978046 -88.5680584503333 0.961894131006614 -178.513824822393 
21.05                          0.966293042594595 175.669527709125 0.0366661979553272 -90.7297570603008 0.0366661979553283 -90.7297570603   0.963756710657146 179.459966089735 
21.1                           0.967765410358451 173.858672972293 0.0339247014450077 -92.811225169321 0.0339247014450087 -92.8112251693201 0.965453126621285 177.511857102002 
21.15                          0.969111674834519 172.110037786519 0.0314455987816063 -94.8183028322419 0.0314455987816075 -94.818302832241 0.967001755813054 175.63572345282  
21.2                           0.970345265030399 170.419074372498 0.0291991549887013 -96.7562515354834 0.0291991549887023 -96.7562515354827 0.968418487091682 173.826070742947 
21.25                          0.971477828409304 168.781677040175 0.0271594658979916 -98.6298227751818 0.0271594658979927 -98.6298227751813 0.9697171157787  172.077957295345 
21.3                           0.972519512176533 167.194130221937 0.0253039142236429 -100.443317520488 0.0253039142236439 -100.443317520488 0.970909667547399 170.386927374113 
21.35                          0.973479193777366 165.653063505665 0.0236127083495342 -102.200637854551 0.0236127083495351 -102.20063785455 0.972006665540081 168.748953609503 
21.4                           0.974364670757488 164.155412633475 0.0220684907868598 -103.905331900834 0.0220684907868608 -103.905331900834 0.973017351664159 167.16038723805  
21.45                          0.975182817948692 162.698385592177 0.0206560052924077 -105.560632981221 0.0206560052924086 -105.560632981221 0.973949870749286 165.617914988368 
21.5                           0.975939718252305 161.279433057203 0.0193618133886946 -107.169493813324 0.0193618133886953 -107.169493813324 0.974811424472798 164.118521629279 
21.55                          0.97664077198316 159.896222566352 0.0181740525175517 -108.734616435491 0.0181740525175524 -108.734616435491 0.975608400569397 162.659457352934 
21.6                           0.977290788718695 158.546615895994 0.0170822293173944 -110.258478446653 0.0170822293173949 -110.258478446654 0.976346481747225 161.238209295912 
21.65                          0.977894064802963 157.228649193292 0.0160770425716142 -111.743356062123 0.0160770425716147 -111.743356062124 0.977030737869995 159.852476610247 
21.7                           0.978454449032515 155.940515485823 0.0151502312603993 -113.19134441345 0.0151502312603997 -113.19134441345 0.977665704282338 158.500148587312 
21.75                          0.978975398560846 154.680549246984 0.014294443887251 -114.604375458602 0.0142944438872512 -114.604375458603 0.97825544861353 157.179285413554 
21.8                           0.979460026670617 153.447212743347 0.0135031258678499 -115.984233816265 0.0135031258678501 -115.984233816265 0.97880362796264 155.888101200739 
21.85                          0.979911143755161 152.239083930367 0.012770422282795 -117.332570793552 0.012770422282795 -117.332570793553 0.979313538022315 154.624948986737 
21.9                           0.980331292605442 151.054845696698 0.0120910937241991 -118.650916838616 0.0120910937241991 -118.650916838616 0.979788155420584 153.388307447625 
21.95                          0.980722778902076 149.893276285928 0.0114604433235448 -119.940692617458 0.0114604433235448 -119.940692617458 0.980230174335912 152.176769099588 
22                             0.98108769765391 148.753240748687 0.0108742533466294 -121.203218886858 0.0108742533466293 -121.203218886858 0.98064203825927 150.989029800837 
22.05                          0.981427956196905 147.633683298495 0.0103287299908632 -122.439725311938 0.010328729990863 -122.439725311937 0.981025967629411 149.823879390565 
22.1                           0.981745294263359 146.533620462095 0.00982045522896165 -123.651358356861 0.00982045522896143 -123.651358356861 0.981383983947146 148.680193324666 
22.15                          0.982041301547062 145.452134929727 0.00934634471805854 -124.839188360086 0.00934634471805829 -124.839188360085 0.981717930875785 147.556925187194 
22.2                           0.982317433120834 144.388370023404 0.00890361094017904 -126.004215890852 0.00890361094017879 -126.004215890852 0.982029492753795 146.453099972895 
22.25                          0.982575023006099 143.341524711948 0.00848973086355433 -127.147377470998 0.00848973086355402 -127.147377470997 0.982320210878821 145.367808050109 
22.3                           0.982815296147361 142.310849110795 0.00810241751833162 -128.269550735318 0.00810241751833132 -128.269550735318 0.982591497866783 144.300199725252 
22.35                          0.983039379005618 141.295640412403 0.007739594968063 -129.371559094327 0.00773959496806269 -129.371559094326 0.982844650343727 143.249480340261 
22.4                           0.9832483089526  140.295239199935 0.00739937623261226 -130.454175955206 0.00739937623261198 -130.454175955205 0.98308086018971 142.214905843178 
22.45                          0.983443042620796 139.30902610271  0.00708004378101615 -131.518128549735 0.00708004378101582 -131.518128549734 0.983301224521861 141.195778779537 
22.5                           0.983624463341797 138.336418756968 0.00678003226621061 -132.564101411962 0.00678003226621029 -132.56410141196 0.983506754576831 140.191444658714 
22.55                          0.983793387786579 137.376869039881 0.00649791321891053 -133.592739543135 0.00649791321891024 -133.592739543134 0.983698383630145 139.201288655006 
22.6                           0.983950571905458 136.429860548513 0.00623238145658236 -134.604651296866 0.00623238145658213 -134.604651296865 0.983876974070806 138.224732608038 
22.65                          0.984096716252003 135.494906298763 0.00598224299643299 -135.60041101357 0.00598224299643278 -135.600411013567 0.984043323733289 137.261232291311 
22.7                           0.984232470763806 134.571546622152 0.00574640428953387 -136.58056142976 0.00574640428953366 -136.580561429759 0.984198171575286 136.310274921347 
22.75                          0.984358439063311 133.659347240864 0.00552386261735264 -137.545615884842 0.00552386261735246 -137.545615884841 0.984342202777817 135.371376883074 
22.8                           0.984475182333639 132.757897503617 0.00531369751268417 -138.496060345362 0.00531369751268402 -138.49606034536 0.98447605333433 134.444081649858 
22.85                          0.984583222817313 131.866808766868 0.00511506308478535 -139.432355264489 0.00511506308478523 -139.432355264488 0.984600314186823 133.527957879029 
22.9                           0.984683046979657 130.985712907538 0.00492718114385584 -140.354937292436 0.00492718114385577 -140.354937292435 0.984715534959658 132.622597665859 
22.95                          0.984775108373534 130.114260954942 0.00474933503323548 -141.264220851838 0.00474933503323548 -141.264220851837 0.984822227335433 131.727614940811 
23                             0.984859830237495 129.252121830871 0.00458086408912109 -142.16059959055 0.00458086408912108 -142.16059959055 0.98492086811178 130.842643996539 
