! Touchstone file exported from HFSS 3D Layout Design 2026.1.0
!        File:           D:/Work/ADS/HFSS_VERDICT/hfss_sma_connector_cpw.aedt
!        Generated:      02:35:33 PM Aug  6, 2026
!        Design:         SINGLE_END_SMA_CPW_30MM
!        Project:        hfss_sma_connector_cpw
!
! Variables:
!        $sma_Base_D = 6.25mm
!        $sma_Base_L = 8mm
!        $sma_Feet_L = 4mm
!        $sma_Feet_W = 1mm
!        $sma_Front_L = 1.5mm
!        $sma_Front_W = 6.5mm
!        $sma_Hole_D = 1.25mm
!        $sma_PTFE_D = 4.2mm
!        $sma_Pin_D = 0.95mm
!        $sma_Pin_P = 1.7mm
!
# GHz S MA R 50.000000
! Terminal data exported
! Port[1] = Port1
! Port[2] = S1_1_Pin_T1
0.5                            0.0659572543301924 -132.054510489635 0.987856181458052 -41.8097018865521 0.987856181458054 -41.8097018865521 0.0662599805736994 -133.670197108171 
0.6                            0.0768169528245048 -140.510513365741 0.985523982728278 -50.0746656599065 0.985523982728284 -50.0746656599066 0.0770893509911042 -142.228686843448 
0.7                            0.0866099225437926 -148.945408810362 0.983219948054642 -58.3210596854292 0.983219948054646 -58.3210596854295 0.08680733467564 -150.627222362518 
0.8                            0.0952433462516406 -157.394886085445 0.980971159410222 -66.5504908839599 0.980971159410224 -66.5504908839601 0.0953283208721996 -158.871160655319 
0.9                            0.102639327001589 -165.889123279979 0.978809220596309 -74.7647339634517 0.97880922059631 -74.7647339634518 0.102583192820256 -166.957106843107 
1                              0.108737084733491 -174.45697974233 0.976763715345569 -82.9658897922458 0.976763715345569 -82.9658897922459 0.108520525904233 -174.874318476128 
1.1                            0.113494599874427 176.871245235644 0.974858533683005 -91.1563527813745 0.974858533683005 -91.1563527813744 0.113108386994085 177.394827200841 
1.2                            0.116889971931776 168.061711527992 0.973109986827068 -99.3387234684383 0.973109986827068 -99.3387234684382 0.11633627107571 169.875072054662 
1.3                            0.118922894104237 159.075122253735 0.971525912500973 -107.515708461577 0.971525912500974 -107.515708461577 0.118217208790346 162.599162399174 
1.4                            0.119616619189372 149.86467173053  0.970105355446649 -115.690018327792 0.97010535544665 -115.690018327791 0.118790317465284 155.609347880859 
1.5                            0.119020766018185 140.373628254323 0.968838647464946 -123.864265698732 0.968838647464947 -123.864265698732 0.118124170982056 148.959444125803 
1.6                            0.117215334044272 130.532407130133 0.96770782855136 -132.040865135077 0.967707828551361 -132.040865135077 0.116321409042617 142.717324445333 
1.7                            0.114316355378796 120.255138182206 0.966687395463202 -140.221937394   0.966687395463202 -140.221937394   0.113525011100483 136.967469780646 
1.8                            0.110483680059032 109.436078054274 0.965745371626169 -148.409221816348 0.96574537162617 -148.409221816348 0.109926562117123 131.812664222332 
1.9                            0.105931343948396 97.9470152345442 0.964844682360609 -156.604001126348 0.964844682360609 -156.604001126348 0.105776439555544 127.372832856009 
2                              0.100940501183939 85.6384961502174 0.963944801782519 -164.807042991771 0.963944801782518 -164.807042991771 0.101394722885143 123.777138710297 
2.1                            0.0958733201815136 72.3507445760269 0.96300361718564 -173.018562296899 0.963003617185639 -173.018562296899 0.0971790501901003 121.143048997176 
2.2                            0.0911823346339865 57.9441544068892 0.961979436010174 178.761792699055 0.961979436010173 178.761792699055 0.0936010241112616 119.535340153821 
2.3                            0.0874025488937393 42.3600390098646 0.960833041970847 170.534928255897 0.960833041970847 170.534928255897 0.0911774617997895 118.905018694195 
2.4                            0.0851060584127004 25.7081590937679 0.959529692981722 162.302266419635 0.959529692981722 162.302266419635 0.0904035835851976 119.030128773618 
2.5                            0.0848042098120304 8.33712706713268 0.958040946649451 154.065680557751 0.958040946649451 154.065680557751 0.09165350581926 119.508267843536 
2.6                            0.0868179156657596 -9.19427426104475 0.956346201407043 145.827407706906 0.956346201407043 145.827407706906 0.0950874101530976 119.841753643856 
2.7                            0.0911856610724204 -26.2791329273675 0.954433854001162 137.589941857054 0.954433854001164 137.589941857054 0.100619688172754 119.583977939327 
2.8                            0.0976732060168417 -42.4597829472225 0.952301996816254 129.355913645118 0.952301996816256 129.355913645118 0.107965946159782 118.452562580576 
2.9                            0.105871310236679 -57.5211778584628 0.949958609609932 121.127962899559 0.949958609609935 121.127962899559 0.116732460470876 116.350145136179 
3                              0.115310023939311 -71.4559251700453 0.947421236385994 112.908610950243 0.947421236385998 112.908610950243 0.126498276864059 113.315751917517 
3.1                            0.125537076679559 -84.3761017019624 0.944716175134757 104.700139541258 0.944716175134761 104.700139541258 0.136866198388675 109.46035270304  
3.2                            0.136153434570767 -96.4380198791425 0.941877241617989 96.5044825740536 0.941877241617994 96.5044825740536 0.147485077284785 104.918491346201 
3.3                            0.146821364045314 -107.798934924643 0.938944194475461 88.3231358497328 0.938944194475467 88.3231358497328 0.158054802698614 99.8213889125654 
3.4                            0.157260228221296 -118.598691885951 0.935960925172874 80.1570886105846 0.935960925172877 80.1570886105846 0.16832349632576 94.2855271784337 
3.5                            0.167238749546901 -128.955149020546 0.932973521832816 72.006779167822  0.93297352183282 72.006779167822  0.178082276115407 88.4098045746354 
3.6                            0.176567441151786 -138.965662477133 0.930028311567853 63.8720754095587 0.930028311567856 63.8720754095586 0.187159954684292 82.276618341347  
3.7                            0.185092337611701 -148.710584934333 0.92716997365205 55.7522796487232 0.927169973652053 55.7522796487232 0.19541847911776 75.954367088096  
3.8                            0.192690130039611 -158.256992216087 0.924439798579255 47.6461561896646 0.924439798579258 47.6461561896645 0.202749259874352 69.5002061438525 
3.9                            0.199264506495385 -167.661985703188 0.921874148798458 39.5519792090636 0.92187414879846 39.5519792090635 0.209070318805046 62.9625893904999 
4                              0.204743471584132 -176.975417849228 0.919503158392796 31.4675980581765 0.919503158392797 31.4675980581765 0.214324150240884 56.3834588789834 
4.1                            0.209077473708535 173.757919361578 0.917349693203995 23.390516858309  0.917349693203995 23.390516858309  0.218476212488232 49.8000792704892 
4.2                            0.212238231219097 164.496546074433 0.915428581079839 15.3179852145009 0.915428581079838 15.3179852145009 0.22151399902311 43.2465587026887 
4.3                            0.214218196957569 155.200887590627 0.91374611437642 7.24709693852889 0.913746114376419 7.24709693852896 0.223446660427575 36.7551008934474 
4.4                            0.215030630278214 145.832129290785 0.912299823184517 -0.825106220841214 0.912299823184515 -0.825106220841117 0.224305153553375 30.3570177199859 
4.5                            0.21471025754806 136.351281791986 0.911078517014662 -8.90152875444483 0.911078517014661 -8.90152875444471 0.22414288116838 24.0835061143925 
4.6                            0.213314497005837 126.718438533858 0.9100625935422  -16.9849163609849 0.910062593542198 -16.9849163609848 0.223036750859881 17.9661605109957 
4.7                            0.210925199463726 116.892250358182 0.909224613973731 -25.0777546372745 0.909224613973729 -25.0777546372745 0.221088521751173 12.0371525584486 
4.8                            0.207650805879558 106.829697448793 0.908530144139727 -33.182174531508 0.908530144139727 -33.1821745315078 0.218426214946631 6.32896435653986 
4.9                            0.203628733489127 96.4863134497726 0.907938857211457 -41.2998677424169 0.907938857211456 -41.2998677424168 0.215205231123784 0.87351532005875 
5                              0.19902765444534 85.8171111365056 0.907405887010483 -49.4320153641298 0.907405887010485 -49.4320153641296 0.21160864291661 -4.29950960853438 
5.1                            0.194049101243729 74.7785627103428 0.906883409797596 -57.5792330971866 0.906883409797597 -57.5792330971866 0.207845921858454 -9.16531138175432 
5.2                            0.188927506032166 63.3320612794675 0.906322417480384 -65.7415361925141 0.906322417480385 -65.741536192514 0.204149163980048 -13.7076849519731 
5.3                            0.18392737929512 51.4492437141089 0.905674627476137 -73.918326895305 0.905674627476138 -73.918326895305 0.200765795637419 -17.9236052064076 
5.4                            0.179335976816811 39.1192368954741 0.904894455954704 -82.1084064582298 0.904894455954706 -82.1084064582298 0.19794694085876 -21.8280714618302 
5.5                            0.175449778400635 26.3571293348468 0.903940964493841 -90.3100127821426 0.903940964493842 -90.3100127821427 0.195931311446398 -25.4580350129575 
5.6                            0.172553866058869 13.211750038009  0.90277967828897 -98.5208834485589 0.902779678288973 -98.5208834485589 0.194925733441366 -28.87381083505  
5.7                            0.170895257022179 -0.230414170852941 0.901384169804669 -106.738342415382 0.901384169804671 -106.738342415382 0.195085020864369 -32.1564879402324 
5.8                            0.170654245021466 -13.8485835856186 0.899737307235257 -114.959407087795 0.899737307235261 -114.959407087795 0.196495177555142 -35.4008129706267 
5.9                            0.171920526564837 -27.4999164463199 0.897832083170487 -123.180911015331 0.89783208317049 -123.180911015331 0.199163968747033 -38.7046468578991 
6                              0.174681236780469 -41.0384304891176 0.895671964612815 -131.399636277825 0.895671964612816 -131.399636277825 0.20302130617064 -42.1575754075817 
6.1                            0.178824792181314 -54.3349362516844 0.893270738465739 -139.612448859794 0.893270738465742 -139.612448859794 0.207929168769821 -45.8316486867228 
6.2                            0.184158987297005 -67.2917344298108 0.89065186297917 -147.816430077252 0.890651862979171 -147.816430077252 0.213698244868741 -49.776258879001 
6.3                            0.190437332198153 -79.8486674376312 0.887847370907839 -156.008997445356 0.887847370907841 -156.008997445356 0.220107285245459 -54.0174944687947 
6.4                            0.197386472304288 -91.9811019984056 0.884896399997684 -164.188009215152 0.884896399997685 -164.188009215152 0.226921532655002 -58.5609125828137 
6.5                            0.204729420252493 -103.692953440853 0.881843447520019 -172.351848050589 0.881843447520021 -172.351848050589 0.233907923089022 -63.3961027149685 
6.6                            0.212202311083283 -115.008159775646 0.878736456111992 179.500519195363 0.878736456111995 179.500519195363 0.240846205923847 -68.5015927929283 
6.7                            0.21956477682677 -125.962935523715 0.875624838069558 171.36950708938  0.87562483806956 171.36950708938  0.247536180232112 -73.8491749231819 
6.8                            0.226605248647899 -136.599831169427 0.872557535945875 163.254902630513 0.872557535945875 163.254902630513 0.25380177538139 -79.407252559351 
6.9                            0.233142766583086 -146.96371050702 0.869581201398022 155.155880440367 0.869581201398021 155.155880440367 0.259492838626621 -85.1431710352218 
7                              0.239026661645778 -157.099319686541 0.866738554762416 147.071039953267 0.866738554762416 147.071039953267 0.264485409369647 -91.0246768772239 
7.1                            0.244135115612329 -167.050009097261 0.864066967809526 138.99846179722  0.864066967809525 138.99846179722  0.268681096646994 -97.0207098207088 
7.2                            0.248373272102232 -176.857215475697 0.861597293992674 130.935780222095 0.861597293992675 130.935780222095 0.272006010105522 -103.101722591076 
7.3                            0.251671322637901 173.439592343322 0.859352955942016 122.880268339321 0.859352955942015 122.88026833932  0.274409556385755 -109.239688268655 
7.4                            0.253982820977876 163.802707659017 0.857349289785602 114.828933013856 0.857349289785603 114.828933013856 0.275863307986325 -115.407916296897 
7.5                            0.255283368049862 154.195852177749 0.855593140139781 106.778616415896 0.855593140139781 106.778616415896 0.276360074667608 -121.580766132231 
7.6                            0.255569737410491 144.583798297521 0.854082697701824 98.726101425311  0.854082697701826 98.726101425311  0.275913249241763 -127.73332538586 
7.7                            0.254859460925961 134.932003264461 0.85280757225344 90.6682182302762 0.852807572253439 90.6682182302761 0.274556451200425 -133.841107092085 
7.8                            0.253190854477072 125.206298704386 0.851749096232675 82.6019495373615 0.851749096232675 82.6019495373614 0.272343445227911 -139.879817294285 
7.9                            0.250623425279689 115.372679200701 0.850880856442989 74.5245318012281 0.85088085644299 74.5245318012281 0.269348260848869 -145.825247895617 
8                              0.247238558872502 105.397244223833 0.850169452573966 66.4335497994049 0.850169452573967 66.4335497994049 0.265665379514683 -151.653358645595 
8.1                            0.243140328559599 95.2463672712314 0.849575479824319 58.3270217550293 0.849575479824321 58.3270217550292 0.261409783850909 -157.340623117403 
8.2                            0.238456197042246 84.887192161283  0.84905472818066 50.2034721005817 0.849054728180662 50.2034721005816 0.256716581752219 -162.864721335168 
8.3                            0.233337284481171 74.2885835491721 0.848559582416041 42.0619889445639 0.848559582416043 42.0619889445639 0.251739832916953 -168.205657725439 
8.4                            0.227957759504413 63.4226749984859 0.848040594827802 33.9022634219493 0.848040594827802 33.9022634219494 0.246650134578251 -173.347354568726 
8.5                            0.222512781929738 52.2671412711404 0.84744818802242 25.7246084435951 0.847448188022421 25.7246084435951 0.241630497874228 -178.279702543012 
8.6                            0.217214323861121 40.8082380315221 0.846734429267974 17.5299549568005 0.846734429267973 17.5299549568008 0.236870113149385 176.999071450795 
8.7                            0.212284191128324 29.0444630182463 0.845854803259124 9.31982470466105 0.845854803259121 9.31982470466135 0.232555816472201 172.480030822425 
8.8                            0.207943770181933 16.9903783404053 0.844769899100316 1.09627959984516 0.844769899100313 1.09627959984567 0.228861470907156 168.141649299191 
8.9                            0.204400555397835 4.67973982846883 0.843446922374941 -7.138150863917  0.843446922374937 -7.13815086391642 0.225936047830215 163.949047824317 
9                              0.201832410013559 -7.83323397901704 0.841860946253707 -15.3805613686258 0.841860946253703 -15.3805613686254 0.223891816440654 159.854924809126 
9.1                            0.200371618451835 -20.4755907291051 0.83999582761515 -23.6277776170563 0.839995827615148 -23.6277776170557 0.22279449314897 155.80245841384  
9.2                            0.200091661418941 -33.1609107068539 0.837844734673137 -31.8764731425267 0.837844734673137 -31.8764731425263 0.222657201311111 151.729942771038 
9.3                            0.200999712888648 -45.7975424365199 0.835410259773913 -40.1232903005107 0.835410259773916 -40.1232903005109 0.223439503312326 147.576367643449 
9.4                            0.203036788749189 -58.2980913577753 0.83270412177968 -48.3649594837218 0.832704121779688 -48.3649594837224 0.225051714164058 143.28682433676  
9.5                            0.206085549769582 -70.5879125099337 0.829746493036746 -56.5984109492682 0.829746493036757 -56.5984109492696 0.227363566432701 138.816693210716 
9.6                            0.209983813596335 -82.6107788952804 0.826565012542373 -64.8208744853832 0.826565012542388 -64.8208744853852 0.230215505110128 134.133998556485 
9.7                            0.214540719859974 -94.3310026256352 0.823193566426937 -73.0299633819037 0.823193566426952 -73.0299633819064 0.233430692477295 129.219880158228 
9.8                            0.21955253889116 -105.732432780486 0.819670927266185 -81.2237406623336 0.819670927266201 -81.2237406623365 0.236826146186457 124.067578311204 
9.9                            0.224816006642823 -116.815427245674 0.81603934444064 -89.4007671231215 0.816039344440651 -89.4007671231238 0.240222063315246 118.680530117252 
10                             0.23013821812266 -127.592987584997 0.81234316950809 -97.5601322484574 0.812343169508091 -97.5601322484574 0.243449017323146 113.070146468873 
