! Touchstone file exported from HFSS 3D Layout Design 2026.1.0
!        File:           D:/Work/ADS/HFSS_VERDICT/hfss_sma_connector_cpw.aedt
!        Generated:      01:09:16 PM Aug  6, 2026
!        Design:         SINGLE_END_SMA_CPW_30MM
!        Project:        hfss_sma_connector_cpw
!
! Variables:
!        $sma_Base_D = 6.25mm
!        $sma_Base_L = 8mm
!        $sma_Feet_L = 4mm
!        $sma_Feet_W = 1mm
!        $sma_Front_L = 1.5mm
!        $sma_Front_W = 6.5mm
!        $sma_Hole_D = 1.25mm
!        $sma_PTFE_D = 4.2mm
!        $sma_Pin_D = 0.95mm
!        $sma_Pin_P = 1.7mm
!
# GHz S MA R 50.000000
! Terminal data exported
! Port[1] = Port1
! Port[2] = S1_1_Pin_T1
0.5                            0.0830920208654513 -133.537780259216 0.986338520323424 -41.9847046050281 0.986338520323423 -41.9847046050281 0.0835518689757199 -132.226099440542 
0.6                            0.0967132121719997 -142.265000353696 0.983519510871779 -50.2685448302099 0.983519510871774 -50.2685448302097 0.0971813667135326 -140.437220377808 
0.7                            0.10895973704642 -150.987851830658 0.980724195357428 -58.5278079230263 0.980724195357425 -58.527807923026 0.10939199513144 -148.482171782452 
0.8                            0.119716079156618 -159.741774512005 0.978003066141197 -66.7644126852794 0.978003066141195 -66.7644126852792 0.120078189372664 -156.360288593473 
0.9                            0.128888563762975 -168.558807793418 0.975409308247818 -74.9807524956238 0.975409308247818 -74.9807524956236 0.129158185718135 -164.06354302603 
1                              0.136407856219693 -177.47124322185 0.97299085810154 -83.1798385216408 0.97299085810154 -83.1798385216408 0.136575080327567 -171.577087861548 
1.1                            0.142230854225477 173.485815874485 0.970785610819414 -91.365218443152 0.970785610819414 -91.365218443152 0.142298939960302 -178.87919799053 
1.2                            0.146342416139807 164.272398301424 0.968818775568402 -99.5408232150903 0.968818775568402 -99.5408232150903 0.14632942061952 174.05930223106  
1.3                            0.148757543235156 154.841727762721 0.967101543645493 -107.710793351949 0.967101543645492 -107.710793351949 0.14869894340686 167.276116690329 
1.4                            0.149524601917471 145.138151767314 0.965630602571442 -115.879300201898 0.965630602571442 -115.879300201898 0.149476787522072 160.819006527391 
1.5                            0.148730123215002 135.094807138938 0.96438828512976 -124.05036720203 0.96438828512976 -124.05036720203 0.148774583452226 154.747611661025 
1.6                            0.146505693786129 124.631069626686 0.96334327992431 -132.227694626409 0.96334327992431 -132.227694626409 0.146753680810387 149.135188638864 
1.7                            0.143037414363402 113.650173964952 0.962451890396331 -140.414492474429 0.962451890396332 -140.414492474429 0.143634686252579 144.069450064328 
1.8                            0.138578205776843 102.038077260178 0.961659844407908 -148.613327631413 0.961659844407908 -148.613327631413 0.139708935710004 139.650882251437 
1.9                            0.133462554495259 89.6659443757998 0.96090464483541 -156.825992542057 0.96090464483541 -156.825992542057 0.135350391605215 135.985639320477 
2                              0.128121436874246 76.4007625218329 0.960118422493787 -165.053403147072 0.960118422493786 -165.053403147072 0.131023845609674 133.168657879768 
2.1                            0.123091126284696 62.130984813845  0.959231211553498 -173.295533638663 0.959231211553497 -173.295533638663 0.127280980884069 131.252523434824 
2.2                            0.119002861701662 46.813698826552  0.958174519406206 178.448605399068 0.958174519406205 178.448605399069 0.12473114751735 130.202512299596 
2.3                            0.116534048616044 30.5393961537956 0.95688501408752 170.180940744957 0.956885014087519 170.180940744957 0.123974269837589 129.852126795273 
2.4                            0.116307029340952 13.5843035800713 0.955308111045868 161.904260155192 0.955308111045867 161.904260155192 0.125498420229361 129.891299379292 
2.5                            0.118752662370171 -3.60400677389787 0.953401216270334 153.622087173886 0.953401216270333 153.622087173886 0.129574626513566 129.917618551145 
2.6                            0.124000838537872 -20.5160188114785 0.951136382560598 145.338512232983 0.951136382560598 145.338512232983 0.136201146294052 129.539752923989 
2.7                            0.131864562529413 -36.7301862149506 0.948502164801806 137.057988838419 0.948502164801806 137.057988838419 0.145127113250274 128.474761097146 
2.8                            0.14192209990696 -52.0059328197027 0.945504518155458 128.785106785186 0.945504518155458 128.785106785186 0.155935168995422 126.586925872775 
2.9                            0.15363784903389 -66.2816149636503 0.942166663895183 120.524356457819 0.942166663895182 120.524356457819 0.168135490213554 123.867060409487 
3                              0.166461839618806 -79.6162498368537 0.93852793995325 112.279899018324 0.938527939953249 112.279899018324 0.18123691997627 120.385796840624 
3.1                            0.179886819998009 -92.1269604008165 0.934641743102874 104.055356543066 0.934641743102873 104.055356543066 0.194787311114932 116.250369941957 
3.2                            0.193471038513005 -103.946323951386 0.930572743510977 95.8536340753981 0.930572743510975 95.853634075398  0.208390481477018 111.576052130899 
3.3                            0.206841716916603 -115.200400896606 0.926393600077977 87.6767824620188 0.926393600077973 87.6767824620187 0.221709758651051 106.471210182046 
3.4                            0.219690228035578 -126.000367271517 0.922181421979042 79.5259072251811 0.922181421979037 79.525907225181  0.234465278474729 101.031324446752 
3.5                            0.231764809697634 -136.441224516052 0.918014209560732 71.401125105513  0.918014209560727 71.4011251055129 0.246428998161555 95.3378704927489 
3.6                            0.242863305011195 -146.60352880352 0.913967472571462 63.3015667344538 0.913967472571458 63.3015667344536 0.257419287005919 89.4594478047013 
3.7                            0.252826782496625 -156.556055993819 0.910111174816884 55.2254214606377 0.91011117481688 55.2254214606378 0.267295873653054 83.453738733226  
3.8                            0.261534232276786 -166.358476576601 0.906507101481884 47.1700187890721 0.90650710148188 47.1700187890721 0.275955451398793 77.3696154197939 
3.9                            0.268898328077055 -176.063699307535 0.903206696927624 39.131940164456  0.903206696927621 39.1319401644559 0.283328060138237 71.2491042770547 
4                              0.274862211115861 174.28019423246  0.900249382602877 31.107154789375  0.900249382602875 31.1071547893751 0.289374300897543 65.1291063846    
4.1                            0.279397267331632 164.628398797777 0.89766133976678 23.0911735941988 0.89766133976678 23.0911735941989 0.294083413206586 59.0428525163068 
4.2                            0.282501885616912 154.938164955327 0.895454730342678 15.0792161275942 0.895454730342679 15.0792161275942 0.297472221586765 53.0210970198288 
4.3                            0.284201185432124 145.167861498769 0.893627329712759 7.0663857916169  0.893627329712761 7.06638579161701 0.299584921040218 47.0930528945109 
4.4                            0.284547681699958 135.27629569973  0.892162554549909 -0.952150676437011 0.892162554549912 -0.952150676437014 0.30049361601625 41.2870543266831 
4.5                            0.283622808925313 125.222298453541 0.891029882989978 -8.98098339358461 0.891029882989981 -8.98098339358465 0.300299447606513 35.6309089268159 
4.6                            0.281539148118097 114.964622195609 0.890185679312054 -17.0242832853013 0.890185679312058 -17.0242832853014 0.299134033924297 30.1518740380609 
4.7                            0.278443078529546 104.462248961172 0.889574446481881 -25.0856344136848 0.889574446481884 -25.0856344136849 0.297160803846087 24.8761650598216 
4.8                            0.274517397849005 93.6752615617006 0.889130533317684 -33.1678800617589 0.889130533317687 -33.167880061759 0.294575625092554 19.8278884990047 
4.9                            0.269983207857834 82.5664820017205 0.888780315171951 -41.27298883049  0.888780315171953 -41.2729888304901 0.291605928911989 15.027305477045  
5                              0.265100050620909 71.1041017300569 0.888444845572176 -49.4019477643551 0.888444845572178 -49.4019477643551 0.288507358190303 10.4883978728571 
5.1                            0.260162945228487 59.2654682470441 0.888042940779324 -57.55468990515  0.888042940779325 -57.55468990515  0.285556899220697 6.21585715300124 
5.2                            0.255494735739701 47.0419789984087 0.88749461182933 -65.7300634126377 0.887494611829331 -65.7300634126377 0.283041632580488 2.20185856555098 
5.3                            0.251432247969093 34.44459824456   0.88672470448704 -73.9258482558666 0.88672470448704 -73.9258482558665 0.281242807041591 -1.57671249837399 
5.4                            0.248305490323891 21.5088697788437 0.885666554782216 -82.138824343167 0.885666554782216 -82.1388243431669 0.280415984389681 -5.15966270447189 
5.5                            0.246410784338986 8.29765997961923 0.884265426558461 -90.3648918544322 0.884265426558459 -90.3648918544322 0.280769395509703 -8.60259003642631 
5.6                            0.245981142771995 -5.10030843148803 0.882481478082464 -98.5992406962535 0.882481478082462 -98.5992406962534 0.282443947601464 -11.9731504211079 
5.7                            0.247159574001766 -18.5772774887718 0.880292015274191 -106.836561843549 0.880292015274188 -106.836561843549 0.28549886008032 -15.3447708902793 
5.8                            0.249981839986777 -32.0179677671669 0.877692832780269 -115.071289425298 0.877692832780266 -115.071289425297 0.289906150723558 -18.7890046704743 
5.9                            0.254373419566673 -45.3131022257774 0.87469851772635 -123.297859358195 0.874698517726347 -123.297859358195 0.295555199624434 -22.3682695350002 
6                              0.26016139551184 -58.371298739993 0.871341684827382 -131.51096863832 0.871341684827379 -131.51096863832 0.302266149585586 -26.1305614618772 
6.1                            0.267097642277012 -71.126475985417 0.867671211146717 -139.70581936108 0.867671211146714 -139.70581936108 0.309809000876431 -30.106981618523 
6.2                            0.274887196782783 -83.5398840370379 0.863749628235006 -147.878333160246 0.863749628235004 -147.878333160246 0.317924592828112 -34.3119867680523 
6.3                            0.283215838432932 -95.5977520661582 0.859649894975948 -156.025324754925 0.859649894975946 -156.025324754925 0.326344199123247 -38.745609075011 
6.4                            0.291772877301801 -107.306456012145 0.855451807867652 -164.144627167192 0.855451807867649 -164.144627167192 0.334805660895489 -43.3966708219288 
6.5                            0.300267541019165 -118.687015476844 0.851238305092772 -172.235165320864 0.851238305092771 -172.235165320864 0.34306523921532 -48.2461558513111 
6.6                            0.308439168012254 -129.770113817169 0.847091891321333 179.703021417572 0.847091891321329 179.703021417572 0.350905314866968 -53.2701954034071 
6.7                            0.316062372684991 -140.592178185797 0.843091360875722 171.66880407724  0.84309136087572 171.66880407724  0.358138601221227 -58.4424178141421 
6.8                            0.32294862006059 -151.192595143823 0.839308938549502 163.660030479002 0.839308938549501 163.660030479002 0.364609737280211 -63.7356209368319 
6.9                            0.328945531259416 -161.611901329299 0.835807900181483 155.673626244121 0.835807900181482 155.673626244121 0.370195116223254 -69.122843168893 
7                              0.333934974353814 -171.890712988815 0.832640686801755 147.705723245792 0.832640686801754 147.705723245792 0.374801687197687 -74.5779560451564 
7.1                            0.337830712588204 177.930831967995 0.829847491396727 139.751808784661 0.829847491396727 139.751808784661 0.378365314483373 -80.0759068975491 
7.2                            0.340576139913232 167.813303469073 0.827455277644773 131.806889625109 0.827455277644774 131.806889625109 0.380849124967374 -85.592726469215 
7.3                            0.342142444272584 157.718018729475 0.825477184478392 123.865666023474 0.825477184478391 123.865666023474 0.382242136267048 -91.1053976369013 
7.4                            0.342527394581645 147.606993368314 0.823912276516483 115.922711783404 0.823912276516484 115.922711783404 0.382558335529761 -96.5916648526237 
7.5                            0.341754833996905 137.442881790375 0.822745614840312 107.972657013753 0.822745614840316 107.972657013753 0.381836268650581 -102.029852540889 
7.6                            0.339874865353894 127.188972540277 0.82194864140178 100.010370529743 0.821948641401781 100.010370529742 0.380139095035676 -107.398754921166 
7.7                            0.336964621232442 116.80930300398  0.821479889576739 92.0311386819704 0.821479889576741 92.0311386819702 0.377554958078094 -112.677658439744 
7.8                            0.333129409548479 106.268964787331 0.821286049067972 84.0308368380946 0.821286049067974 84.0308368380945 0.374197412480786 -117.846558761334 
7.9                            0.32850390717398 95.5346830511023 0.821303421747741 76.0060888625102 0.821303421747741 76.0060888625102 0.370205537246272 -122.886633149323 
8                              0.32325293505068 84.5757643766526 0.821459802734612 67.9544088900904 0.821459802734609 67.9544088900904 0.365743255679153 -127.781020234481 
8.1                            0.317571194103044 73.3655084091067 0.821676805468835 59.8743186844841 0.821676805468834 59.874318684484  0.360997299914507 -132.515934904236 
8.2                            0.311681194204636 61.8831524641743 0.821872619678623 51.7654331731619 0.821872619678619 51.7654331731619 0.356173229578676 -137.082097826788 
8.3                            0.305828517204486 50.1163435151743 0.821965147995706 43.6285066466609 0.821965147995705 43.628506646661  0.351488987710112 -141.476381033627 
8.4                            0.300273602351536 38.0639867940879 0.821875414488338 35.4654328615001 0.821875414488337 35.4654328615002 0.34716570288234 -145.703466004352 
8.5                            0.295279539315678 25.7390996586062 0.821531083481023 27.2791940745233 0.821531083481024 27.2791940745233 0.34341586029917 -149.777198824629 
8.6                            0.291096001903168 13.1710420143843 0.820869879189517 19.0737568918951 0.820869879189519 19.0737568918952 0.340429552911507 -153.721250150729 
8.7                            0.287940464127509 0.406306162535801 0.819842666442752 10.8539165700786 0.819842666442755 10.8539165700785 0.338360186874024 -157.568702708733 
8.8                            0.285979021261901 -12.4929109651542 0.818415949398267 2.62509567575239 0.818415949398271 2.62509567575199 0.337311557666837 -161.360341437497 
8.9                            0.285310060038565 -25.4527318862122 0.816573574171536 -5.6068927629723 0.816573574171542 -5.60689276297294 0.337328389862296 -165.141706523063 
9                              0.285954139851184 -38.3938752869525 0.814317482242994 -13.8361039432639 0.814317482243   -13.8361039432646 0.338392068116427 -168.959307469287 
9.1                            0.287852431253541 -51.2390667070342 0.811667447208685 -22.0567258826056 0.811667447208689 -22.0567258826062 0.340422397520545 -172.856652746296 
9.2                            0.290874117479671 -63.9200318083905 0.808659825070152 -30.2633334183197 0.808659825070152 -30.2633334183199 0.343285072396719 -176.870806588851 
9.3                            0.294831043026032 -76.382679222282 0.805345442103885 -38.4511163358186 0.805345442103887 -38.4511163358181 0.346803491608923 178.9699845924   
9.4                            0.299496451072912 -88.5897365660699 0.801786819519678 -46.6160691811702 0.801786819519677 -46.6160691811686 0.350772961252929 174.647366799863 
9.5                            0.304624346635724 -100.520898132062 0.798054979984859 -54.7551342835992 0.798054979984856 -54.7551342835967 0.354975283630301 170.152745083348 
9.6                            0.309966715658762 -112.171117112946 0.794226093403002 -62.8662940061081 0.794226093403002 -62.8662940061041 0.359192129040482 165.486250384082 
9.7                            0.315287007648214 -123.54787925125 0.790378200438387 -70.948612629387 0.790378200438391 -70.948612629382 0.363216189160324 160.655190259119 
9.8                            0.320369431618761 -134.668195244247 0.786588209635719 -79.0022320394294 0.786588209635729 -79.0022320394241 0.366859695755809 155.672328079283 
9.9                            0.325024425844718 -145.555806416967 0.782929307693425 -87.0283282056959 0.782929307693435 -87.0283282056919 0.369960324984251 150.554237158206 
10                             0.329091083853184 -156.238849640104 0.77946886263202 -95.029037186435 0.779468862632019 -95.029037186435 0.372384762163567 145.319869233827 
