! Touchstone file exported from HFSS 3D Layout Design 2026.1.0
!        File:           D:/Work/ADS/HFSS_VERDICT/hfss_sma_connector_cpw.aedt
!        Generated:      02:14:25 PM Aug  6, 2026
!        Design:         SINGLE_END_SMA_CPW_30MM
!        Project:        hfss_sma_connector_cpw
!
! Variables:
!        $sma_Base_D = 6.25mm
!        $sma_Base_L = 8mm
!        $sma_Feet_L = 4mm
!        $sma_Feet_W = 1mm
!        $sma_Front_L = 1.5mm
!        $sma_Front_W = 6.5mm
!        $sma_Hole_D = 1.25mm
!        $sma_PTFE_D = 4.2mm
!        $sma_Pin_D = 0.95mm
!        $sma_Pin_P = 1.7mm
!
# GHz S MA R 50.000000
! Terminal data exported
! Port[1] = Port1
! Port[2] = S1_1_Pin_T1
0.5                            0.0804617247875101 -129.33309502622 0.986761684677835 -41.6960918083427 0.986761684677836 -41.6960918083427 0.0807168578147317 -135.877154291102 
0.6                            0.0933874914666819 -137.150147884259 0.984036971052656 -49.9240227686025 0.984036971052655 -49.9240227686027 0.0936314085840719 -144.890380279646 
0.7                            0.104850365738598 -144.921983636013 0.981383595408708 -58.1262206026302 0.981383595408706 -58.1262206026304 0.10505544266119 -153.785430902477 
0.8                            0.114721459739813 -152.674670735742 0.978844067846411 -66.3058873222242 0.978844067846408 -66.3058873222244 0.114864199972513 -162.571625903948 
0.9                            0.122895032098901 -160.429734003375 0.976459963841462 -74.4658594176424 0.97645996384146 -74.4658594176425 0.122956759590928 -171.250446317247 
1                              0.129289710585631 -168.207798045813 0.974270767633239 -82.6091405806104 0.974270767633239 -82.6091405806105 0.129257353273221 -179.817672620172 
1.1                            0.133848714565174 -176.030842046425 0.972309956621661 -90.7391092126639 0.972309956621661 -90.7391092126639 0.133715847060084 171.735928832111 
1.2                            0.136539687766112 176.076087200882 0.970601221821664 -98.8595145416453 0.970601221821665 -98.8595145416453 0.136307706677393 163.424998617566 
1.3                            0.137354652915397 168.08315771357  0.969155766501318 -106.974352874678 0.969155766501319 -106.974352874678 0.137033988775812 155.270920392827 
1.4                            0.13631045108373 159.953586680863 0.967970860027546 -115.087684413995 0.967970860027548 -115.087684413995 0.135921870898033 147.304157392994 
1.5                            0.133449955208299 151.640541002055 0.967029559542544 -123.20342884462 0.967029559542546 -123.20342884462 0.13302617557962 139.567862733303 
1.6                            0.128844384766312 143.082423326549 0.966301438652636 -131.325164111374 0.966301438652637 -131.325164111374 0.128432370446709 132.12332499964  
1.7                            0.122597241003479 134.195454188445 0.965744154399203 -139.455944490592 0.965744154399204 -139.455944490592 0.122261726787291 125.058235728702 
1.8                            0.114850837146077 124.861703925271 0.965305692313195 -147.598148949218 0.965305692313196 -147.598148949218 0.114679825237897 118.499404925548 
1.9                            0.105797359192066 114.909398003344 0.964927135696941 -155.753367425717 0.964927135696941 -155.753367425717 0.105910640642437 112.632414802004 
2                              0.0956983739183218 104.080202566433 0.964545803644735 -163.922330172666 0.964545803644735 -163.922330172666 0.0962603913864652 107.731343642115 
2.1                            0.0849206727377899 91.975938751491  0.964098593196275 -172.104883118729 0.964098593196275 -172.104883118729 0.0861585135833172 104.199623358302 
2.2                            0.074003439210695 77.9807910404078 0.963525348449726 179.699989983969 0.963525348449726 179.699989983969 0.0762261280387939 102.608309068935 
2.3                            0.0637785994556916 61.1950866936216 0.962772069396   171.49410020157  0.962772069396001 171.49410020157  0.0673743914160837 103.660161233621 
2.4                            0.0555379073438807 40.5960497523447 0.961793772058228 163.279944893943 0.961793772058227 163.279944893943 0.0608744077482932 107.868231991465 
2.5                            0.0510417084215768 16.0051821178851 0.960556824524321 155.06056451686  0.96055682452432 155.06056451686  0.0581706833590299 114.725323226964 
2.6                            0.0518012076759067 -10.2823311839022 0.959040613454878 146.839373428489 0.959040613454878 146.839373428489 0.0601860263066062 122.095333598992 
2.7                            0.0578271071632236 -34.4139573415138 0.957238442023771 138.619975024411 0.957238442023772 138.619975024411 0.066646816829221 127.446936893015 
2.8                            0.0676986964658516 -54.4580371049027 0.955157618808953 130.405972393792 0.955157618808953 130.405972393792 0.076379132088024 129.667380184269 
2.9                            0.0798021359456867 -70.7985030886106 0.952818760843131 122.200785634229 0.95281876084313 122.200785634229 0.0881021963706177 129.01206914073  
3                              0.0929588756632223 -84.4733940081338 0.950254394429841 114.007485972178 0.95025439442984 114.007485972178 0.100821047906491 126.179169203782 
3.1                            0.106402081333561 -96.3472225928745 0.947506986468347 105.8286550392   0.947506986468345 105.8286550392   0.113839595800469 121.805566651321 
3.2                            0.119626749125002 -107.004658148989 0.944626571096239 97.6662752957212 0.944626571096237 97.6662752957212 0.126673677171974 116.358955048714 
3.3                            0.132283639888906 -116.824301281107 0.941668148849077 89.5216549831097 0.941668148849075 89.5216549831098 0.138977085140716 110.162574377062 
3.4                            0.144119765033722 -126.053854580132 0.938689029073636 81.3953884347784 0.938689029073634 81.3953884347785 0.150494738908771 103.438473028655 
3.5                            0.154946134796262 -134.860431476629 0.935746264671336 73.2873503513362 0.935746264671334 73.2873503513362 0.161035013556538 96.3416657379364 
3.6                            0.164619739365664 -143.361350690302 0.932894296763781 65.1967209201695 0.932894296763778 65.1967209201695 0.170453310285785 88.9832555864891 
3.7                            0.173032883768652 -151.642773798242 0.930182891382819 57.1220375135362 0.930182891382818 57.1220375135361 0.17864193148168 81.4454860560645 
3.8                            0.180106448664138 -159.771169388122 0.92765541597337 49.0612681166641 0.927655415973366 49.0612681166642 0.185523521162614 73.7915574803124 
3.9                            0.185785391210657 -167.800571470786 0.925347474195335 41.011901534682  0.925347474195335 41.0119015346819 0.19104661403596 66.07216940627   
4                              0.190035664061722 -175.777354940788 0.923285895443184 32.9710496799665 0.923285895443183 32.9710496799665 0.19518254345766 58.3300372787267 
4.1                            0.192842162338385 176.256461133031 0.921488061358482 24.9355577120989 0.921488061358482 24.9355577120989 0.19792334592977 50.6031629077631 
4.2                            0.194207528153223 168.260771991035 0.919961544858658 16.9021183621946 0.919961544858659 16.9021183621946 0.199280514638115 42.9273482762746 
4.3                            0.194151758084556 160.195422803509 0.918704036479151 8.86738731604713 0.918704036479153 8.8673873160471  0.199284575769202 35.3382643671351 
4.4                            0.192712625472603 152.018465615092 0.917703536304485 0.828096980648977 0.917703536304487 0.828096980648836 0.1979855301626  27.8732734483496 
4.5                            0.189946975032582 143.684458158053 0.916938795469802 -7.2188337274991 0.916938795469805 -7.21883372749935 0.195454239949597 20.5731223794288 
4.6                            0.185932987110988 135.142677572954 0.916379997230409 -15.2761957698882 0.916379997230412 -15.2761957698883 0.19178485327611 13.4835510507472 
4.7                            0.180773549300389 126.335175402976 0.915989672207636 -23.3463947197708 0.915989672207639 -23.346394719771 0.187098347145326 6.65676929986212 
4.8                            0.174600910634566 117.194686057556 0.915723844211463 -31.4313660872878 0.915723844211466 -31.431366087288 0.181547211330986 0.152616842176068 
4.9                            0.167582806522724 107.642571191102 0.915533400987916 -39.5325036050258 0.915533400987918 -39.5325036050259 0.175321153330437 -5.9610065977851 
5                              0.159930170043239 97.58732619063   0.915365677790824 -47.6506029522259 0.915365677790827 -47.6506029522259 0.168653393669108 -11.6092144989158 
5.1                            0.151906245634138 86.9248304953191 0.915166230846881 -55.7858234205191 0.91516623084688 -55.7858234205193 0.161826507041386 -16.7139927212059 
5.2                            0.14383610890087 75.5426437524929 0.914880763226647 -63.9376698967041 0.914880763226647 -63.9376698967041 0.15517567833139 -21.2026673171612 
5.3                            0.136113801464867 63.3321949362301 0.914457148683325 -72.1049972021186 0.914457148683325 -72.1049972021186 0.149085618255951 -25.0229128949365 
5.4                            0.129201048472922 50.2138215548259 0.913847481631585 -80.2860382469912 0.913847481631584 -80.2860382469912 0.14397565434879 -28.1648667051113 
5.5                            0.123607314821912 36.1775024237087 0.913010066026642 -88.4784566235258 0.913010066026641 -88.4784566235257 0.14026725616951 -30.6867005716998 
5.6                            0.119839305688192 21.3320453933071 0.911911245057235 -96.6794231991462 0.911911245057233 -96.6794231991461 0.138332324292481 -32.7330738278949 
5.7                            0.118316754230137 5.93671762542991 0.910526969656658 -104.885715042451 0.910526969656656 -104.885715042451 0.138430821450953 -34.5311008307373 
5.8                            0.119275539152556 -9.62181790240688 0.908844008587854 -113.093833711536 0.908844008587851 -113.093833711536 0.140658488147388 -36.3547192238579 
5.9                            0.122703943637526 -24.9188935743623 0.906860716966668 -121.300138671648 0.906860716966665 -121.300138671648 0.144927921876293 -38.4674743215246 
6                              0.128350333311922 -39.6039063166365 0.90458730297733 -129.500990508709 0.904587302977327 -129.500990508709 0.150991852599609 -41.0702841486646 
6.1                            0.135795860788106 -53.4692123401492 0.902045562338434 -137.692897780719 0.902045562338432 -137.692897780719 0.158495859363814 -44.276734458211 
6.2                            0.144548459543252 -66.4510300142911 0.899268083856615 -145.872660890725 0.89926808385661 -145.872660890725 0.167037156585768 -48.1184730809764 
6.3                            0.154117937135626 -78.5877876759318 0.896296963576176 -154.037506327732 0.896296963576174 -154.037506327731 0.176211596875261 -52.5677360679768 
6.4                            0.164058622105697 -89.9720268218792 0.893182095928613 -162.18520501829 0.893182095928608 -162.18520501829 0.185642953063501 -57.5625129778674 
6.5                            0.173985676840731 -100.715025086847 0.889979134719956 -170.314169331088 0.889979134719955 -170.314169331088 0.194996990545864 -63.026311514795 
6.6                            0.183576246428751 -110.92677915015 0.886747232529725 -178.423524409915 0.886747232529723 -178.423524409914 0.20398559629534 -68.8807169412254 
6.7                            0.19256400880242 -120.707138033907 0.883546673132228 173.486849123435 0.883546673132225 173.486849123435 0.212365598251116 -75.0520447391741 
6.8                            0.200731897293743 -130.143335021662 0.880436508193104 165.416302575106 0.880436508193104 165.416302575106 0.219935325797587 -81.4740839168859 
6.9                            0.207905132515065 -139.31061682475 0.877472298209357 157.363436704476 0.877472298209356 157.363436704476 0.226530601183659 -88.0885845322782 
7                              0.213945316315023 -148.274104807802 0.874704040778145 149.326148038006 0.874704040778145 149.326148038006 0.232020977105721 -94.8445856721274 
7.1                            0.218745741009152 -157.09097112566 0.872174349582682 141.301701518654 0.872174349582687 141.301701518654 0.236306558521844 -101.697222185025 
7.2                            0.222227860705941 -165.81254093483 0.869916927780578 133.286826191638 0.869916927780584 133.286826191638 0.23931552007224 -108.606344779995 
7.3                            0.224338833106998 -174.486197786825 0.867955362207079 125.277830072561 0.867955362207086 125.277830072561 0.241002342073202 -115.535108295739 
7.4                            0.225050061176979 176.842907627436 0.866302251715642 117.270730053248 0.866302251715645 117.270730053248 0.241346769047499 -122.448585133753 
7.5                            0.224356698930021 168.130294249377 0.864958674945133 109.261392611429 0.864958674945137 109.261392611429 0.240353506251973 -129.312413418661 
7.6                            0.222278118079207 159.330666258367 0.863913999747038 101.245681116101 0.863913999747042 101.245681116101 0.238052689416814 -136.091473491561 
7.7                            0.218859358299082 150.396444733656 0.86314603743159 93.2196055683102 0.863146037431592 93.2196055683101 0.23450117629587 -142.748593267349 
7.8                            0.214173602445563 141.276273180955 0.862621548121408 85.1794706058331 0.862621548121408 85.1794706058331 0.229784702916667 -149.243312269078 
7.9                            0.208325725984329 131.913500047656 0.862297106488099 77.1220174780904 0.862297106488101 77.1220174780904 0.224020907474898 -155.530792259123 
8                              0.201456955194008 122.244731950773 0.862120337364238 69.0445554555131 0.862120337364236 69.0445554555133 0.217363128545248 -161.561062329276 
8.1                            0.193750600429761 112.198724740531 0.862031525624284 60.945077818306  0.862031525624285 60.9450778183061 0.210004696951784 -167.27894569481 
8.2                            0.185438640521288 101.696193543974 0.861965592284808 52.8223572677608 0.86196559228481 52.8223572677609 0.202183109430149 -172.625247856087 
8.3                            0.176808490019882 90.651644632929  0.86185440796226 44.6760154574852 0.861854407962258 44.6760154574855 0.194182928542034 -177.540074946987 
8.4                            0.168208366455852 78.9790752616521 0.861629386101501 36.5065615150904 0.861629386101502 36.5065615150906 0.186335444954157 178.030608225702 
8.5                            0.160048040964637 66.6041253248205 0.861224264038066 28.3153950753473 0.861224264038066 28.3153950753473 0.179012134852219 174.12416967358  
8.6                            0.152789408723741 53.4851493942116 0.860577944180466 20.1047705904234 0.860577944180467 20.1047705904233 0.172608161780315 170.746222754747 
8.7                            0.146919275029743 39.642903492395  0.859637236158067 11.8777215585695 0.859637236158069 11.8777215585691 0.167512636103325 167.853686951223 
8.8                            0.142898062338716 25.1912138053434 0.858359320151374 3.63794574633408 0.858359320151376 3.63794574633391 0.164065571102592 165.342127669046 
8.9                            0.141087200251103 10.3510353496728 0.856713747704038 -4.61034472458763 0.856713747704042 -4.61034472458801 0.16250814546855 163.046117076293 
9                              0.141674845390626 -4.57193884463967 0.854683812948734 -12.8626016995123 0.854683812948735 -12.8626016995128 0.162940425629513 160.758737262118 
9.1                            0.144632352947694 -19.2484774556446 0.852267164868295 -21.1141384469258 0.852267164868294 -21.1141384469262 0.165302824509426 158.266941038403 
9.2                            0.149724986185869 -33.3991138556824 0.849475586513878 -29.3603350921667 0.849475586513877 -29.3603350921668 0.169389567607476 155.389245867475 
9.3                            0.156570914943409 -46.8424376891185 0.846333932962638 -37.5968399372186 0.846333932962636 -37.5968399372186 0.174888241147938 152.000623644052 
9.4                            0.164718563757552 -59.5021317480946 0.842878286898899 -45.8197547214857 0.842878286898897 -45.8197547214853 0.181429552867374 148.038101726326 
9.5                            0.173712835387683 -71.3841305494527 0.839153449465301 -54.025793063987 0.839153449465301 -54.0257930639862 0.188631804019561 143.491151374154 
9.6                            0.183137192447973 -82.5447505910398 0.835209926728235 -62.2124033430141 0.835209926728235 -62.2124033430132 0.196131927529333 138.385555991938 
9.7                            0.192633248357997 -93.0638086084809 0.831100594472755 -70.3778497865842 0.831100594472758 -70.3778497865829 0.20360249480176 132.767868776578 
9.8                            0.201905318196293 -103.027054637814 0.826877225962887 -78.5212481916242 0.826877225962891 -78.5212481916229 0.210758199749147 126.693817341608 
9.9                            0.210716977147618 -112.51672830804 0.822587052434714 -86.6425551187782 0.822587052434719 -86.6425551187773 0.21735619365616 120.221111537518 
10                             0.218884296065666 -121.607530732255 0.818269500712541 -94.7425113748438 0.818269500712542 -94.7425113748438 0.223193844017963 113.405755149769 
