! Touchstone file exported from HFSS 3D Layout Design 2026.1.0
!        File:           D:/Work/SIM/ADS_AUTO_SIM/projects/RFSOC_RF/TX_Fillter.aedt
!        Generated:      10:31:48 PM Aug 30, 2026
!        Design:         TX_BAND1_MCFIL_R2_CNN002_P2UP_GRAPHICAL
!        Project:        TX_Fillter
!
# GHz S MA R 50.000000
! Terminal data exported
! Port[1] = Port1
! Port[2] = Port2
14                             0.963443561240055 170.664924373008 0.00585648839189351 171.668909514775 0.00585648839189351 171.668909514775 0.963073855477391 169.808996282959 
14.05                          0.962721884227985 169.639029733748 0.00600100284139998 171.209859604813 0.00600100284139998 171.209859604813 0.962343364076561 168.755496314831 
14.1                           0.961976919173893 168.603972030271 0.00615317643907679 170.761322306075 0.00615317643907681 170.761322306075 0.961589503021174 167.692629950543 
14.15                          0.961207557858321 167.559439803843 0.00631358660574598 170.322892320791 0.00631358660574603 170.32289232079  0.960811167943094 166.620086268066 
14.2                           0.960412622249171 166.505106533697 0.00648286192169217 169.894091362016 0.00648286192169222 169.894091362016 0.96000718514365 165.537539345558 
14.25                          0.959590858987961 165.440629717546 0.00666168711035502 169.474362929812 0.00666168711035503 169.474362929812 0.959176306123813 164.44464734942  
14.3                           0.958740933348772 164.365649882917 0.00685080854767701 169.063067072864 0.00685080854767705 169.063067072864 0.958317201590764 163.341051553918 
14.35                          0.957861422610352 163.279789523034 0.0070510403581571 168.659475188234 0.00705104035815712 168.659475188233 0.957428454881545 162.226375286199 
14.4                           0.956950808774025 162.182651950363 0.00726327116674926 168.262764916802 0.00726327116674927 168.262764916802 0.956508554736726 161.100222789891 
14.45                          0.956007470551171 161.073820060184 0.00748847158506765 167.872015196006 0.0074884715850677 167.872015196005 0.955555887348123 159.962177999713 
14.5                           0.955029674533708 159.952854995739 0.00772770252111629 167.486201534109 0.00772770252111631 167.486201534109 0.95456872759425 158.811803218719 
14.55                          0.954015565449182 158.81929470556  0.00798212441419469 167.104191571345 0.0079821244141947 167.104191571345 0.953545229365381 157.64863768891  
14.6                           0.952963155388367 157.672652382584 0.0082530075110167 166.724740992293 0.0082530075110167 166.724740992292 0.952483414866347 156.472196044868 
14.65                          0.9518703118774  156.512414773464 0.00854174331574614 166.346489850556 0.00854174331574615 166.346489850556 0.951381162769302 155.281966638941 
14.7                           0.950734744648074 155.338040345186 0.00884985736597417 165.967959360849 0.0088498573659742 165.967959360849 0.950236195070229 154.077409725201 
14.75                          0.949553990938518 154.148957294639 0.00917902350908946 165.587549204671 0.00917902350908948 165.587549204671 0.949046062481497 152.857955487909 
14.8                           0.948325399131505 152.944561385102 0.00953107987953466 165.203535383801 0.00953107987953468 165.203535383801 0.947808128167706 151.623001898585 
14.85                          0.947046110508528 151.724213591759 0.00990804680771023 164.814068640587 0.00990804680771021 164.814068640586 0.946519549602789 150.371912383881 
14.9                           0.945713038863619 150.487237536213 0.0103121469264884 164.417173445722 0.0103121469264883 164.417173445722 0.945177258292036 149.104013284366 
14.95                          0.944322847680856 149.232916687614 0.0107458277822653 164.010747532856 0.0107458277822653 164.010747532856 0.943777937062414 147.818591081933 
15                             0.942871924532404 147.96049130528  0.0112117873051893 163.592561935361 0.0112117873051893 163.592561935361 0.942317994577136 146.514889370812 
15.05                          0.94135635229839 146.669155094693 0.011713002548797 163.160261454342 0.011713002548797 163.160261454342 0.94079353667451 145.192105544171 
15.1                           0.939771876744288 145.358051545269 0.0122527621741309 162.711365458949 0.0122527621741309 162.711365458949 0.939200334064897 143.849387164773 
15.15                          0.938113869913739 144.02626991447  0.0128347032290755 162.243268890974 0.0128347032290754 162.243268890974 0.937533785841211 142.485827984311 
15.2                           0.936377288702458 142.672840818443 0.0134628528620171 161.753243316149 0.013462852862017 161.753243316149 0.935788878165204 141.100463571614 
15.25                          0.934556627869011 141.296731384474 0.0141416757122004 161.238437835264 0.0141416757122003 161.238437835264 0.933960137380737 139.692266504994 
15.3                           0.932645866607231 139.896839915074 0.0148761278399019 160.695879639676 0.0148761278399019 160.695879639676 0.932041576672829 138.260141078432 
15.35                          0.930638407648463 138.47199000738  0.0156717182007863 160.122473968609 0.0156717182007863 160.122473968609 0.930026635232686 136.802917465111 
15.4                           0.928527007674186 137.020924064776 0.0165345788340757 159.515003200055 0.0165345788340756 159.515003200055 0.927908108698907 135.319345274882 
15.45                          0.926303697594399 135.54229613018  0.0174715451275008 158.870124783277 0.0174715451275007 158.870124783276 0.925678069416737 133.808086434658 
15.5                           0.923959690976369 134.034663962304 0.0184902477480835 158.18436769867  0.0184902477480835 158.18436769867  0.923327774782397 132.26770731237  
15.55                          0.921485278582162 132.49648026753  0.0195992180918767 157.454127109757 0.0195992180918766 157.454127109757 0.920847561608171 130.696669996216 
15.6                           0.918869706580012 130.926082990913 0.0208080094137145 156.675656851555 0.0208080094137145 156.675656851555 0.918226724043875 129.093322631429 
15.65                          0.916101035519571 129.321684560652 0.0221273361560971 155.845059378682 0.0221273361560971 155.845059378682 0.915453372106704 127.455888707215 
15.7                           0.913165976587337 127.681359971546 0.0235692344110695 154.95827277411  0.0235692344110694 154.95827277411  0.912514267286598 125.782455177119 
15.75                          0.910049700965329 126.003033585481 0.0251472469265976 154.011054394158 0.0251472469265976 154.011054394158 0.909394630986693 124.070959287847 
15.8                           0.906735617279411 124.284464521938 0.0268766366146559 152.998960695909 0.0268766366146558 152.998960695909 0.906077920703184 122.319173985637 
15.85                          0.903205111115427 122.523230511096 0.0287746331346866 151.917322758378 0.0287746331346865 151.917322758378 0.902545567816637 120.524691767625 
15.9                           0.899437239370318 120.716710089161 0.0308607178112441 150.761216967641 0.0308607178112441 150.761216967641 0.898776669624585 118.684906851194 
15.95                          0.895408370758017 118.86206303469  0.0331569528881728 149.525430288436 0.0331569528881727 149.525430288436 0.894747626757347 116.796995551502 
16                             0.891091762073107 116.956208982635 0.0356883618994299 148.204419491068 0.0356883618994298 148.204419491068 0.89043171534942 114.857894792816 
16.05                          0.886457057801622 114.995804219598 0.0384833687020435 146.792263645345 0.0384833687020434 146.792263645345 0.885798581256589 112.864278742925 
16.1                           0.881469698346187 112.977216774241 0.0415743033873873 145.282609137433 0.0415743033873873 145.282609137433 0.8808136411972  110.812533666337 
16.15                          0.876090219522755 110.896500092953 0.0449979837249861 143.668606420051 0.0449979837249861 143.668606420051 0.875437372969618 108.698731263032 
16.2                           0.870273423171064 108.749365865025 0.0487963807745925 141.942837686217 0.0487963807745925 141.942837686216 0.869624473931031 106.518601027443 
16.25                          0.863967395894122 106.531156981725 0.053017376472726 140.097234685993 0.0530173764727259 140.097234685993 0.863322863898802 104.267502574542 
16.3                           0.857112350487356 104.236822249918 0.0577156188081884 138.122986022442 0.0577156188081884 138.122986022442 0.856472505925618 101.940399506632 
16.35                          0.849639263240484 101.860895436635 0.0629534758044401 136.010433525814 0.0629534758044402 136.010433525814 0.849004016693271 99.5318373388425 
16.4                           0.841468281225492 99.3974826472574 0.0688020816569748 133.748957802839 0.0688020816569748 133.748957802839 0.840837038780237 97.0359294144977 
16.45                          0.832506879002187 96.8402641565862 0.0753424551551891 131.326853923523 0.0753424551551891 131.326853923523 0.831878351846812 94.4463568444608 
16.5                           0.822647757297412 94.1825199368609 0.0826666492341546 128.731199635811 0.0826666492341547 128.731199635811 0.822019712251449 91.7563916169187 
16.55                          0.811766502628146 91.4171927136749 0.0908788573246049 125.947720768492 0.090878857324605 125.947720768492 0.811135436240848 88.9589566048241 
16.6                           0.79971907510939 88.5370090680428 0.10009635191294 122.960661984894 0.10009635191294 122.960661984894 0.799079789230658 86.0467428953933 
16.65                          0.786339274791629 85.5346887657869 0.110450056771153 119.752676306233 0.110450056771153 119.752676306233 0.785684325861047 83.0124145745693 
16.7                           0.771436473677579 82.4032862892666 0.122084449070995 116.304754487954 0.122084449070995 116.304754487954 0.77075546150882 79.8489450129853 
16.75                          0.754794116912912 79.1367279040479 0.135156344118893 112.59622613351  0.135156344118893 112.59622613351  0.754072771950018 76.5501483262629 
16.8                           0.736169824606904 75.7306341002164 0.149831931502445 108.604878985765 0.149831931502446 108.604878985765 0.735388846618042 73.1114967522391 
16.85                          0.715298398052897 72.183552250824  0.16628121782676 104.30726122305  0.16628121782676 104.30726122305  0.714431996270224 69.5313508287439 
16.9                           0.691899668175778 68.4987680145485 0.184668826764874 99.6792524879962 0.184668826764874 99.6792524879961 0.690913757163951 65.8127752027104 
16.95                          0.665693886873752 64.6869135339974 0.205140001801285 94.6970086231709 0.205140001801286 94.6970086231708 0.664543911166628 61.9661668845308 
17                             0.636428106969688 60.7696365206301 0.227800819635384 89.3383935602246 0.227800819635384 89.3383935602245 0.63505651282505 58.012977547529  
17.05                          0.60391737180629 56.7846150469218 0.252692316008848 83.5849932665164 0.252692316008848 83.5849932665164 0.602250835967397 53.9908492784024 
17.1                           0.568103895345032 52.7921535273407 0.27975976989929 77.4247373769528 0.27975976989929 77.4247373769527 0.566050590947952 49.9604668523121 
17.15                          0.529134830043628 48.8833886445289 0.308820998408105 70.8550084094932 0.308820998408105 70.8550084094931 0.526582315310964 46.0142851670448 
17.2                           0.487453759695759 45.1895977933602 0.339540938987987 63.8858852665264 0.339540938987987 63.8858852665264 0.484268620984372 42.286865402286  
17.25                          0.443892420722112 41.8908850717599 0.371422877482902 56.5428804939239 0.371422877482902 56.5428804939239 0.439923785014091 38.9655085036653 
17.3                           0.399738347346455 39.2199123919687 0.403827167317609 48.8682973998993 0.403827167317608 48.8682973998993 0.394829113869645 36.2974360968358 
17.35                          0.356743020662093 37.4511879644286 0.436023644025916 40.9203299491158 0.436023644025916 40.9203299491157 0.350755338844729 34.584386298156  
17.4                           0.317024266117139 36.8582524694847 0.467273497633061 32.7694150815215 0.467273497633061 32.7694150815215 0.309888150199063 34.1454053027451 
17.45                          0.282806661693726 37.6160307371402 0.496923558216903 24.4921139957083 0.496923558216903 24.4921139957084 0.274596274704885 35.2176691468278 
17.5                           0.25595552770474 39.6486533034108 0.524487847737768 16.1636653465206 0.524487847737768 16.1636653465207 0.246972528805288 37.7804577084759 
17.55                          0.237367025519322 42.5067304403211 0.549693907557211 7.85087435680447 0.549693907557211 7.85087435680451 0.228163877360358 41.3824960057044 
17.6                           0.226517131640394 45.4382577034859 0.572484383630984 -0.393127886840328 0.572484383630984 -0.39312788684029 0.217791009226323 45.1839330509723 
17.65                          0.221574454321453 47.6897316067001 0.592980298509898 -8.5314235509066 0.592980298509898 -8.53142355090656 0.213976555925587 48.3087553082887 
17.7                           0.220081779611366 48.797828233966  0.611422874795862 -16.5431933340813 0.611422874795862 -16.5431933340813 0.214086376906199 50.2205912127743 
17.75                          0.219713159283521 48.647836255257  0.628112172147609 -24.4216393890973 0.628112172147608 -24.4216393890973 0.215611433275627 50.804787740618  
17.8                           0.218693095212417 47.3537140728456 0.643355512951429 -32.1708678617526 0.643355512951429 -32.1708678617526 0.216657051366943 50.2176067282904 
17.85                          0.215864942602999 45.120226720876  0.657431419921564 -39.8025424819857 0.657431419921563 -39.8025424819857 0.216015565292962 48.7167860820962 
17.9                           0.210583907379362 42.1605892656102 0.670569075495376 -47.3328505176032 0.670569075495375 -47.3328505176032 0.213039627555721 46.5661769927715 
17.95                          0.202572995501289 38.6650986553089 0.682940282532845 -54.7800480926924 0.682940282532845 -54.7800480926925 0.207480957595642 44.0036288493905 
18                             0.191800934387826 34.798231419674  0.694660084662119 -62.1626507289597 0.694660084662118 -62.1626507289597 0.199359954578419 41.2417043493651 
18.05                          0.178394648655031 30.7090435501687 0.705792617275544 -69.4982194012587 0.705792617275543 -69.4982194012588 0.188878009537985 38.4821941106166 
18.1                           0.162582075251396 26.5494119651913 0.716359601415059 -76.802642826799 0.716359601415057 -76.802642826799 0.176367253511237 35.9369281336989 
18.15                          0.144658644731825 22.5026185822372 0.726349709720284 -84.0898069097817 0.726349709720283 -84.0898069097817 0.162271462887774 33.8537492202831 
18.2                           0.124974485923223 18.8349217971957 0.735727657287662 -91.3715513453896 0.73572765728766 -91.3715513453896 0.147156496562901 32.5487711032794 
18.25                          0.103949098302891 16.0063570986389 0.744442291195259 -98.6578284728585 0.744442291195257 -98.6578284728585 0.131754994255472 32.4429862598588 
18.3                           0.0821482169385697 14.9504961559975 0.752433223949663 -105.956994254737 0.752433223949662 -105.956994254737 0.117053601852405 34.083741774621  
18.35                          0.0605656329229348 17.8902614680354 0.759635739766074 -113.276173610185 0.759635739766073 -113.276173610185 0.104413667288812 38.0757659545672 
18.4                           0.041743027370059 30.7285214578956 0.765983844611842 -120.621652214187 0.765983844611842 -120.621652214187 0.0956251762613013 44.7460391654244 
18.45                          0.0332840454999059 62.5412183307709 0.771411456811755 -127.999254986169 0.771411456811755 -127.999254986169 0.0926007400448221 53.4562377379573 
18.5                           0.0432061440786147 93.5608601082395 0.775851853244363 -135.414678474688 0.775851853244362 -135.414678474688 0.096503701697937 62.2839407509056 
18.55                          0.0640130747533214 105.342750452576 0.779235595740179 -142.873750477977 0.779235595740179 -142.873750477977 0.107039388651427 69.1279877254773 
18.6                           0.0886950995264679 107.17643688746  0.781487260406328 -150.382595435019 0.781487260406329 -150.382595435019 0.122878128595704 73.0555923813912 
18.65                          0.115071603309075 104.761823090016 0.782521380369645 -157.947688113568 0.782521380369646 -157.947688113568 0.142590703233514 74.239519443402  
18.7                           0.142487433480068 100.234830249871 0.782238097319358 -165.57578074798 0.782238097319359 -165.57578074798 0.16512415457287 73.2483239366442 
18.75                          0.170752671201906 94.4838568610272 0.780519111546858 -173.273690272083 0.78051911154686 -173.273690272083 0.189827965391905 70.6285578940648 
18.8                           0.199855870706478 87.9330502467773 0.777224635611406 178.952066473763 0.777224635611407 178.952066473762 0.216340792926945 66.7957671759212 
18.85                          0.229863499729712 80.8105504393213 0.772192195230124 171.095799023171 0.772192195230126 171.095799023171 0.244480106589944 62.0440790928485 
18.9                           0.260870239456349 73.2530559972995 0.765238262483026 163.15333392804  0.765238262483028 163.15333392804  0.274160300427066 56.5793222620705 
18.95                          0.292964649946306 65.3517997402598 0.756163795829776 155.122859088196 0.756163795829777 155.122859088196 0.305333206848292 50.5481923517883 
19                             0.326199966840412 57.1748707073131 0.744764699787584 147.005887742042 0.744764699787584 147.005887742042 0.337942903262104 44.059311715974  
19.05                          0.360567879399242 48.7789310002057 0.730847867952092 138.808273802725 0.730847867952091 138.808273802725 0.371890328830802 37.1976204739435 
19.1                           0.395976546313303 40.2157016414754 0.714252699283269 130.541167619337 0.714252699283268 130.541167619336 0.407006665337596 30.0340711279395 
19.15                          0.43223580772164 31.5355949021741 0.694876721014809 122.221758932895 0.694876721014808 122.221758932894 0.443036737942903 22.6320777668154 
19.2                           0.469053101499667 22.7895869545085 0.672702344806466 113.873627156703 0.672702344806464 113.873627156702 0.479634709451755 15.0516227558176 
19.25                          0.506042886643928 14.0298437558393 0.647820239332087 105.526527534866 0.647820239332086 105.526527534866 0.516373942862478 7.35155063457853 
19.3                           0.542750339542994 5.30936539203094 0.620443986158276 97.2155009529331 0.620443986158274 97.2155009529328 0.552771092358468 -0.409614472900963 
19.35                          0.578687065344101 -3.31915064506207 0.590911274055101 88.9793062604542 0.5909112740551  88.979306260454  0.588321667181715 -8.17404305908417 
19.4                           0.613373456452155 -11.8049919395853 0.559669166409178 80.8583150405392 0.559669166409177 80.8583150405391 0.622541431908908 -15.8858439213231 
19.45                          0.64638033435387 -20.1013587811199 0.527244498805459 72.8921374175013 0.527244498805458 72.8921374175012 0.655006256900899 -23.4927927805601 
19.5                           0.677362552056822 -28.1672011716187 0.494204072339673 65.1173171561348 0.494204072339673 65.1173171561348 0.685383296976244 -30.948133899135 
19.55                          0.706079403418832 -35.9686616199164 0.461111647051414 57.5654173928409 0.461111647051414 57.5654173928409 0.713448692790372 -38.2120869241734 
19.6                           0.732400137527871 -43.4799204920977 0.428488970083192 50.2617214448244 0.428488970083193 50.2617214448244 0.739090478244299 -45.2528058955454 
19.65                          0.756296289583407 -50.6833776168283 0.396786299928259 43.2246333800609 0.396786299928261 43.2246333800609 0.762298721493116 -52.046688817645 
19.7                           0.777824813979429 -57.5692331864605 0.366365011901385 36.4657281974155 0.366365011901386 36.4657281974154 0.783147067234536 -58.5780784385878 
19.75                          0.797106720531984 -64.1346186031848 0.337492024370141 29.9903078496294 0.337492024370142 29.9903078496294 0.801770418551249 -64.8384927479003 
19.8                           0.814305328255877 -70.3824617288801 0.310343786507874 23.7982801591352 0.310343786507875 23.7982801591351 0.81834279786736 -70.8255648815463 
19.85                          0.829606969010856 -76.3202591765675 0.285016684747308 17.8851853127775 0.28501668474731 17.8851853127774 0.83305808332461 -76.5418650662932 
19.9                           0.843205587970271 -81.9588892744572 0.261540777301199 12.2432308108919 0.2615407773012  12.2432308108918 0.846114917667837 -81.9937409314228 
19.95                          0.855291573386393 -87.311551730805 0.239894374193639 6.862241823225   0.23989437419364 6.86224182322489 0.857705990188102 -87.1902661449306 
20                             0.86604443642706 -92.3928767996676 0.220017778278423 1.73047666463796 0.220017778278424 1.73047666463782 0.868011213151347 -92.1423443815292 
20.05                          0.87562861924429 -97.2182141166595 0.201825244329608 -3.16470997683342 0.201825244329609 -3.16470997683352 0.877194005871337 -96.861982722934 
20.1                           0.884191630237618 -101.803090402025 0.185214782755966 -7.83635170560374 0.185214782755967 -7.83635170560384 0.885399849363767 -101.361727069837 
20.15                          0.891863778189439 -106.162814120485 0.170075810574734 -12.2974865483988 0.170075810574734 -12.2974865483989 0.892756368356382 -105.654240395762 
20.2                           0.898758915440441 -110.312201160376 0.156294863882121 -16.5608830798254 0.156294863882122 -16.5608830798255 0.899374349517456 -109.75200001948 
20.25                          0.904975750239622 -114.265395987441 0.143759678774366 -20.638854519067 0.143759678774366 -20.6388545190671 0.90534926236237 -113.667089908986 
20.3                           0.910599421830177 -118.035765470801 0.132361964954977 -24.5431406853437 0.132361964954977 -24.5431406853438 0.910762986188929 -117.411066307847 
20.35                          0.915703138228426 -121.635846265878 0.121999171830954 -28.2848406957686 0.121999171830954 -28.2848406957687 0.915685553638455 -120.994878292149 
20.4                           0.920349755368244 -125.077330426789 0.112575503684346 -31.8743825220811 0.112575503684346 -31.8743825220811 0.920176799585301 -124.4288283707  
20.45                          0.924593231180926 -128.371077366772 0.104002392465816 -35.321518536336 0.104002392465816 -35.321518536336 0.924287857657066 -127.722561477528 
20.5                           0.928479924489054 -131.527143206216 0.096198591430317 -38.6353387678774 0.096198591430317 -38.6353387678774 0.9280624814816  -130.885073477104 
20.55                          0.932049731321035 -134.554820910479 0.0890900136194437 -41.8242957122323 0.0890900136194437 -41.8242957122323 0.931538189013905 -133.924732562599 
20.6                           0.935337064551914 -137.462686467532 0.0826094070627197 -44.8962362027136 0.0826094070627196 -44.8962362027135 0.934747240292287 -136.849308708339 
20.65                          0.938371689811636 -140.258647764121 0.0766959332153255 -47.8584371378648 0.0766959332153255 -47.8584371378647 0.937717464918518 -139.666007705601 
20.7                           0.941179433654528 -142.949993871017 0.0712946956966437 -50.7176428222346 0.0712946956966436 -50.7176428222345 0.940472957731349 -142.381507341045 
20.75                          0.943782780626177 -145.543443219499 0.0663562517971097 -53.480102390849 0.0663562517971096 -53.4801023908489 0.943034661097855 -145.00199404022 
20.8                           0.946201375141261 -148.04518970805 0.0618361284718862 -56.1516063068728 0.0618361284718861 -56.1516063068727 0.945420850998273 -147.533198855781 
20.85                          0.948452442668345 -150.460946173579 0.0576943567583278 -58.7375212946578 0.0576943567583276 -58.7375212946576 0.947647542267002 -149.98043208165 
20.9                           0.95055114301857 -152.795984937257 0.0538950330144334 -61.2428233341107 0.0538950330144333 -61.2428233341105 0.949728826361297 -152.348616059707 
20.95                          0.95251086679792 -155.055175323468 0.0504059115014712 -63.6721285260014 0.0504059115014711 -63.6721285260013 0.951677153079411 -154.642315945568 
21                             0.954343484440429 -157.243018175768 0.0471980301805357 -66.0297217633161 0.0471980301805356 -66.0297217633159 0.953503565855876 -156.86576833755 
21.05                          0.956059555757607 -159.363677474066 0.044245369822375 -68.3195832273856 0.0442453698223749 -68.3195832273855 0.955217898672894 -159.022907765556 
21.1                           0.957668506640764 -161.421009205953 0.0415245453903592 -70.5454127813387 0.0415245453903591 -70.5454127813385 0.956828941255301 -161.117391097031 
21.15                          0.959178778438237 -163.41858767172 0.0390145279620109 -72.7106523662379 0.0390145279620109 -72.7106523662378 0.958344578053239 -163.152619954814 
21.2                           0.960597954585953 -165.359729414221 0.0366963950693466 -74.8185065234667 0.0366963950693465 -74.8185065234666 0.959771905542206 -165.131761263423 
21.25                          0.961932868279197 -167.247514966291 0.0345531071642396 -76.8719611751385 0.0345531071642396 -76.8719611751383 0.961117331561207 -167.057766051066 
21.3                           0.963189694315854 -169.0848086035  0.0325693078818233 -78.8738007957749 0.0325693078818232 -78.8738007957748 0.962386659742418 -168.933386637955 
21.35                          0.964374027697078 -170.874276281061 0.0307311458326865 -80.8266241056196 0.0307311458326865 -80.8266241056196 0.963585161537929 -170.76119233986 
21.4                           0.965490951122503 -172.618401922501 0.029026115768302 -82.7328584103049 0.0290261157683021 -82.7328584103047 0.964717637900579 -172.543583811067 
21.45                          0.966545093147712 -174.319502215331 0.0274429171094737 -84.5947727043634 0.0274429171094736 -84.5947727043634 0.96578847230955 -174.282806144266 
21.5                           0.967540678468114 -175.979740056344 0.025971327988063 -86.4144896480355 0.025971327988063 -86.4144896480356 0.966801676532276 -175.980960837178 
21.55                          0.968481571544054 -177.60113677668 0.0246020931168009 -88.1939965184882 0.0246020931168009 -88.1939965184882 0.967760930270322 -177.640016727651 
21.6                           0.969371314577102 -179.185583264891 0.0233268239634441 -89.9351552283132 0.0233268239634441 -89.9351552283134 0.968669615637727 -179.261819990787 
21.65                          0.970213160679082 179.265149904973 0.0221379098594673 -91.6397114962023 0.0221379098594672 -91.6397114962026 0.96953084725772 179.151896716268 
21.7                           0.971010102936833 177.749403243644 0.0210284388173286 -93.3093032471545 0.0210284388173285 -93.3093032471546 0.970347498630727 177.599505883797 
21.75                          0.971764899961464 176.265619928232 0.0199921269628462 -94.9454683125271 0.0199921269628462 -94.9454683125272 0.971122225317694 176.079477482255 
21.8                           0.972480098416603 174.812338116787 0.0190232556099668 -96.5496514937366 0.0190232556099668 -96.5496514937369 0.971857485393381 174.590371933893 
21.85                          0.973158052942138 173.388183925398 0.01811661511435 -98.1232110474214 0.0181166151143499 -98.1232110474217 0.972555557550826 173.130833664897 
21.9                           0.973800943825319 171.991865004523 0.0172674547402358 -99.6674246444323 0.0172674547402358 -99.6674246444325 0.97321855717761 171.69958518526  
21.95                          0.974410792717359 170.622164657695 0.0164714378627092 -101.183494850044 0.0164714378627092 -101.183494850044 0.973848450674527 170.295421648601 
22                             0.974989476648923 169.277936451512 0.0157246019055403 -102.672554168281 0.0157246019055404 -102.672554168281 0.974447068245832 168.917205848783 
22.05                          0.975538740560568 167.958099270994 0.0150233224841054 -104.135669689182 0.0150233224841054 -104.135669689183 0.975016115355778 167.563863614271 
22.1                           0.976060208532836 166.661632779043 0.0143642812843236 -105.573847374145 0.0143642812843236 -105.573847374146 0.975557183017494 166.234379564959 
22.15                          0.976555393874511 165.387573242895 0.0137444372628869 -106.98803601118 0.0137444372628869 -106.98803601118 0.976071757056254 164.927793199541 
22.2                           0.977025708205347 164.135009694156 0.0131610008020672 -108.379130868904 0.0131610008020673 -108.379130868905 0.976561226469116 163.643195284572 
22.25                          0.977472469650951 162.903080392354 0.0126114104947623 -109.747977075426 0.0126114104947623 -109.747977075427 0.977026890985974 162.379724519091 
22.3                           0.977896910251655 161.690969564903 0.012093312272821 -111.095372745816 0.0120933122728211 -111.095372745816 0.977469967922845 161.13656445114  
22.35                          0.978300182673752 160.497904399042 0.0116045406246526 -112.422071879689 0.0116045406246526 -112.42207187969 0.977891598406121 159.912940624764 
22.4                           0.978683366300079 159.323152263686 0.0111431016771793 -113.728787048454 0.0111431016771793 -113.728787048454 0.97829285303627 158.708117938045 
22.45                          0.979047472767083 158.166018141263 0.0107071579428154 -115.016191889975 0.0107071579428154 -115.016191889975 0.978674737050767 157.521398194541 
22.5                           0.979393451007178 157.025842251525 0.0102950145547397 -116.284923426816 0.0102950145547397 -116.284923426817 0.979038195038551 156.352117832127 
22.55                          0.97972219184798 155.901997851019 0.00990510683365256 -117.535584222771 0.00990510683365259 -117.535584222771 0.979384115251928 155.199645814688 
22.6                           0.980034532213807 154.793889193457 0.00953598904678216 -118.768744391054 0.00953598904678219 -118.768744391054 0.979713333556342 154.063381673434 
22.65                          0.980331258969478 153.7009496376   0.00918632423541635 -119.984943466377 0.00918632423541639 -119.984943466377 0.980026637053692 152.942753685798 
22.7                           0.980613112441798 152.622639890488 0.0088548750009357 -121.184692152018 0.00885487500093574 -121.184692152018 0.980324767410759 151.83721718096  
22.75                          0.980880789650102 151.558446375005 0.00854049515142396 -122.368473952039 0.00854049515142403 -122.368473952039 0.980608423920787 150.746252961986 
22.8                           0.981134947273686 150.507879711718 0.00824212212163336 -123.536746697915 0.0082421221216334 -123.536746697915 0.980878266323106 149.669365835475 
22.85                          0.981376204380934 149.470473305888 0.0079587700885462 -124.689943978032 0.00795877008854623 -124.689943978032 0.981134917403034 148.606083240382 
22.9                           0.981605144942231 148.445782031312 0.00768952371315604 -125.828476477774 0.00768952371315602 -125.828476477774 0.981378965391901 147.555953968402 
22.95                          0.981822320146424 147.433381003427 0.00743353244651309 -126.952733237268 0.00743353244651312 -126.952733237268 0.98161096618496 146.518546968971 
23                             0.982028250538507 146.432864434761 0.00719000534466208 -128.06308283322 0.0071900053446621 -128.06308283322 0.981831445393155 145.493450232494 
