! Touchstone file exported from HFSS 3D Layout Design 2026.1.0
!        File:           D:/Work/SIM/ADS_AUTO_SIM/projects/RFSOC_RF/TX_Fillter.aedt
!        Generated:      08:21:31 AM Aug 31, 2026
!        Design:         TX_BAND1_MCFIL_R76_CNN044
!        Project:        TX_Fillter
!
# GHz S MA R 50.000000
! Terminal data exported
! Port[1] = Port1
! Port[2] = Port2
14                             0.973368548165132 -164.113709051559 0.00360821524280255 -176.643852615979 0.00360821524280255 -176.643852615979 0.974575878185583 -158.955229536857 
14.05                          0.972890172919399 -165.000360167615 0.00367805014514601 -177.057156886589 0.00367805014514604 -177.057156886588 0.974116881949854 -159.822946598692 
14.1                           0.972397297748232 -165.892782437175 0.00375113038434339 -177.450524113581 0.00375113038434343 -177.450524113581 0.973643798518674 -160.696386992283 
14.15                          0.971889227286535 -166.791145957884 0.00382770758954161 -177.823519999768 0.00382770758954168 -177.823519999768 0.973155943669299 -161.57571623335 
14.2                           0.971365220955621 -167.695629715621 0.00390805779005709 -178.175745390373 0.00390805779005714 -178.175745390373 0.972652588146264 -162.461108540776 
14.25                          0.970824489271077 -168.606422158522 0.00399248406664666 -178.506843559497 0.00399248406664673 -178.506843559498 0.972132953943354 -163.352747408183 
14.3                           0.9702661897859  -169.523721815899 0.00408131951111551 -178.816508286362 0.00408131951111559 -178.816508286363 0.97159621021489 -164.250826220865 
14.35                          0.969689422626421 -170.447737966269 0.00417493053175468 -179.104492750658 0.00417493053175477 -179.104492750659 0.97104146877286 -165.155548922377 
14.4                           0.969093225572805 -171.378691359171 0.00427372054692034 -179.370619265142 0.00427372054692042 -179.370619265143 0.97046777912048 -166.067130735576 
14.45                          0.968476568629321 -172.316814995967 0.00437813411458472 -179.614789849177 0.00437813411458478 -179.614789849178 0.969874122966011 -166.985798943434 
14.5                           0.967838348021945 -173.262354975418 0.00448866155203233 -179.836997628943 0.00448866155203241 -179.836997628943 0.969259408152792 -167.91179373556 
14.55                          0.967177379552034 -174.215571410484 0.0046058441071983 179.962660971684 0.00460584410719837 179.962660971682 0.968622461932301 -168.845369127032 
14.6                           0.966492391224555 -175.176739423535 0.00473027975163581 179.783973311015 0.00473027975163587 179.783973311014 0.967962023496547 -169.786793956954 
14.65                          0.965782015057437 -176.146150228017 0.00486262967498901 179.626596970808 0.00486262967498904 179.626596970807 0.967276735673714 -170.736352974983 
14.7                           0.965044777964676 -177.124112305575 0.00500362557241702 179.490045681752 0.00500362557241709 179.490045681751 0.966565135676643 -171.694348025105 
14.75                          0.964279091589597 -178.110952688709 0.00515407783001044 179.373674890799 0.00515407783001046 179.373674890798 0.965825644776904 -172.661099337041 
14.8                           0.963483240945583 -179.107018360285 0.00531488472928416 179.276667163994 0.00531488472928416 179.276667163994 0.965056556757515 -173.63694693697 
14.85                          0.962655371699197 179.887322217378 0.00548704281083674 179.198017654137 0.00548704281083674 179.198017654137 0.964256024974152 -174.622252190712 
14.9                           0.961793475904218 178.871677429529 0.00567165855985543 179.136519896025 0.00567165855985544 179.136519896024 0.963422047827374 -175.617399494161 
14.95                          0.960895375963934 177.845630675971 0.005869961603081 179.090752220542 0.00586996160308097 179.090752220542 0.962552452416085 -176.622798127706 
15                             0.959958706562077 176.808738359794 0.00608331963903748 179.059065099778 0.00608331963903747 179.059065099778 0.961644876104123 -177.638884293511 
15.05                          0.958980894258899 175.760527677268 0.00631325536188924 179.039569745368 0.00631325536188922 179.039569745368 0.960696745686369 -178.666123357033 
15.1                           0.957959134396554 174.700494185577 0.00656146568553775 179.03012827841  0.0065614656855377 179.03012827841  0.959705253786433 -179.705012317017 
15.15                          0.956890364895431 173.628099122005 0.00682984363012634 179.028345768302 0.0068298436301263 179.028345768302 0.958667332053088 179.24391746857  
15.2                           0.955771236448113 172.542766444597 0.00712050329991369 179.031564397338 0.00712050329991364 179.031564397337 0.957579620644709 178.180097269405 
15.25                          0.954598078527484 171.44387956029  0.00743580846184904 179.036859945877 0.007435808461849 179.036859945877 0.956438433397292 177.102917646997 
15.3                           0.953366860516698 170.330777701849 0.0077784053309699 179.041040708682 0.00777840533096983 179.041040708682 0.955239717958446 176.011724755753 
15.35                          0.952073147137083 169.202751909666 0.00815126028538692 179.040648847153 0.00815126028538686 179.040648847153 0.953979010032828 174.905816234898 
15.4                           0.950712047190121 168.059040568417 0.00855770337433418 179.03196405669  0.00855770337433411 179.03196405669  0.952651380717935 173.784436638804 
15.45                          0.949278154434792 166.898824441739 0.00900147865269333 179.0110092868   0.00900147865269327 179.011009286799 0.951251375706272 172.646772345949 
15.5                           0.947765479183347 165.721221140322 0.00948680258089855 178.973558098778 0.00948680258089849 178.973558098778 0.949772944881638 171.491945878464 
15.55                          0.94616736890633 164.525278950078 0.0100184319780266 178.915143087619 0.0100184319780266 178.915143087619 0.948209360532546 170.319009554821 
15.6                           0.944476415777868 163.309969937358 0.0106017433178794 178.831064637614 0.0106017433178793 178.831064637614 0.946553122030478 169.126938387729 
15.65                          0.942684348647998 162.074182237462 0.0112428255250027 178.716399131029 0.0112428255250027 178.716399131029 0.944795844356949 167.9146221277   
15.7                           0.940781906378157 160.816711421171 0.011948588874783 178.566005591355 0.0119485888747829 178.566005591355 0.94292812728826 166.680856340035 
15.75                          0.938758688791538 159.536250821893 0.012726893147494 178.374529620405 0.012726893147494 178.374529620405 0.940939401331619 165.424332389568 
15.8                           0.93660298063656 158.231380693876 0.0135866988532605 178.13640338295  0.0135866988532604 178.13640338295  0.938817745613869 164.143626193721 
15.85                          0.934301542894509 156.900556060726 0.0145382461613585 177.84584030181  0.0145382461613585 177.84584030181  0.9365496718074  162.837185591275 
15.9                           0.931839364424695 155.542093104768 0.0155932671672333 177.496823045316 0.0155932671672333 177.496823045316 0.934119866777068 161.503316163325 
15.95                          0.929199365260103 154.154153944279 0.0167652383551167 177.083083309828 0.0167652383551166 177.083083309828 0.931510884871067 160.140165336599 
16                             0.926362040752981 152.734729651494 0.0180696816116972 176.598071811455 0.0180696816116972 176.598071811455 0.928702778561812 158.745704602072 
16.05                          0.923305033109834 151.281621386227 0.0195245239726519 176.034916790251 0.0195245239726518 176.03491679025  0.925672653350204 157.317709700067 
16.1                           0.920002613510121 149.792419568607 0.0211505285001382 175.38636918214  0.0211505285001381 175.38636918214  0.92239412933032 155.853738667528 
16.15                          0.916425053806063 148.264481106301 0.02297181135731 174.644732413787 0.0229718113573099 174.644732413787 0.918836687393927 154.351107730587 
16.2                           0.912537861561423 146.694904852808 0.025016463317557 173.801774509672 0.0250164633175569 173.801774509672 0.914964872529567 152.806865182141 
16.25                          0.908300845701525 145.0805057447   0.0273172976433147 172.848619858706 0.0273172976433146 172.848619858706 0.910737319817663 151.21776365148  
16.3                           0.903666972132142 143.417788510973 0.0299127504457882 171.775617566812 0.0299127504457881 171.775617566811 0.906105560335578 149.580231616034 
16.35                          0.898580959249708 141.70292256754  0.0328479641099875 170.572182833185 0.0328479641099874 170.572182833184 0.901012554147092 147.890345726859 
16.4                           0.892977552454472 139.931720862001 0.0361760886989535 169.226607267039 0.0361760886989534 169.226607267038 0.89539088597614 146.143806681394 
16.45                          0.886779405255673 138.099627267034 0.0399598395297555 167.72583358826  0.0399598395297553 167.72583358826  0.889160546694608 144.335923235349 
16.5                           0.879894484039614 136.201720026268 0.0442733496100555 166.055189885533 0.0442733496100554 166.055189885533 0.882226212097587 142.461611904787 
16.55                          0.872212907814079 134.232743349775 0.0492043501820073 164.19807882634  0.0492043501820071 164.19807882634  0.874473923390887 140.515424608484 
16.6                           0.863603140832745 132.187186500531 0.0548566956767138 162.135618434413 0.0548566956767137 162.135618434413 0.865767079102332 138.491623944952 
16.65                          0.853907489540987 130.059441101969 0.0613532114022058 159.846234150525 0.0613532114022057 159.846234150525 0.855941680705563 136.384337557906 
16.7                           0.842936942883332 127.844085207046 0.0688387673920669 157.305208349927 0.0688387673920668 157.305208349927 0.844800862015037 134.187841533283 
16.75                          0.83046558544351 125.536370265151 0.0774833445028736 154.48420571824  0.0774833445028735 154.48420571824  0.832108925775629 131.897051605356 
16.8                           0.816225190818481 123.133029195547 0.0874846200281711 151.35081468214  0.0874846200281712 151.35081468214  0.817585497724883 129.508345277047 
16.85                          0.799901308236809 120.633586127323 0.0990692047492403 147.868182080563 0.0990692047492404 147.868182080563 0.800901135089638 127.020904414514 
16.9                           0.781133404274542 118.042436166306 0.112491045117079 143.994878000572 0.112491045117079 143.994878000571 0.78167701989543 124.43886312158  
16.95                          0.759523702972574 115.372075390204 0.128024611679408 139.685218390674 0.128024611679408 139.685218390673 0.759493537019681 121.774670922219 
17                             0.734662558788808 112.647972952536 0.145949368224276 134.890398643062 0.145949368224276 134.890398643062 0.733915892910872 119.054216457119 
17.05                          0.706182443246841 109.915602944694 0.166520961362186 129.560938809115 0.166520961362186 129.560938809115 0.704549468582241 116.324321779041 
17.1                           0.673856714578169 107.249864655252 0.189924465423578 123.651054952135 0.189924465423578 123.651054952135 0.67114216518186 113.662985559463 
17.15                          0.63775924514189 104.766002385831 0.21620765597071 117.125515274313 0.21620765597071 117.125515274313 0.633751586688736 111.191691743724 
17.2                           0.598487608998512 102.628243611797 0.245200246023475 109.969073228154 0.245200246023476 109.969073228154 0.592982220732501 109.086157172327 
17.25                          0.557411292799907 101.046550827972 0.276439869298334 102.197420447553 0.276439869298334 102.197420447552 0.550256296817411 107.575569744809 
17.3                           0.516826046782359 100.243664572037 0.309143310796251 93.866768138391  0.309143310796251 93.8667681383909 0.507997626297826 106.910473328997 
17.35                          0.47979882328914 100.372210364632 0.342267579360523 85.077431795061  0.342267579360523 85.0774317950609 0.469497756464462 107.273820063297 
17.4                           0.449484064875756 101.388064615141 0.374679820283705 75.9669044167476 0.374679820283705 75.9669044167477 0.438207058041642 108.63524282044  
17.45                          0.427969734485667 102.958133900226 0.405395607684574 66.6913755451098 0.405395607684574 66.6913755451099 0.416470203575417 110.63347238782  
17.5                           0.41525807628133 104.52780106201  0.433789922769467 57.4004567022825 0.433789922769467 57.4004567022826 0.404353500709715 112.642449202926 
17.55                          0.409189615562152 105.554735120969 0.459688193318786 48.2139354529714 0.459688193318788 48.2139354529716 0.399516842872771 114.044306111922 
17.6                           0.406400341035384 105.722367926948 0.483312285322857 39.2082074872212 0.483312285322859 39.2082074872214 0.398282250804257 114.483364113127 
17.65                          0.403528334094748 104.979990280326 0.505131022353842 30.4146846948273 0.505131022353845 30.4146846948275 0.396991725028147 113.908804175289 
17.7                           0.397951705840843 103.455419361793 0.525691085305338 21.8273014186763 0.525691085305341 21.8273014186764 0.392815543019951 112.46583080276  
17.75                          0.387969789003365 101.356959184633 0.545481732943189 13.4142479614344 0.545481732943192 13.4142479614344 0.38392571714959 110.379467033185 
17.8                           0.37268894767491 98.920307350749  0.564850680209396 5.12995087315764 0.564850680209398 5.12995087315762 0.36934632144817 107.893937061732 
17.85                          0.351853423605427 96.4000862241401 0.583965094126293 -3.07478267840284 0.583965094126295 -3.0747826784029 0.348750531518263 105.263108502052 
17.9                           0.325739489482812 94.0923701066545 0.602805189915724 -11.2450307769913 0.602805189915725 -11.2450307769913 0.322328525414377 102.774718547347 
17.95                          0.295151397615804 92.3811791697533 0.621180996839513 -19.4162823638868 0.621180996839513 -19.4162823638868 0.290761734853705 100.801976235551 
18                             0.261533650366903 91.8089431079989 0.638767815831032 -27.6109425479091 0.63876781583103 -27.6109425479091 0.2553168571644  99.8905304335861 
18.05                          0.227222706074359 93.1609601887915 0.65515834829551 -35.8366786038981 0.655158348295508 -35.836678603898 0.218099850213122 100.896866882934 
18.1                           0.19584546363458 97.4730289823712 0.669928105617884 -44.0866139386448 0.669928105617882 -44.0866139386446 0.182566051952128 105.148346914729 
18.15                          0.172600303937407 105.600479882496 0.682706451166773 -52.3413683822029 0.682706451166771 -52.3413683822026 0.154281153679172 114.260506374697 
18.2                           0.163199318088224 116.833993056274 0.693241158479806 -60.5727356544527 0.693241158479804 -60.5727356544524 0.140715900336027 128.362270488684 
18.25                          0.170191728816613 127.968810104481 0.701443013849465 -68.7484620062362 0.701443013849464 -68.7484620062358 0.146690813050609 143.319216306543 
18.3                           0.190419546261377 135.811599104651 0.70740077202055 -76.8373111781255 0.707400772020549 -76.8373111781251 0.16889015740332 153.982695291845 
18.35                          0.217957417195814 139.657328887167 0.711364760680461 -84.8135331217208 0.711364760680461 -84.8135331217205 0.199685067437459 159.388515809553 
18.4                           0.247771545115943 140.336351159917 0.713706028538399 -92.6600529837806 0.7137060285384  -92.6600529837804 0.233012750367432 160.983235081475 
18.45                          0.276596279998446 138.838523697224 0.714863242072359 -100.370076121156 0.71486324207236 -100.370076121156 0.265303929237718 160.197521462412 
18.5                           0.302513626820663 135.888354394527 0.715289845354809 -107.947198979032 0.715289845354809 -107.947198979032 0.294616886990991 157.961960411734 
18.55                          0.324463097755858 131.951533084344 0.715410391575061 -115.404384847811 0.71541039157506 -115.404384847811 0.319939618221104 154.832614677406 
18.6                           0.341914980717381 127.314534379291 0.715589967741907 -122.762258042386 0.715589967741905 -122.762258042386 0.340799743855218 151.139970345173 
18.65                          0.354671451174615 122.148662321331 0.716116470723596 -130.04712363141 0.716116470723592 -130.04712363141 0.357049825932615 147.082740494321 
18.7                           0.362747019161166 116.551494536065 0.717193139915901 -137.289002716189 0.717193139915896 -137.289002716189 0.368744191826503 142.781372368362 
18.75                          0.366298899148144 110.572361188725 0.718938112084199 -144.519848647577 0.718938112084193 -144.519848647577 0.376067167886242 138.308367297224 
18.8                           0.365590790096534 104.227876570431 0.721388228170543 -151.772014430371 0.721388228170536 -151.772014430371 0.37929298937291 133.705551890249 
18.85                          0.36098012018696 97.5114218545587 0.724505247372444 -159.076987778644 0.724505247372438 -159.076987778645 0.378766185316365 128.99362624659  
18.9                           0.352921977651627 90.3989973161635 0.728183544619508 -166.464393965649 0.728183544619503 -166.464393965649 0.374894806306962 124.176647109795 
18.95                          0.34198435826083 82.8531046175568 0.732259007253552 -173.961276527945 0.732259007253548 -173.961276527945 0.368150397479803 119.242666754546 
19                             0.328869702067208 74.8261508632986 0.736519059778762 178.408312011487 0.73651905977876 178.408312011487 0.359069429213812 114.160996892631 
19.05                          0.314437197705732 66.2652185939473 0.74071347394477 170.623358327604 0.740713473944769 170.623358327604 0.348251864189772 108.876290502942 
19.1                           0.299719000148183 57.1208134713243 0.744564897621221 162.665524745086 0.744564897621223 162.665524745086 0.336354576281684 103.299838793247 
19.15                          0.28592130756156 47.3628591881233 0.74777702218139 154.518358457192 0.747777022181393 154.518358457191 0.324081393123828 97.2992970809253 
19.2                           0.274398800200807 37.0061320765329 0.750037335675504 146.166139282045 0.750037335675507 146.166139282044 0.312178068425954 90.6896499493695 
19.25                          0.266591157977404 26.1415183557198 0.751010977753916 137.592562733749 0.751010977753919 137.592562733748 0.301448232304059 83.2307188176844 
19.3                           0.263919500404969 14.9573495941669 0.750322939958829 128.779628746426 0.750322939958831 128.779628746425 0.292810341813547 74.6398758742145 
19.35                          0.267662599543947 3.72446219412549 0.747528410569275 119.707302380035 0.747528410569274 119.707302380033 0.287405166536985 64.6321359033728 
19.4                           0.278853386201458 -7.27040303288968 0.742076104948407 110.354691988167 0.742076104948403 110.354691988166 0.286723139627319 52.9994648952686 
19.45                          0.298221528975461 -17.8183060965604 0.733277391798216 100.703574706133 0.733277391798209 100.703574706131 0.292645833706767 39.7248896930589 
19.5                           0.326151187309375 -27.8515788473377 0.720304307323119 90.7449364131396 0.720304307323113 90.7449364131387 0.307233200192312 25.0811665558249 
19.55                          0.362585860900941 -37.4374244859395 0.702248373131678 80.4885365097436 0.702248373131672 80.4885365097431 0.332165593778829 9.61812610132266 
19.6                           0.406858002081786 -46.7133039648348 0.678269815398228 69.9741118303307 0.678269815398226 69.9741118303306 0.368027578346857 -6.00498500057949 
19.65                          0.457523565581079 -55.8078924618424 0.647838820456481 59.2808101371518 0.647838820456485 59.2808101371518 0.413844527572236 -21.2324820884744 
19.7                           0.51234944777047 -64.7860963031929 0.61101087152569 48.5297981302858 0.611010871525702 48.5297981302859 0.467144689042737 -35.714340502526 
19.75                          0.568563269195141 -73.6332411616547 0.568614073349714 37.8756341824485 0.568614073349731 37.8756341824483 0.524490467737391 -49.2765923920659 
19.8                           0.623332685794181 -82.2726820621277 0.522221180364552 27.4862139227686 0.522221180364575 27.4862139227678 0.582236784099745 -61.8474801819632 
19.85                          0.674289148872698 -90.6002072831798 0.473874521721789 17.5171545260655 0.473874521721812 17.5171545260639 0.637244542138466 -73.4059421353246 
19.9                           0.719876223452658 -98.5176645770107 0.425673419880367 8.08985668917052 0.425673419880389 8.08985668916807 0.687330208021023 -83.9613793010533 
19.95                          0.759416985765594 -105.954572304307 0.379402511503185 -0.719786794256665 0.379402511503204 -0.719786794259996 0.731367986092901 -93.5485572044496 
20                             0.79295273538557 -112.875287696686 0.336325281766346 -8.88093364620533 0.33632528176636 -8.88093364620934 0.769118589466528 -102.224208733413 
20.05                          0.820985004920439 -119.275588724227 0.297156891869662 -16.3993140679655 0.297156891869671 -16.39931406797  0.800937330206387 -110.061061978765 
20.1                           0.844234151881807 -125.174333356807 0.262154839808101 -23.3057897380653 0.262154839808106 -23.3057897380701 0.827492302570474 -117.140382023819 
20.15                          0.863467494117558 -130.604551963262 0.231253026274753 -29.6456799663591 0.231253026274755 -29.645679966364 0.849556692835958 -123.545132177137 
20.2                           0.879400825573242 -135.606179295667 0.204188591624818 -35.4705699728787 0.204188591624817 -35.4705699728834 0.867883495745409 -129.35495838225 
20.25                          0.892654874129942 -140.221000737067 0.180599683070295 -40.8328357214718 0.180599683070292 -40.8328357214763 0.883144225631114 -134.643176714043 
20.3                           0.903745254653547 -144.48955486686 0.160091378796724 -45.7824089965085 0.16009137879672 -45.7824089965126 0.895908268064349 -139.475388061486 
20.35                          0.913089494211081 -148.449473822427 0.142275489155155 -50.3651312192529 0.142275489155152 -50.3651312192564 0.906644220770615 -143.909200132438 
20.4                           0.921020876866305 -152.134766266966 0.126791854090478 -54.6221231152853 0.126791854090475 -54.6221231152883 0.915731128196033 -147.99460287755 
20.45                          0.927803590829105 -155.575665422652 0.113317748385436 -58.5897490212849 0.113317748385432 -58.5897490212874 0.923472791938726 -151.774671242556 
20.5                           0.933646633886383 -158.798786438713 0.101570229821227 -62.2998966356233 0.101570229821224 -62.2998966356251 0.930111779748174 -155.286388034825 
20.55                          0.938715571379955 -161.827432921146 0.0913046373566987 -65.7804002298818 0.0913046373566965 -65.7804002298832 0.935841729610625 -158.561467951662 
20.6                           0.943142044809646 -164.681958454669 0.082311226890991 -69.0555078793982 0.0823112268909895 -69.055507879399 0.94081756724644 -161.627121897816 
20.65                          0.947031268629881 -167.380131216605 0.0744111076777096 -72.1463390850871 0.0744111076777086 -72.1463390850875 0.945163727535186 -164.506735869953 
20.7                           0.950467857140036 -169.937475443301 0.0674521197062782 -75.0713066500279 0.0674521197062778 -75.0713066500279 0.948980651536196 -167.220458445547 
20.75                          0.953520320345239 -172.367578398535 0.0613049762364779 -77.8464924307965 0.061304976236478 -77.8464924307961 0.952349870188642 -169.78570110812 
20.8                           0.956244523149083 -174.682359730844 0.0558598123168324 -80.4859751619621 0.055859812316833 -80.4859751619617 0.955337963465691 -172.217560227584 
20.85                          0.958686347613268 -176.892304386402 0.0510231785078048 -83.0021128952355 0.0510231785078057 -83.0021128952347 0.957999639857046 -174.529170991018 
20.9                           0.960883746715975 -179.006662244874 0.0467154660989056 -85.4057845220636 0.0467154660989067 -85.4057845220629 0.960380134200166 -176.732003442316 
20.95                          0.962868334722214 178.966381618872 0.0428687252799803 -87.70659545076  0.0428687252799815 -87.7065954507594 0.962517079731136 -178.83610989912 
21                             0.96466662463145 177.01956207893  0.0394248285666161 -89.913052423607 0.0394248285666177 -89.9130524236062 0.964441975147297 179.149668154199 
21.05                          0.966300996286355 175.146410802967 0.0363339309505604 -92.0327120485789 0.0363339309505621 -92.032712048578 0.966181339474496 177.217526801015 
21.1                           0.967790458236583 173.341151492535 0.0335531815190315 -94.0723070847055 0.0335531815190332 -94.0723070847048 0.967757625714975 175.360554274636 
21.15                          0.969151250990095 171.598610650417 0.0310456462896553 -96.0378539656129 0.031045646289657 -96.0378539656123 0.969189947489815 173.572608591992 
21.2                           0.970397327678733 169.914141426163 0.0287794074586568 -97.9347445246456 0.0287794074586584 -97.9347445246453 0.970494660113185 171.84821428223  
21.25                          0.971540739470593 168.283558470875 0.0267268095059279 -99.7678244195573 0.0267268095059294 -99.7678244195571 0.971685827835274 170.182474956913 
21.3                           0.972591946547496 166.703082064359 0.0248638273435214 -101.541460351308 0.0248638273435228 -101.541460351308 0.972775601635345 168.570999050395 
21.35                          0.973560070576309 165.169290061741 0.0231695358301002 -103.259597828233 0.0231695358301015 -103.259597828233 0.973774526365839 167.009836536966 
21.4                           0.974453100922336 163.679076446302 0.021625663500615 -104.925810938101 0.0216256635006162 -104.925810938101 0.974691791806487 165.495424822141 
21.45                          0.975278064072376 162.229615475793 0.0202162163245651 -106.543345349505 0.0202162163245662 -106.543345349505 0.975535438953868 164.024542324393 
21.5                           0.976041163625431 160.818330576424 0.0189271597739794 -108.115155563571 0.0189271597739803 -108.115155563572 0.976312530398513 162.594268523518 
21.55                          0.976747896601086 159.442867277228 0.0177461495242883 -109.64393727072 0.0177461495242891 -109.643937270721 0.977029291742247 161.201949463795 
21.6                           0.977403150584058 158.101069592334 0.0166623027945274 -111.132155529381 0.0166623027945281 -111.132155529382 0.977691229543698 159.845167873098 
21.65                          0.978011285275314 156.7909593538   0.0156660037177703 -112.582069369322 0.0156660037177708 -112.582069369323 0.978303230145152 158.521717200585 
21.7                           0.978576201286563 155.510718076582 0.0147487372701968 -113.995753327402 0.0147487372701972 -113.995753327403 0.978869642850931 157.229578991452 
21.75                          0.979101398444257 154.258671002667 0.0139029472216258 -115.375116344756 0.013902947221626 -115.375116344756 0.979394350236985 155.966903112426 
21.8                           0.979590025423041 153.033273025897 0.0131219143383031 -116.721918388744 0.0131219143383033 -116.721918388745 0.979880827829048 154.731990420008 
21.85                          0.980044922177854 151.833096244369 0.0123996517004685 -118.037785108205 0.0123996517004685 -118.037785108205 0.980332194958614 153.523277528171 
21.9                           0.980468656366794 150.656818925194 0.0117308145175739 -119.324220784649 0.0117308145175738 -119.324220784649 0.98075125826659 152.339323385749 
21.95                          0.980863554736785 149.503215698133 0.0111106222532995 -120.582619803577 0.0111106222532993 -120.582619803576 0.981140549054048 151.178797418249 
22                             0.981231730268477 148.371148821235 0.0105347912272776 -121.814276837687 0.0105347912272774 -121.814276837686 0.981502355463164 150.040469025781 
22.05                          0.981575105735971 147.259560384004 0.00999947615418552 -123.020395906452 0.00999947615418525 -123.020395906451 0.981838750297493 148.923198259798 
22.1                           0.981895434223433 146.167465332513 0.00950121932459226 -124.202098453413 0.00950121932459198 -124.202098453412 0.982151615150355 147.825927527156 
22.15                          0.982194317048768 145.09394521687  0.00903690633458135 -125.360430562965 0.00903690633458104 -125.360430562964 0.982442661396238 146.747674191816 
22.2                           0.98247321946981 144.038142574973 0.00860372744002005 -126.496369421753 0.00860372744001973 -126.496369421751 0.982713448507496 145.687523962798 
22.25                          0.982733484487375 142.999255878026 0.00819914375233805 -127.6108291156  0.00819914375233767 -127.610829115598 0.982965400082859 144.644624972505 
22.3                           0.982976345009456 141.976534973106 0.00782085761067549 -128.704665840778 0.00782085761067517 -128.704665840775 0.983199817912087 143.618182462623 
22.35                          0.983202934599571 140.969276966444 0.00746678656423052 -129.778682598043 0.00746678656423017 -129.77868259804 0.983417894349929 142.607454005959 
22.4                           0.983414296998088 139.976822498309 0.00713504048182565 -130.833633428988 0.00713504048182527 -130.833633428985 0.983620723230181 141.611745202074 
22.45                          0.983611394577049 138.998552366511 0.00682390137579846 -131.870227246581 0.00682390137579816 -131.870227246578 0.983809309515506 140.630405792633 
22.5                           0.983795115865317 138.033884460893 0.00653180558648946 -132.889131305207 0.00653180558648916 -132.889131305204 0.98398457784941 139.662826149387 
22.55                          0.983966282261152 137.082270975758 0.00625732802366115 -133.890974349836 0.00625732802366088 -133.890974349832 0.984147380152336 138.70843409359  
22.6                           0.984125654032648 136.143195871121 0.00599916820362981 -134.876349479036 0.00599916820362955 -134.876349479032 0.984298502383313 137.766692010834 
22.65                          0.984273935692531 135.216172557157 0.00575613785695449 -135.845816752304 0.00575613785695427 -135.845816752301 0.98443867057138 136.837094229658 
22.7                           0.98441178082194 134.300741779168 0.00552714991223463 -136.799905568514 0.00552714991223444 -136.799905568511 0.984568556206435 135.919164636132 
22.75                          0.984539796407813 133.396469683009 0.0053112086877627 -137.739116839067 0.00531120868776256 -137.739116839064 0.98468878106687 135.012454499898 
22.8                           0.984658546749943 132.502946043181 0.00510740114517355 -138.663924976582 0.00510740114517342 -138.663924976579 0.984799921550899 134.116540490056 
22.85                          0.984768556986507 131.619782637785 0.00491488907841093 -139.574779717517 0.00491488907841085 -139.574779717516 0.984902512569589 133.231022861745 
22.9                           0.984870316280621 130.746611756267 0.00473290212779484 -140.472107795016 0.00473290212779477 -140.472107795015 0.984997051052032 132.355523796465 
22.95                          0.984964280705143 129.883084827399 0.00456073152312334 -141.356314476434 0.00456073152312333 -141.356314476434 0.98508399910658 131.489685881095 
23                             0.985050875858341 129.02887115631  0.00439772447193599 -142.227784978393 0.00439772447193601 -142.227784978393 0.985163786876521 130.633170712213 
