! Touchstone file exported from HFSS 3D Layout Design 2026.1.0
!        File:           D:/Work/SIM/ADS_AUTO_SIM/projects/RFSOC_RF/TX_Fillter.aedt
!        Generated:      07:34:28 AM Aug 31, 2026
!        Design:         TX_BAND1_MCFIL_R70_CNN041
!        Project:        TX_Fillter
!
# GHz S MA R 50.000000
! Terminal data exported
! Port[1] = Port1
! Port[2] = Port2
14                             0.972510398421233 -164.371901911158 0.00384515204724813 -176.547140477616 0.00384515204724812 -176.547140477616 0.973306321457268 -163.525572683285 
14.05                          0.971998410079084 -165.263186178135 0.00392332502237891 -176.911177725012 0.00392332502237893 -176.911177725011 0.972817788766245 -164.396777166514 
14.1                           0.971470305500007 -166.160821092641 0.00400533788342275 -177.255058528794 0.00400533788342276 -177.255058528794 0.972314037593112 -165.273963965639 
14.15                          0.970925293301242 -167.065003635411 0.00409149582442948 -177.578472544166 0.00409149582442951 -177.578472544165 0.971794327476069 -166.157315544369 
14.2                           0.970362529608113 -167.975941037491 0.00418213380866197 -177.881161208022 0.004182133808662 -177.881161208021 0.971257869241187 -167.04702373167 
14.25                          0.969781113675362 -168.893851450457 0.00427761978716614 -178.162926286291 0.00427761978716617 -178.162926286291 0.970703820965008 -167.94329032929 
14.3                           0.969180083066315 -169.818964670152 0.00437835828731157 -178.423639169997 0.00437835828731161 -178.423639169997 0.970131283531582 -168.846327767462 
14.35                          0.968558408337196 -170.751522919104 0.00448479441590386 -178.663250913779 0.00448479441590391 -178.663250913779 0.969539295735859 -169.756359813395 
14.4                           0.967914987166691 -171.691781693307 0.0045974183272821 -178.88180299312 0.00459741832728213 -178.88180299312 0.968926828878763 -170.673622337619 
14.45                          0.967248637862463 -172.640010679757 0.00471677021351559 -179.079438735941 0.00471677021351561 -179.07943873594 0.968292780791647 -171.59836414388 
14.5                           0.966558092166613 -173.596494751812 0.0048434458815757 -179.256415360375 0.00484344588157572 -179.256415360375 0.967635969219006 -172.530847868892 
14.55                          0.965841987270783 -174.561535050306 0.00497810299138693 -179.413116523845 0.00497810299138695 -179.413116523845 0.966955124478074 -173.471350959   
14.6                           0.965098856938467 -175.535450159277 0.00512146803921164 -179.550065259407 0.00512146803921168 -179.550065259407 0.966248881301993 -174.420166731618 
14.65                          0.964327121616752 -176.51857738624 0.0052743441832022 -179.667937144591 0.00527434418320223 -179.667937144591 0.965515769759325 -175.377605530278 
14.7                           0.963525077401764 -177.511274158123 0.00543762002253762 -179.767573516665 0.00543762002253764 -179.767573516665 0.964754205126403 -176.343995983133 
14.75                          0.962690883701033 -178.513919545385 0.00561227945880439 -179.849994518003 0.00561227945880441 -179.849994518003 0.963962476569915 -177.319686376022 
14.8                           0.961822549411253 -179.526915928383 0.00579941278873111 -179.916411727807 0.00579941278873112 -179.916411727808 0.963138734474682 -178.305046152522 
14.85                          0.960917917400677 179.449309178155 0.00600022920170607 -179.968240114082 0.00600022920170612 -179.968240114082 0.962280976225152 -179.300467555007 
14.9                           0.959974647050897 178.414301124658 0.00621607088449453 179.992890975081 0.00621607088449453 179.992890975081 0.961387030217835 179.693632577509 
14.95                          0.958990194571813 177.367575930029 0.00644842897018043 179.965128066494 0.00644842897018044 179.965128066494 0.960454537844891 178.676810836936 
15                             0.957961790754892 176.308617865854 0.00669896160973991 179.946385340651 0.00669896160973991 179.946385340651 0.959480933145029 177.648595078967 
15.05                          0.95688641577179 175.236876795594 0.00696951449417972 179.934338188476 0.00696951449417972 179.934338188476 0.958463419765344 176.608482038479 
15.1                           0.955760770555948 174.151765239327 0.00726214421450398 179.926418759803 0.007262144214504 179.926418759803 0.957398944815001 175.555934701708 
15.15                          0.954581244221424 173.052655130621 0.00757914491788857 179.919813658573 0.0075791449178886 179.919813658573 0.95628416911634 174.490379405997 
15.2                           0.953343876872966 171.938874227553 0.00792307880375036 179.911463862231 0.00792307880375034 179.911463862231 0.955115433268415 173.411202634001 
15.25                          0.952044317040158 170.809702134602 0.00829681110580005 179.898066847515 0.00829681110580003 179.898066847515 0.953888718828664 172.317747464723 
15.3                           0.950677772821813 169.664365886177 0.00870355032920301 179.876080793773 0.00870355032920303 179.876080793773 0.952599603786035 171.209309638698 
15.35                          0.949238955648444 168.502035035652 0.00914689465995621 179.841730611364 0.00914689465995622 179.841730611365 0.951243211338086 170.085133188835 
15.4                           0.947722015353195 167.321816185982 0.00963088564182579 179.791015410985 0.00963088564182581 179.791015410985 0.949814150788588 168.944405581863 
15.45                          0.946120464975594 166.122746889103 0.0101600704311972 179.719716894897 0.0101600704311972 179.719716894897 0.948306449142481 167.786252307986 
15.5                           0.944427093395851 164.903788831305 0.0107395742000173 179.623408018409 0.0107395742000173 179.623408018409 0.946713471680949 166.609730848092 
15.55                          0.94263386349511 163.663820210586 0.0113751845716085 179.497461144576 0.0113751845716085 179.497461144576 0.945027829437288 165.413823938773 
15.6                           0.94073179303989 162.401627199608 0.0120734503558076 179.337054801083 0.0120734503558076 179.337054801083 0.943241271047081 164.197432045518 
15.65                          0.938710814872377 161.115894374437 0.0128417973138161 179.137178048409 0.0128417973138162 179.13717804841  0.941344555892014 162.959364943917 
15.7                           0.936559612221529 159.805193974977 0.0136886642480619 178.89263138314  0.0136886642480619 178.89263138314  0.939327304767871 161.698332297934 
15.75                          0.934265423993261 158.467973848601 0.0146236634011869 178.598023028164 0.0146236634011869 178.598023028164 0.937177823448591 160.412933113941 
15.8                           0.931813813701433 157.102543914752 0.0156577699889242 178.247759398024 0.0156577699889242 178.247759398025 0.934882893444998 159.101643940287 
15.85                          0.929188394200851 155.707060977258 0.016803546717731 177.836028466183 0.016803546717731 177.836028466183 0.932427522912263 157.762805676629 
15.9                           0.926370498498443 154.279511705389 0.0180754103894964 177.356774692202 0.0180754103894964 177.356774692202 0.929794648972726 156.394608857918 
15.95                          0.923338784547604 152.817693609154 0.0194899492186792 176.803664079848 0.0194899492186792 176.803664079849 0.926964780600663 154.995077289509 
16                             0.920068758946979 151.319193856387 0.0210663013334798 176.170037819498 0.0210663013334799 176.170037819498 0.92391556855178 153.562049939584 
16.05                          0.916532200714046 149.781365830572 0.0228266071562499 175.448852807031 0.02282660715625 175.448852807032 0.9206212854773  152.093161054487 
16.1                           0.912696461601262 148.201303427935 0.0247965510093718 174.632607114268 0.0247965510093718 174.632607114268 0.917052195180528 150.585818569338 
16.15                          0.90852361355815 146.575813269331 0.0270060104041937 173.713248202336 0.0270060104041938 173.713248202336 0.913173784773231 149.037181068324 
16.2                           0.903969406696128 144.901385303228 0.0294898350333407 172.682061313236 0.0294898350333408 172.682061313237 0.908945827086471 147.44413384959  
16.25                          0.898981992292671 143.17416277358  0.0322887814053032 171.529535048362 0.0322887814053032 171.529535048362 0.904321232937111 145.803265136321 
16.3                           0.893500354899036 141.389913335335 0.035450633073607 170.245200663435 0.0354506330736071 170.245200663435 0.899244643713799 144.110844253847 
16.35                          0.887452385696214 139.544004402523 0.0390315399574052 168.817441121776 0.0390315399574053 168.817441121776 0.893650704469294 142.362804827852 
16.4                           0.880752516693691 137.631387896402 0.0430976122259289 167.233265544054 0.0430976122259289 167.233265544054 0.887461947120179 140.554738009369 
16.45                          0.873298824232556 135.646602879075 0.0477268025959251 165.478044547008 0.0477268025959252 165.478044547008 0.880586204456068 138.681903803179 
16.5                           0.864969504955183 133.583809831294 0.0530111020598145 163.535202390221 0.0530111020598145 163.535202390221 0.872913472666082 136.739273399187 
16.55                          0.855618636780625 131.436878698405 0.0590590517869938 161.385863398144 0.0590590517869939 161.385863398144 0.864312151338101 134.721622961558 
16.6                           0.845071178380793 129.199566066979 0.0659985277279037 159.008453729497 0.0659985277279038 159.008453729497 0.854624631165091 132.623711121013 
16.65                          0.833117264400063 126.865837701869 0.0739796671484238 156.37826678119  0.073979667148424 156.37826678119  0.843662299821167 130.440590697806 
16.7                           0.819506076040104 124.430425328454 0.0831776509350951 153.467013841596 0.0831776509350951 153.467013841596 0.83120024695687 128.168133215277 
16.75                          0.803940004041089 121.889756991538 0.0937947918672342 150.242404915883 0.0937947918672343 150.242404915883 0.816972357714707 125.803886921559 
16.8                           0.78607063215918 119.243476503535 0.106060952801025 146.667843536642 0.106060952801025 146.667843536642 0.800668232942926 123.348450323819 
16.85                          0.765499496230783 116.496877966251 0.12023066952568 142.70238107523  0.12023066952568 142.70238107523  0.781934675954286 120.807626979809 
16.9                           0.741788939571572 113.664729718191 0.136574447846279 138.301167748474 0.136574447846279 138.301167748474 0.760386610407464 118.195728102644 
16.95                          0.714491996451179 110.77713037964  0.155360625970521 133.416760646173 0.155360625970521 133.416760646173 0.735635459277552 115.540475300245 
17                             0.683215034495702 107.888145746549 0.176823327144204 128.001785877319 0.176823327144204 128.001785877319 0.707347023865447 112.889926696413 
17.05                          0.647731568579782 105.087774054636 0.201112365213728 122.013539413865 0.201112365213728 122.013539413865 0.675344263959483 110.321457211422 
17.1                           0.608165922114258 102.51666964766  0.228224379317128 115.42100647027  0.228224379317128 115.42100647027  0.639768675245101 107.951544144901 
17.15                          0.565251503447036 100.379726652717 0.257923376606839 108.214246596687 0.257923376606839 108.214246596687 0.601297896628487 105.94206055023  
17.2                           0.520624036656153 98.9469510171372 0.289674074801159 100.414897825468 0.289674074801159 100.414897825468 0.561373233796752 104.493126248112 
17.25                          0.477018743566866 98.5167754832292 0.322627557713689 92.0847838177197 0.322627557713689 92.0847838177197 0.522312087526972 103.805708278123 
17.3                           0.438114599161411 99.3066306898585 0.355700444636222 83.3281353413097 0.355700444636222 83.3281353413098 0.487098368974598 103.998348754147 
17.35                          0.407722175749406 101.265669739882 0.387758081861414 74.2834401604314 0.387758081861414 74.2834401604314 0.458672671716765 104.992413156356 
17.4                           0.38832210611149 103.923719579539 0.417852558625774 65.1046019357501 0.417852558625775 65.1046019357502 0.438842071322597 106.444972976266 
17.45                          0.379743468930671 106.495220812882 0.445418903940664 55.9365381211383 0.445418903940665 55.9365381211383 0.427413923288912 107.832375057529 
17.5                           0.379148660334696 108.252770491419 0.470345905131682 46.8936523558499 0.470345905131683 46.8936523558499 0.422237908756841 108.665623241492 
17.55                          0.382401434225811 108.831481059569 0.492907947591007 38.0479425430052 0.492907947591007 38.0479425430052 0.420132815576322 108.667311304494 
17.6                           0.385608903332101 108.232779574113 0.513612495114904 29.4283271990991 0.513612495114904 29.4283271990991 0.417967703121478 107.794182738882 
17.65                          0.385910094874143 106.659433374945 0.533036504837129 21.0281599796068 0.53303650483713 21.0281599796068 0.413298759462303 106.155592396517 
17.7                           0.38154937591651 104.37257475414  0.551699892027927 12.8163331737862 0.551699892027927 12.8163331737862 0.40451216781356 103.926008996322 
17.75                          0.371642623831259 101.626381833166 0.569989335989794 4.74835029609841 0.569989335989794 4.74835029609839 0.390705735369927 101.29589792423  
17.8                           0.355921321315721 98.6586359023488 0.588124347086925 -3.22446203799537 0.588124347086925 -3.22446203799541 0.371516596520992 98.459493711212  
17.85                          0.334562408505391 95.7101274901499 0.606152056568569 -11.1480435639342 0.60615205656857 -11.1480435639342 0.346995374734077 95.6270375116103 
17.9                           0.308120412821078 93.0604310260678 0.623960476343632 -19.0607573300694 0.623960476343633 -19.0607573300694 0.317555474967239 93.0547759793523 
17.95                          0.277553602098063 91.0798235356268 0.64130514547086 -26.9902426296571 0.64130514547086 -26.9902426296571 0.284000484412183 91.0951619433206 
18                             0.244344748223934 90.3032730166113 0.657847464503327 -34.9517140364798 0.657847464503328 -34.9517140364797 0.247639023754966 90.278718196241  
18.05                          0.210741453964413 91.5222524558491 0.673203446543448 -42.9476227618287 0.673203446543449 -42.9476227618287 0.2105288988089  91.4412127016555 
18.1                           0.180139884448345 95.8093900042324 0.686999426811599 -50.9686768349969 0.686999426811599 -50.9686768349969 0.175935994707244 95.8547427764048 
18.15                          0.157396089053743 104.100338117982 0.698927881412307 -58.9961564103905 0.698927881412307 -58.9961564103905 0.148962188236923 104.988482820744 
18.2                           0.147907418570802 115.726656878744 0.708794005858728 -67.0052782308673 0.708794005858728 -67.0052782308673 0.136172974809697 118.778952697142 
18.25                          0.154094056742735 127.316729486117 0.716544023136828 -74.969142659486 0.716544023136828 -74.969142659486 0.141457920794708 133.243287988183 
18.3                           0.172877974194702 135.466198097864 0.722269944525723 -82.8626514150029 0.722269944525723 -82.8626514150029 0.161564129186953 143.623455245237 
18.35                          0.198592070472459 139.454248803792 0.726191408580334 -90.6657980139741 0.726191408580334 -90.6657980139741 0.189609751697078 148.986017509031 
18.4                           0.226529111037973 140.177620185402 0.72862075090264 -98.3659112633846 0.72862075090264 -98.3659112633846 0.220129954494464 150.63981652166  
18.45                          0.253700939187748 138.670847856351 0.729920395655037 -105.958701559243 0.729920395655037 -105.958701559243 0.249891464265413 149.928149648267 
18.5                           0.278383394926222 135.677295990358 0.730461336367729 -113.448216015087 0.730461336367729 -113.448216015087 0.277136585182081 147.744650067228 
18.55                          0.299640108179982 131.669307124826 0.730588808344475 -120.845974313882 0.730588808344475 -120.845974313882 0.300957472808277 144.631440709866 
18.6                           0.317020310702842 126.935617975519 0.730597859461398 -128.169610880075 0.730597859461398 -128.169610880075 0.320943679823691 140.914096000028 
18.65                          0.330381655128351 121.648524145908 0.730718720459069 -135.441315240219 0.730718720459069 -135.441315240219 0.336989510240447 136.789563244286 
18.7                           0.339786508517139 115.906377778662 0.731110239590481 -142.686284910741 0.73111023959048 -142.686284910741 0.34918461156515 132.377009789667 
18.75                          0.34544221452423 109.759413166883 0.731859116958873 -149.931322344962 0.731859116958872 -149.931322344962 0.357750137680692 127.746695602393 
18.8                           0.347669415946471 103.225541755813 0.732982873074715 -157.203642122927 0.732982873074715 -157.203642122927 0.36300185002102 122.936295682543 
18.85                          0.346889147574174 96.3003597963831 0.734435001038067 -164.529914004845 0.734435001038067 -164.529914004845 0.365329814983092 117.959807745962 
18.9                           0.343622423056543 88.9640633330655 0.736111272138401 -171.935548716707 0.736111272138401 -171.935548716707 0.365188034320213 112.811788339346 
18.95                          0.338497244801921 81.1871929494328 0.737856510092644 -179.444228198736 0.737856510092644 -179.444228198736 0.363089213255975 107.46845783382  
19                             0.332258106317331 72.9368443084013 0.739471249032346 172.922319570934 0.739471249032347 172.922319570934 0.359601193625709 101.88672293562  
19.05                          0.325772414025987 64.1848649342502 0.740717563090691 165.144309331169 0.740717563090692 165.144309331169 0.355343006936972 96.0021537301142 
19.1                           0.320027075036805 54.9191590521881 0.741323102412892 157.203682904005 0.741323102412893 157.203682904005 0.35098034138246 89.7273050740805 
19.15                          0.316107452448011 45.1578713347797 0.740982179411196 149.083766949044 0.740982179411197 149.083766949044 0.347222316009161 82.9523613646964 
19.2                           0.315151576582166 34.9633529050589 0.739352891486487 140.768950952066 0.739352891486488 140.768950952066 0.344822890930368 75.5506541280664 
19.25                          0.318277213586623 24.4490779845651 0.736050071304697 132.244618644838 0.736050071304697 132.244618644838 0.344589122112676 67.3916828930136 
19.3                           0.326488817695144 13.7712325632574 0.730635643163539 123.497652576087 0.730635643163539 123.497652576087 0.347392465640237 58.3631549863559 
19.35                          0.340580831827832 3.10188133902898 0.722610905380551 114.517885088692 0.722610905380551 114.517885088692 0.354167732720003 48.4004733970823 
19.4                           0.361054021137067 -7.40787790899466 0.711419097731828 105.300834407179 0.711419097731828 105.300834407178 0.365871586194515 37.5168967662368 
19.45                          0.388049535881014 -17.6574112429893 0.696470181070924 95.8518639854567 0.696470181070923 95.8518639854565 0.383370780692649 25.8222985502595 
19.5                           0.42129390355657 -27.6044492143069 0.677200407873728 86.1914574323427 0.677200407873727 86.1914574323426 0.407254030089584 13.5182542835438 
19.55                          0.460054542587826 -37.250302158407 0.653172948875379 76.3605999739153 0.653172948875379 76.3605999739152 0.437610118933547 0.866744602166382 
19.6                           0.503128935420701 -46.6131678157866 0.62420928695635 66.424482704846  0.62420928695635 66.424482704846  0.473860358470765 -11.8551319502728 
19.65                          0.548908053028438 -55.703332845153 0.590516908335573 56.4723611485089 0.590516908335573 56.4723611485088 0.514736214706126 -24.3947316243039 
19.7                           0.595540943562702 -64.5095285686671 0.552760212492823 46.6119976268396 0.552760212492824 46.6119976268396 0.558440482435681 -36.5456216826735 
19.75                          0.641180872900465 -72.9985930933917 0.512027835739341 36.9589038472297 0.512027835739344 36.9589038472296 0.602950833063301 -48.1528796899229 
19.8                           0.684243377854205 -81.1248041653729 0.469688366366729 27.6228675043714 0.469688366366731 27.6228675043713 0.646363338561004 -59.1099586432405 
19.85                          0.72359233559852 -88.842631905229 0.427178138647012 18.6955930652003 0.427178138647014 18.6955930652001 0.687164172538029 -69.3532420603797 
19.9                           0.758604471150141 -96.1173580436087 0.385793911807453 10.2427495905391 0.385793911807455 10.2427495905388 0.724362081961384 -78.856149721269 
19.95                          0.789119053421546 -102.930721141063 0.346551150573012 2.30169931503151 0.346551150573014 2.30169931503118 0.757480759010637 -87.622566068056 
20                             0.815319202896244 -109.281575534907 0.310129784957438 -5.11595361384923 0.31012978495744 -5.11595361384966 0.786458476767734 -95.679518050432 
20.05                          0.8375975434387  -115.183196681478 0.276892934260126 -12.0190013117783 0.276892934260127 -12.0190013117787 0.811514010936365 -103.069735688832 
20.1                           0.856441950405294 -120.659159199945 0.246947515108443 -18.4304652478607 0.246947515108444 -18.4304652478611 0.833022394068714 -109.84496038791 
20.15                          0.872355348579308 -125.739211056882 0.220217596415604 -24.3819877521914 0.220217596415605 -24.3819877521919 0.851420935954388 -116.060596907453 
20.2                           0.885808276916184 -130.455883048965 0.196511781819502 -29.9094110844606 0.196511781819502 -29.909411084461 0.867148319270951 -121.771884007307 
20.25                          0.897216260496498 -134.84204646204 0.175576380047692 -35.0496439667818 0.175576380047692 -35.0496439667822 0.880610740436818 -127.031440269294 
20.3                           0.906933185337916 -138.929339336878 0.157133127138824 -39.8386396868546 0.157133127138825 -39.8386396868551 0.892166788411479 -131.88789174707 
20.35                          0.915253630381337 -142.747269807015 0.140903659516104 -44.3102195159535 0.140903659516104 -44.3102195159538 0.902123775995681 -136.385267086417 
20.4                           0.922419402082403 -146.322795318911 0.126623979887723 -48.4954854888234 0.126623979887723 -48.4954854888237 0.910740260269614 -140.562891539449 
20.45                          0.928627434699982 -149.680210277054 0.11405198117389 -52.4226164194726 0.11405198117389 -52.4226164194729 0.918231386493006 -144.455577705216 
20.5                           0.934037549583329 -152.841218496171 0.102970468481321 -56.1168969329564 0.102970468481322 -56.1168969329567 0.924775102943651 -148.093973356396 
20.55                          0.93877938712308 -155.825106042911 0.093187442798204 -59.6008771485447 0.0931874427982044 -59.6008771485449 0.930518221833333 -151.504976239589 
20.6                           0.942958285456312 -158.648960166942 0.0845348411753032 -62.894596798868 0.0845348411753036 -62.8945967988682 0.935581859148653 -154.712161296531 
20.65                          0.946660114232314 -161.327901263149 0.0768665029109377 -66.0158329321768 0.0768665029109382 -66.015832932177 0.940066097055751 -157.736189644506 
20.7                           0.949955175186454 -163.875308954526 0.0700558349592209 -68.9803472676941 0.0700558349592214 -68.9803472676944 0.944053871783677 -160.595183896331 
20.75                          0.952901314572789 -166.303032401116 0.0639934530525398 -71.8021201371539 0.0639934530525403 -71.8021201371539 0.947614162021471 -163.305063675807 
20.8                           0.95554639133863 -168.621580460795 0.058584949241578 -74.4935646835733 0.0585849492415786 -74.4935646835734 0.950804577816958 -165.879840543225 
20.85                          0.95793022899085 -170.840290564911 0.0537488588224548 -77.0657190200241 0.0537488588224554 -77.0657190200244 0.953673451186214 -168.331874431048 
20.9                           0.960086158622225 -172.96747696573 0.0494148532998763 -79.5284163576617 0.0494148532998769 -79.5284163576619 0.956261520203183 -170.672095068336 
20.95                          0.962042240418135 -175.010559920656 0.0455221596799298 -81.8904343464394 0.0455221596799304 -81.8904343464396 0.958603285166229 -172.910192366646 
21                             0.96382223317648 -176.976177759246 0.042018192402302 -84.1596254565981 0.0420181924023025 -84.1596254565984 0.960728101969328 -175.054779740335 
21.05                          0.965446366531163 -178.870283858662 0.0388573777017657 -86.3430304323337 0.0388573777017662 -86.3430304323339 0.962661065571292 -177.113534078233 
21.1                           0.966931958583881 179.301769530074 0.0360001480274569 -88.4469768378545 0.0360001480274574 -88.4469768378549 0.964423725993387 -179.093315712544 
21.15                          0.968293912162373 177.535158825495 0.0334120844179041 -90.4771645922165 0.0334120844179046 -90.477164592217 0.966034670632292 178.999728674828 
21.2                           0.969545115506902 175.825526443154 0.0310631862567268 -92.4387402136483 0.0310631862567273 -92.4387402136485 0.967509999684387 177.160077664751 
21.25                          0.970696767431722 174.16892651919  0.0289272499212223 -94.3363613018173 0.0289272499212228 -94.3363613018177 0.968863715896449 175.382759053765 
21.3                           0.971758642560635 172.561777829099 0.0269813400826017 -96.1742525971217 0.0269813400826022 -96.1742525971219 0.97010804543819 173.663284294357 
21.35                          0.972739308804501 171.000822870549 0.0252053396026159 -97.9562547796862 0.0252053396026163 -97.9562547796866 0.971253703208032 171.997591852977 
21.4                           0.973646306601647 169.483092229113 0.0235815659861166 -99.6858670117271 0.0235815659861168 -99.6858670117277 0.972310113143135 170.381998159454 
21.45                          0.974486297397907 168.005873476176 0.0220944441461981 -101.366284086523 0.0220944441461984 -101.366284086524 0.973285591950435 168.813155028486 
21.5                           0.975265187260978 166.566683960402 0.0207302268078965 -103.000428924911 0.0207302268078968 -103.000428924912 0.974187502980719 167.288012608767 
21.55                          0.97598823029619 165.163246949753 0.0194767552275324 -104.590981054556 0.0194767552275327 -104.590981054556 0.975022385632548 165.803787062584 
21.6                           0.976660115575011 163.793470662288 0.0183232540567609 -106.140401616514 0.0183232540567612 -106.140401616514 0.975796064618416 164.357932302372 
21.65                          0.977285040540959 162.455429792741 0.0172601551560598 -107.650955365931 0.0172601551560599 -107.650955365932 0.976513742590672 162.94811521444  
21.7                           0.977866773271884 161.147349199972 0.0162789459849776 -109.124730067358 0.0162789459849778 -109.124730067358 0.977180078961632 161.572193887036 
21.75                          0.978408705516417 159.867589469506 0.0153720388879197 -110.563653628521 0.0153720388879198 -110.563653628521 0.977799257223921 160.228198432874 
21.8                           0.97891389805764 158.614634106846 0.0145326581743926 -111.969509268061 0.0145326581743927 -111.969509268062 0.978375042654519 158.914314057452 
21.85                          0.97938511966739 157.387078152283 0.0137547423788868 -113.343948971428 0.0137547423788869 -113.343948971429 0.978910831946905 157.628866075972 
21.9                           0.979824880683581 156.183618037636 0.0130328594929969 -114.688505453872 0.013032859492997 -114.688505453872 0.979409696042476 156.370306624954 
21.95                          0.980235462057853 155.003042530435 0.0123621333037877 -116.004602819294 0.0123621333037878 -116.004602819294 0.979874417211599 155.137202851175 
22                             0.980618940572   153.844224632443 0.0117381792586598 -117.293566077886 0.0117381792586599 -117.293566077886 0.980307521255378 153.928226391383 
22.05                          0.980977210801286 152.706114317514 0.01115704851716 -118.556629663351 0.0111570485171601 -118.556629663351 0.980711305553223 152.742143982351 
22.1                           0.981312004305215 151.587732009251 0.0106151790519374 -119.794945071512 0.0106151790519374 -119.794945071513 0.98108786356195 151.577809062974 
22.15                          0.981624906446745 150.488162712088 0.0101093528307374 -121.009587725825 0.0101093528307375 -121.009587725825 0.981439106274153 150.434154248906 
22.2                           0.981917371175898 149.40655072073  0.00963665825423199 -122.201563161281 0.00963665825423201 -122.201563161282 0.981766781062971 149.310184576278 
22.25                          0.982190734060292 148.342094842506 0.00919445714502477 -123.371812606177 0.00919445714502483 -123.371812606177 0.982072488273666 148.204971424716 
22.3                           0.982446223801021 147.294044075519 0.00878035568500059 -124.521218030808 0.00878035568500065 -124.521218030808 0.982357695867203 147.117647041543 
22.35                          0.98268497243585 146.26169369259  0.00839217878435285 -125.650606723272 0.0083921787843529 -125.650606723271 0.982623752374971 146.047399599125 
22.4                           0.982908024401378 145.244381687189 0.00802794743866018 -126.760755444828 0.00802794743866024 -126.760755444827 0.982871898385435 144.993468725914 
22.45                          0.983116344600545 144.241485542815 0.00768585869239453 -127.852394210642 0.00768585869239456 -127.852394210641 0.983103276751338 143.955141459143 
22.5                           0.983310825600677 143.252419291956 0.00736426787999069 -128.92620973601 0.00736426787999072 -128.92620973601 0.983318941679042 142.931748573573 
22.55                          0.983492294069551 142.276630834702 0.00706167286054927 -129.982848583205 0.0070616728605493 -129.982848583205 0.983519866838867 141.922661246186 
22.6                           0.983661516541927 141.313599490612 0.00677670000060802 -131.0229200398  0.00677670000060805 -131.0229200398  0.983706952616028 140.927288021537 
22.65                          0.98381920459639 140.362833760424 0.00650809169222071 -132.046998755637 0.00650809169222074 -132.046998755637 0.983881032605454 139.945072046625 
22.7                           0.983966019511577 139.423869276883 0.0062546952216827 -133.05562716237 0.00625469522168275 -133.055627162369 0.984042879439943 138.975488547782 
22.75                          0.984102576461769 138.496266926232 0.00601545282835606 -134.049317696742 0.00601545282835607 -134.049317696742 0.984193210029281 138.018042525219 
22.8                           0.984229448304001 137.579611123991 0.00578939281377524 -135.028554846335 0.00578939281377525 -135.028554846335 0.984332690277834 137.072266643635 
22.85                          0.984347169002209 136.673508230364 0.00557562157906517 -135.993797034405 0.00557562157906521 -135.993797034405 0.984461939339526 136.137719299705 
22.9                           0.984456236728205 135.777585092257 0.00537331648409959 -136.945478358593 0.00537331648409961 -136.945478358593 0.984581533461637 135.213982849364 
22.95                          0.984557116674358 134.891487700196 0.00518171943513225 -137.884010196707 0.00518171943513227 -137.884010196706 0.984692009462503 134.300661979686 
23                             0.984650243608595 134.014879949704 0.00500013111914916 -138.809782691328 0.00500013111914916 -138.809782691328 0.984793867882642 133.397382211761 
