! Touchstone file exported from HFSS 3D Layout Design 2026.1.0
!        File:           D:/Work/SIM/ADS_AUTO_SIM/projects/RFSOC_RF/TX_Fillter.aedt
!        Generated:      05:51:51 AM Aug 31, 2026
!        Design:         TX_BAND1_MCFIL_R56_CNN034
!        Project:        TX_Fillter
!
# GHz S MA R 50.000000
! Terminal data exported
! Port[1] = Port1
! Port[2] = Port2
14                             0.973682217516724 -163.117106412189 0.00355714697133521 -177.340761410243 0.00355714697133518 -177.340761410243 0.974907520576773 -160.905587753123 
14.05                          0.973207383476304 -163.989268620468 0.00362616716506836 -177.713873812088 0.00362616716506834 -177.713873812089 0.974461511379312 -161.757358010492 
14.1                           0.972717899185437 -164.867146476003 0.00369849829699176 -178.065616006346 0.00369849829699175 -178.065616006347 0.974001716433647 -162.614410513663 
14.15                          0.972213048085744 -165.750912281124 0.0037744044529821 -178.395529034195 0.00377440445298209 -178.395529034195 0.973527450305   -163.476903755268 
14.2                           0.971692066056483 -166.640747404621 0.00385417590083638 -178.703194146325 0.00385417590083638 -178.703194146326 0.973037981187556 -164.345004809208 
14.25                          0.971154137439667 -167.536842876826 0.0039381319911726 -178.988241133458 0.0039381319911726 -178.988241133459 0.972532526958627 -165.218889907753 
14.3                           0.970598390662605 -168.439400032265 0.00402662440162454 -179.250357554045 0.00402662440162455 -179.250357554046 0.972010250826499 -166.098745065796 
14.35                          0.970023893409703 -169.348631204443 0.00412004076681029 -179.489298886854 0.0041200407668103 -179.489298886855 0.971470256522624 -166.984766756894 
14.4                           0.96942964728875 -170.264760477832 0.00421880874213956 -179.704899621264 0.00421880874213959 -179.704899621265 0.970911582981948 -167.877162646236 
14.45                          0.968814581929155 -171.188024502756 0.00432340055595066 -179.897085279328 0.00432340055595069 -179.897085279328 0.970333198447088 -168.77615238632 
14.5                           0.968177548440689 -172.11867337944 0.00443433811189254 179.934114659533 0.00443433811189257 179.934114659532 0.969733993922832 -169.681968481751 
14.55                          0.96751731215088 -173.056971618321 0.00455219871208485 179.788552987969 0.00455219871208486 179.788552987969 0.969112775896525 -170.594857230389 
14.6                           0.966832544527084 -174.003199184478 0.00467762148163916 179.665950243093 0.00467762148163918 179.665950243092 0.968468258227264 -171.515079748902 
14.65                          0.966121814175086 -174.95765263503 0.00481131458690238 179.565879546783 0.0048113145869024 179.565879546783 0.967799053092014 -172.442913091813 
14.7                           0.965383576789523 -175.920646359422 0.00495406335365045 179.48775097829  0.00495406335365049 179.48775097829  0.96710366085933 -173.378651474244 
14.75                          0.96461616391188 -176.892513933733 0.00510673940786253 179.430795685137 0.00510673940786257 179.430795685136 0.966380458740947 -174.322607609834 
14.8                           0.96381777032893 -177.873609601535 0.0052703109811868 179.394049980329 0.00527031098118681 179.394049980328 0.965627688047314 -175.275114176818 
14.85                          0.962986439917335 -178.86430989545 0.00544585454643501 179.376339714066 0.00544585454643503 179.376339714065 0.964843439844633 -176.2365254269  
14.9                           0.962120049708065 -179.865015415317 0.00563456797622517 179.376265243723 0.00563456797622521 179.376265243722 0.964025638777064 -177.207218953512 
14.95                          0.961216291906175 179.123847218983 0.00583778545121337 179.392187353461 0.00583778545121339 179.39218735346  0.963172024777457 -178.187597638241 
15                             0.960272653556092 178.101823219692 0.00605699438441692 179.422214490799 0.00605699438441694 179.422214490799 0.962280132341882 -179.178091796755 
15.05                          0.959286393488299 177.068427265196 0.0062938546763738 179.464191687963 0.00629385467637382 179.464191687963 0.961347266985654 179.820838451526 
15.1                           0.958254516118346 176.023140889722 0.00655022067406484 179.515691517052 0.00655022067406486 179.515691517051 0.960370478429418 178.808700562432 
15.15                          0.957173741590896 174.965409598935 0.00682816627676598 179.574007386733 0.00682816627676601 179.574007386733 0.959346529980597 177.784966663265 
15.2                           0.95604047166729 173.894639677599 0.00713001371687619 179.636149421848 0.0071300137168762 179.636149421848 0.958271863474831 176.749070330361 
15.25                          0.954850750640919 172.810194650814 0.00745836664641674 179.698843074667 0.00745836664641676 179.698843074667 0.957142559020009 175.700403007037 
15.3                           0.953600220426181 171.711391355025 0.00781614828415276 179.75853049796  0.00781614828415277 179.75853049796  0.955954288636927 174.638310015083 
15.35                          0.95228406879779 170.597495568922 0.00820664552884688 179.811374567637 0.00820664552884689 179.811374567637 0.954702262709234 173.562086106279 
15.4                           0.950896969550699 169.467717147486 0.0086335601268215 179.853265280358 0.00863356012682153 179.853265280358 0.953381167932999 172.470970492702 
15.45                          0.949433013097299 168.321204594648 0.00910106820395807 179.879828074937 0.00910106820395809 179.879828074937 0.951985095182817 171.36414128587  
15.5                           0.947885625706209 167.157039001313 0.00961388974244399 179.886433442468 0.00961388974244403 179.886433442469 0.950507455373746 170.240709264818 
15.55                          0.946247475200872 165.974227265798 0.0101773699121415 179.868207006368 0.0101773699121416 179.868207006368 0.948940880980132 169.099710882052 
15.6                           0.944510360457033 164.771694503167 0.0107975745693603 179.820039077447 0.0107975745693603 179.820039077447 0.947277110352104 167.940100403924 
15.65                          0.942665081441693 163.548275538595 0.0114814027295382 179.736592526772 0.0114814027295382 179.736592526772 0.945506851321237 166.76074106842  
15.7                           0.940701285790728 162.302705368221 0.0122367194267532 179.612307674585 0.0122367194267533 179.612307674585 0.943619619773402 165.560395128902 
15.75                          0.938607286988034 161.033608459548 0.0130725131194055 179.44140276801  0.0130725131194055 179.44140276801  0.941603547844288 164.33771263762  
15.8                           0.936369848033999 159.7394867536   0.0139990827218167 179.217868511165 0.0139990827218167 179.217868511166 0.939445155103438 163.091218808757 
15.85                          0.933973923009351 158.418706224591 0.0150282604778759 178.935455012041 0.0150282604778759 178.935455012041 0.937129074461157 161.819299789281 
15.9                           0.93140234706748 157.069481853125 0.0161736782966263 178.587649410628 0.0161736782966264 178.587649410628 0.93463772246337 160.52018665994  
15.95                          0.928635463016661 155.689860881008 0.017451086902834 178.167642337943 0.017451086902834 178.167642337943 0.931950901009302 159.191937493274 
16                             0.925650669648112 154.277704247818 0.0188787392912354 177.668281208315 0.0188787392912354 177.668281208315 0.929045314179421 157.832417318614 
16.05                          0.922421873158236 152.830666174439 0.0204778525945122 177.0820081479   0.0204778525945122 177.082008147901 0.925893979599693 156.43927589851  
16.1                           0.918918818200262 151.346171977242 0.0222731656710115 176.400780089909 0.0222731656710116 176.400780089909 0.922465508350474 155.009923327402 
16.15                          0.915106269044403 149.821394400916 0.0242936135727577 175.615968201167 0.0242936135727577 175.615968201167 0.9187232205648  153.541503654456 
16.2                           0.91094300377052 148.253229098979 0.0265731446237766 174.718233328262 0.0265731446237766 174.718233328262 0.914624055224726 152.03086706042  
16.25                          0.906380575126824 146.638270449634 0.0291517111076393 173.697373554975 0.0291517111076393 173.697373554975 0.910117221926154 150.474541666502 
16.3                           0.901361780537587 144.972789798624 0.0320764703608445 172.542139251836 0.0320764703608444 172.542139251836 0.905142529294745 148.868706954737 
16.35                          0.895818770907466 143.252719673429 0.0354032389174901 171.240010208681 0.0354032389174901 171.240010208681 0.899628309318485 147.209172247508 
16.4                           0.889670714204985 141.473649837631 0.0391982471941906 169.776928662123 0.0391982471941906 169.776928662123 0.893488839784926 145.491366071308 
16.45                          0.882820917581593 139.630844765054 0.0435402439293276 168.136981451248 0.0435402439293276 168.136981451248 0.886621150342413 143.710346067352 
16.5                           0.875153306068408 137.719298027611 0.0485229942033671 166.302024523977 0.0485229942033671 166.302024523977 0.878901086360263 141.860845294306 
16.55                          0.866528167150814 135.733848499879 0.0542581950986553 164.251244252152 0.0542581950986553 164.251244252152 0.87017850922744 139.937380714711 
16.6                           0.856777119297056 133.669398204143 0.060878786081471 161.960653710088 0.0608787860814711 161.960653710088 0.860271553071571 137.934465621476 
16.65                          0.845697387748725 131.521295132471 0.0685425350520177 159.402530340993 0.0685425350520177 159.402530340993 0.848959976749785 135.846993273312 
16.7                           0.833045743989453 129.285981000911 0.0774355994903096 156.544817839008 0.0774355994903097 156.544817839008 0.835977922121406 133.670899428574 
16.75                          0.818533012452369 126.962059702267 0.0877754385305519 153.350545378293 0.087775438530552 153.350545378293 0.821006951106257 131.404274484911 
16.8                           0.801821080623506 124.55202398462  0.0998119047399766 149.777370313124 0.0998119047399769 149.777370313124 0.803671317419446 129.049191317559 
16.85                          0.782526191628799 122.064988834718 0.113824475566849 145.777438199718 0.113824475566849 145.777438199718 0.783539402088808 126.614651477081 
16.9                           0.760235371687934 119.520906933325 0.13011232391153 141.297889556565 0.13011232391153 141.297889556565 0.760138608338073 124.121226770639 
16.95                          0.734547468513262 116.956820566628 0.148972369607501 136.282531384562 0.148972369607501 136.282531384562 0.732996242360736 121.60813732065  
17                             0.705155991582202 114.435542903624 0.170659168006088 130.675406620982 0.170659168006088 130.675406620982 0.701725787495601 119.143486565782 
17.05                          0.671994802795937 112.056286984441 0.195321052387048 124.427130167016 0.195321052387049 124.427130167016 0.666183867535181 116.837689173044 
17.1                           0.635461075236819 109.96422173366  0.222912416630559 117.504663107752 0.222912416630559 117.504663107752 0.626719523909822 114.857685167077 
17.15                          0.596695256526714 108.350386685541 0.253096228075069 109.904249237259 0.253096228075069 109.904249237259 0.584505270494839 113.433378820235 
17.2                           0.55781331995326 107.424785267909 0.28517411714801 101.665174248835 0.28517411714801 101.665174248835 0.541850875203035 112.836160608509 
17.25                          0.521859237574587 107.341004012865 0.318101962840132 92.8791867431641 0.318101962840132 92.879186743164  0.5022469284407  113.297460086773 
17.3                           0.492186387832449 108.073272770232 0.350639104204329 83.6887530382349 0.350639104204329 83.6887530382348 0.469761129054321 114.850928371746 
17.35                          0.471231429197797 109.317493534654 0.381616716088018 74.2697590256285 0.381616716088018 74.2697590256284 0.447615283492313 117.172174751444 
17.4                           0.459286963657057 110.543540140366 0.410222783504489 64.8016048677133 0.410222783504489 64.8016048677134 0.43656167458939 119.605204330364 
17.45                          0.454244378257519 111.219272501944 0.436167763714931 55.4353555600115 0.436167763714931 55.4353555600115 0.434367731781092 121.457361105109 
17.5                           0.45255100346588 111.026334990423 0.459663103592703 46.2719591488435 0.459663103592704 46.2719591488436 0.43693691814249 122.316597601033 
17.55                          0.450548928257256 109.90557797962  0.481255556269336 37.3562396353688 0.481255556269337 37.3562396353688 0.44001995979591 122.122290274147 
17.6                           0.445326607196567 107.970762287184 0.501617260993101 28.6842189474875 0.501617260993103 28.6842189474875 0.440300185962501 121.039435472524 
17.65                          0.434930562714728 105.409074692455 0.521370916988108 20.2172342808778 0.52137091698811 20.2172342808777 0.435642084393208 119.318732651704 
17.7                           0.418226725300142 102.427080542291 0.540978203601808 11.8970105876381 0.54097820360181 11.8970105876381 0.424903404036253 117.224346969289 
17.75                          0.394695779478776 99.2426601196396 0.560683556085177 3.65858078450008 0.560683556085179 3.65858078450002 0.407679130433972 115.021645370798 
17.8                           0.364305275234674 96.1103366474646 0.580495187510734 -4.55971766534398 0.580495187510735 -4.55971766534406 0.384146856436677 112.999804546626 
17.85                          0.327506214389688 93.3778882187418 0.600190738167868 -12.8088048729318 0.600190738167869 -12.8088048729318 0.355059511609233 111.514602061354 
17.9                           0.285378863055417 91.5915154059386 0.619344382118983 -21.1234555987354 0.619344382118983 -21.1234555987355 0.321890357657717 111.044626694937 
17.95                          0.239998609002802 91.6944302442622 0.637378541886192 -29.5187523136281 0.637378541886192 -29.5187523136281 0.287128302035655 112.243526472555 
18                             0.195238736901121 95.369360260456  0.653643172147219 -37.9886537779213 0.653643172147219 -37.9886537779213 0.254676033043501 115.909173454722 
18.05                          0.158373332239534 105.210011283516 0.667518186868235 -46.5071575646316 0.667518186868235 -46.5071575646315 0.230031190419761 122.634909947767 
18.1                           0.141136930923017 122.335733503304 0.67852283420417 -55.0323315873801 0.67852283420417 -55.03233158738  0.219220870909614 131.902694544963 
18.15                          0.152106188258839 140.400984482336 0.686406367595158 -63.5128610729517 0.686406367595158 -63.5128610729515 0.225572615309129 141.475851354635 
18.2                           0.185025166989608 151.616073565335 0.691194790787331 -71.8959729808824 0.691194790787332 -71.8959729808822 0.247052209494429 148.826181857832 
18.25                          0.227705313978085 155.965786392365 0.693181283479121 -80.1350990859046 0.693181283479122 -80.1350990859044 0.278075758598169 152.992119163925 
18.3                           0.272127790589204 156.082547724765 0.692867172870843 -88.1957423423463 0.692867172870844 -88.1957423423461 0.31306990708612 154.371043418452 
18.35                          0.314181676075607 153.819003018601 0.690875377697369 -96.0586749788057 0.690875377697371 -96.0586749788056 0.348033542175932 153.73121244574  
18.4                           0.35183589531297 150.196859998294 0.687861990722408 -103.720454898496 0.687861990722409 -103.720454898496 0.380492512802517 151.728739905141 
18.45                          0.384145453974026 145.767446224157 0.684444935010873 -111.191896240331 0.684444935010874 -111.191896240331 0.409059499370322 148.823022915335 
18.5                           0.410766433933725 140.832569142    0.681157634657605 -118.495381039984 0.681157634657605 -118.495381039984 0.433048878905497 145.31349306559  
18.55                          0.431695613372   135.557720122794 0.678426384225369 -125.661808133124 0.678426384225369 -125.661808133124 0.452207429008076 141.38878448939  
18.6                           0.447118547844029 130.030482025588 0.67656520688884 -132.727715866351 0.676565206888839 -132.727715866351 0.466537408030472 137.164217074698 
18.65                          0.457319611352555 124.292018786873 0.67578103152273 -139.732842795786 0.675781031522728 -139.732842795786 0.476184821925338 132.706942893591 
18.7                           0.462632242888769 118.35485276831  0.67618332184311 -146.718187814274 0.676183321843107 -146.718187814274 0.481372969739707 128.052112547902 
18.75                          0.463417047747789 112.213283481064 0.677794336835077 -153.7245159852  0.677794336835075 -153.7245159852  0.482367443188155 123.213004394909 
18.8                           0.460059747354219 105.849648838254 0.68055811006793 -160.791213279789 0.680558110067928 -160.791213279789 0.479462942952449 118.187076498016 
18.85                          0.452983383958232 99.2381290455279 0.684347671087424 -167.955398466758 0.684347671087422 -167.955398466757 0.472985092707105 112.959104649982 
18.9                           0.442670530791035 92.3470550386152 0.688970948854527 -175.251232925901 0.688970948854526 -175.2512329259  0.463302251227299 107.502015401721 
18.95                          0.429691780098873 85.1403373858973 0.694176231957533 177.290586288156 0.694176231957532 177.290586288156 0.450843427128118 101.775663822647 
19                             0.414736623755426 77.5785374575055 0.699658031624159 169.643121128374 0.699658031624159 169.643121128374 0.436119142127815 95.7236309833032 
19.05                          0.398642186937623 69.6202230874132 0.705063695974699 161.783217049931 0.7050636959747  161.783217049931 0.4197429645446  89.2681921541028 
19.1                           0.382414351520882 61.2245648971494 0.710000195230902 153.691201811596 0.710000195230904 153.691201811595 0.402453029057005 82.3041061821955 
19.15                          0.367234813211656 52.356504962134  0.714039329081127 145.350254626583 0.714039329081128 145.350254626583 0.385135493752615 74.6930990933795 
19.2                           0.354446681734634 42.995813137636  0.716718648882796 136.745555676764 0.716718648882796 136.745555676764 0.368854725385762 66.2632292642425 
19.25                          0.345510602166494 33.1500043709067 0.717535379324722 127.86350248155  0.717535379324721 127.863502481549 0.354894459604399 56.8207892141648 
19.3                           0.341923977513548 22.8675030439799 0.715932496526596 118.691495376265 0.715932496526594 118.691495376264 0.344802478652888 46.1855131275343 
19.35                          0.345099561596813 12.2426910553315 0.711280714753754 109.218992022254 0.71128071475375 109.218992022254 0.340399542689306 34.2569521475211 
19.4                           0.356207493338891 1.40386331577482 0.702867668951002 99.440605221448  0.702867668950996 99.4406052214474 0.343668095378169 21.1003999912071 
19.45                          0.375994122847459 -9.5153354372609 0.689914624729263 89.3618025583339 0.689914624729258 89.3618025583335 0.356429075229721 7.00312377000596 
19.5                           0.404598541052644 -20.4051960002338 0.671646882165727 79.0070489997064 0.671646882165721 79.0070489997062 0.379824392795789 -7.56532504492899 
19.55                          0.441399092091836 -31.190113014183 0.647437501020621 68.4288859677063 0.647437501020618 68.4288859677062 0.413816224265541 -22.0924172134969 
19.6                           0.484945393469788 -41.8148491534493 0.617014790430708 57.7147319047519 0.617014790430707 57.7147319047519 0.456981836339655 -36.1664920470249 
19.65                          0.533049435956084 -52.2210538561357 0.580673498293339 46.9871331428219 0.58067349829334 46.9871331428218 0.506718545427946 -49.5315337702224 
19.7                           0.583078497039987 -62.3326503721717 0.539386760478245 36.3943018351441 0.539386760478249 36.3943018351438 0.559763731175215 -62.0573712311548 
19.75                          0.632397632515451 -72.0584674495123 0.49472927709261 26.0916529415195 0.494729277092615 26.0916529415189 0.612838483388058 -73.6871527134776 
19.8                           0.678811155207759 -81.3076174502024 0.44860978278143 16.2198149359453 0.448609782781436 16.2198149359443 0.663211509444164 -84.4028306472028 
19.85                          0.720841609052417 -90.0070319179122 0.402916783032355 6.88668634691411 0.40291678303236 6.88668634691277 0.709026938034585 -94.2120767540485 
19.9                           0.75777778802158 -98.1126104717457 0.35921937757201 -1.84122669654056 0.359219377572014 -1.84122669654228 0.749349950287732 -103.144885436231 
19.95                          0.789540030611275 -105.611342523392 0.318611855871294 -9.93772419347526 0.318611855871295 -9.93772419347726 0.784001763866665 -111.250641879093 
20                             0.816467197987101 -112.516572402148 0.281704306686596 -17.4092904624232 0.281704306686596 -17.4092904624255 0.813307542942445 -118.592933660152 
20.05                          0.83911424704766 -118.860212323249 0.248706516425028 -24.2850749920469 0.248706516425027 -24.2850749920492 0.837858542898102 -125.24315329863 
20.1                           0.858103575896457 -124.684956313556 0.219545123068479 -30.6075224439377 0.219545123068477 -30.6075224439399 0.858337052119041 -131.274607329568 
20.15                          0.874035343067536 -130.038057621383 0.193973569902007 -36.4250872371272 0.193973569902004 -36.4250872371294 0.875409743167615 -136.758123683449 
20.2                           0.88744368116018 -134.967045520586 0.171657264475316 -41.787265791598 0.171657264475313 -41.7872657916   0.889674405466695 -141.759333072745 
20.25                          0.898782249452905 -139.517133757422 0.152231605195323 -46.7415790350983 0.152231605195319 -46.7415790351002 0.901641068624587 -146.337340105866 
20.3                           0.908425786197146 -143.729874301397 0.13533751562255 -51.3319703110187 0.135337515622547 -51.3319703110202 0.911732141565217 -150.54436539487 
20.35                          0.91667891187256 -147.642631308269 0.120640819439042 -55.5981323373396 0.120640819439039 -55.598132337341 0.920291404606475 -154.425980353356 
20.4                           0.923787193115042 -151.288548045975 0.107841061333001 -59.5753952419419 0.107841061332999 -59.575395241943 0.927595991468453 -158.021654656057 
20.45                          0.929947964968004 -154.696782406676 0.0966739508189238 -63.2949249094359 0.0966739508189216 -63.2949249094367 0.933868368911633 -161.365432900907 
20.5                           0.935319857245303 -157.892868816415 0.0869102511085737 -66.7840726550774 0.0869102511085719 -66.7840726550779 0.939287010281306 -164.486631380695 
20.55                          0.940030731091597 -160.899122138322 0.0783528947121161 -70.0667812798892 0.0783528947121148 -70.0667812798896 0.943995358417008 -167.41049637825 
20.6                           0.944184088456589 -163.735036782921 0.0708333889099653 -73.1639941904044 0.0708333889099644 -73.1639941904046 0.948109104538015 -170.158796938076 
20.65                          0.947864156828398 -166.417657416915 0.0642081096209721 -76.0940399891511 0.0642081096209716 -76.0940399891512 0.951721986103709 -172.750343429611 
20.7                           0.95113988391665 -168.961911285727 0.0583547957925678 -78.8729801665483 0.0583547957925676 -78.8729801665484 0.95491035490752 -175.201433134932 
20.75                          0.954068061767169 -171.380899784317 0.0531693870102501 -81.514916142907 0.05316938701025 -81.514916142907 0.95773675653459 -177.526228906926 
20.8                           0.95669576744049 -173.686150899373 0.0485632510271101 -84.0322565153538 0.0485632510271101 -84.0322565153538 0.960252729826584 -179.737078827381 
20.85                          0.95906227224708 -175.887836013529 0.0444607964773058 -86.4359476093472 0.044460796477306 -86.435947609347 0.962500997510726 178.15521490998  
20.9                           0.961200539628756 -177.994955236045 0.0407974408307898 -88.7356713347972 0.0407974408307902 -88.7356713347971 0.964517184218253 176.141170164406 
20.95                          0.963138405060203 179.984504541583 0.0375178933833862 -90.9400145133285 0.0375178933833868 -90.9400145133284 0.966331168414223 174.212435173424 
21                             0.964899509922306 178.043434949716 0.0345747109741486 -93.0566136343433 0.0345747109741492 -93.0566136343434 0.967968150690876 172.361629086331 
21.05                          0.966504044545184 176.175491306596 0.0319270861970278 -95.0922786184638 0.0319270861970284 -95.0922786184639 0.969449501903868 170.582207659494 
21.1                           0.967969342706558 174.374994601147 0.0295398318447155 -97.0530987313446 0.0295398318447162 -97.0530987313448 0.970793439917392 168.868349886148 
21.15                          0.969310360001721 172.636847683724 0.0273825299246806 -98.9445333588662 0.0273825299246812 -98.9445333588665 0.972015572422015 167.214862045854 
21.2                           0.970540060989251 170.9564634524   0.0254288181536678 -100.771489955539 0.0254288181536684 -100.77148995554 0.973129334650999 165.617096263986 
21.25                          0.971669734306541 169.329703170355 0.0236557910439443 -102.538391123503 0.023655791043945 -102.538391123504 0.974146344232993 164.070881178049 
21.3                           0.972709250606489 167.752823348923 0.0220434964118628 -104.249232472302 0.0220434964118634 -104.249232472303 0.975076690395103 162.572462727461 
21.35                          0.973667274857522 166.222429884402 0.0205745113404575 -105.907632647446 0.0205745113404581 -105.907632647447 0.975929170893901 161.118453429418 
21.4                           0.974551442020155 164.735438349831 0.0192335843391883 -107.516876694249 0.0192335843391888 -107.51687669425 0.976711487115304 159.705788787565 
21.45                          0.975368503173596 163.289039521098 0.0180073327155892 -109.07995373738 0.0180073327155897 -109.07995373738 0.97743040552934 158.331689713207 
21.5                           0.97612444767211 161.880669365266 0.0168839860631512 -110.599589800966 0.0168839860631515 -110.599589800967 0.978091891948104 156.993630029704 
21.55                          0.976824605755271 160.507982842544 0.0158531683342245 -112.078276464195 0.0158531683342248 -112.078276464196 0.978701223690657 155.689308287255 
21.6                           0.977473735138205 159.168830976136 0.0149057122583068 -113.518295938975 0.0149057122583071 -113.518295938976 0.97926308371383 154.416623243843 
21.65                          0.978076094406546 157.86124072969  0.014033500930707 -114.921743065879 0.0140335009307072 -114.92174306588 0.979781639952508 153.173652473754 
21.7                           0.978635505490497 156.58339730334  0.0132293322735989 -116.290544649074 0.013229332273599 -116.290544649075 0.980260612473663 151.958633652191 
21.75                          0.979155407058337 155.333628518698 0.0124868027940174 -117.626476487915 0.0124868027940175 -117.626476487915 0.980703330544893 150.769948136435 
21.8                           0.97963890032576 154.110391012836 0.0118002076590034 -118.931178409982 0.0118002076590035 -118.931178409982 0.98111278131988 149.606106523501 
21.85                          0.980088788503498 152.912258002832 0.0111644545996566 -120.206167566042 0.0111644545996566 -120.206167566043 0.981491651526537 148.465735913697 
21.9                           0.980507610886516 151.737908417352 0.0105749895620527 -121.452850210091 0.0105749895620527 -121.452850210091 0.981842363290845 147.347568650601 
21.95                          0.980897672411854 150.586117221039 0.0100277323591667 -122.672532156179 0.0100277323591667 -122.672532156179 0.982167105026656 146.250432342295 
22                             0.981261069369852 149.455746782239 0.00951902085667731 -123.866428077124 0.00951902085667722 -123.866428077124 0.98246785815848 145.173240997427 
22.05                          0.981599711838061 148.345739155453 0.00904556245705489 -125.035669787672 0.00904556245705474 -125.035669787672 0.982746420312197 144.114987133776 
22.1                           0.981915343313037 147.255109167623 0.00860439183904016 -126.181313635466 0.00860439183904002 -126.181313635466 0.983004425501374 143.074734737268 
22.15                          0.982209557938229 146.182938212385 0.00819283407032733 -127.304347106874 0.00819283407032716 -127.304347106874 0.983243361749377 142.051612966527 
22.2                           0.982483815662882 145.128368669219 0.00780847234557728 -128.405694740711 0.00780847234557712 -128.40569474071 0.983464586515848 141.04481051251  
22.25                          0.982739455614726 144.090598875332 0.00744911971437191 -129.486223430925 0.00744911971437172 -129.486223430924 0.983669340237209 140.05357053507  
22.3                           0.982977707925915 143.068878587471 0.00711279425812175 -130.54674718902 0.00711279425812159 -130.546747189019 0.983858758242308 139.077186108738 
22.35                          0.983199704215803 142.062504878851 0.00679769725434257 -131.588031428091 0.00679769725434244 -131.58803142809 0.984033881264065 138.114996118932 
22.4                           0.983406486904107 141.070818423282 0.00650219393363509 -132.610796822686 0.00650219393363494 -132.610796822685 0.984195664734572 137.166381557414 
22.45                          0.983599017502914 140.093200124506 0.00622479649122646 -133.615722792059 0.00622479649122631 -133.615722792058 0.984344987023187 136.230762172361 
22.5                           0.983778184014883 139.12906805386  0.00596414906277276 -134.603450648613 0.00596414906277263 -134.603450648611 0.984482656753882 135.307593433997 
22.55                          0.983944807547196 138.177874663832 0.00571901441469552 -135.574586448299 0.00571901441469542 -135.574586448297 0.984609419318494 134.396363781609 
22.6                           0.984099648235789 137.239104248911 0.00548826213380997 -136.529703575387 0.00548826213380988 -136.529703575385 0.984725962686054 133.496592121901 
22.65                          0.984243410561617 136.312270628461 0.00527085813036738 -137.469345090174 0.00527085813036731 -137.469345090172 0.984832922594451 132.607825552263 
22.7                           0.984376748129859 135.396915029269 0.0050658552936904 -138.394025864871 0.0050658552936903 -138.39402586487 0.984930887198884 131.729637285681 
22.75                          0.984500267973713 134.492604147945 0.00487238516100238 -139.304234529991 0.00487238516100233 -139.30423452999 0.985020401241557 130.861624756682 
22.8                           0.984614534436492 133.598928375584 0.00468965047840081 -140.200435250958 0.00468965047840076 -140.200435250957 0.985101969798505 130.003407890141 
22.85                          0.984720072678949 132.715500169012 0.00451691854867174 -141.083069352445 0.00451691854867173 -141.083069352444 0.985176061652183 129.154627516783 
22.9                           0.984817371852911 131.84195255468  0.00435351527418238 -141.952556805925 0.00435351527418237 -141.952556805924 0.985243112332195 128.314943921048 
22.95                          0.98490688797725 130.97793775275  0.00419881981475019 -142.809297594211 0.0041988198147502 -142.809297594211 0.98530352686117 127.484035508579 
23                             0.984989046547879 130.123125910222 0.00405225979045058 -143.653672965185 0.00405225979045058 -143.653672965184 0.985357682238201 126.661597581938 
