! Touchstone file exported from HFSS 3D Layout Design 2026.1.0
!        File:           D:/Work/SIM/ADS_AUTO_SIM/projects/RFSOC_RF/TX_Fillter.aedt
!        Generated:      05:05:45 AM Aug 31, 2026
!        Design:         TX_BAND1_MCFIL_R50_CNN010
!        Project:        TX_Fillter
!
# GHz S MA R 50.000000
! Terminal data exported
! Port[1] = Port1
! Port[2] = Port2
14                             0.972505224581801 -167.004354772983 0.00369070015786127 -178.163347517367 0.00369070015786127 -178.163347517367 0.974579987225103 -160.174011528788 
14.05                          0.97199820719474 -167.901144033923 0.0037632067851431 -178.573213574708 0.00376320678514311 -178.573213574708 0.974126065836762 -161.051463272036 
14.1                           0.9714752286511  -168.804090477854 0.00383914095210059 -178.963082491686 0.00383914095210058 -178.963082491687 0.973658437196753 -161.934532141275 
14.15                          0.970935500523394 -169.713388385902 0.00391877073262216 -179.33254857578 0.00391877073262215 -179.33254857578 0.973176440281208 -162.82337658663 
14.2                           0.970378181943196 -170.629242365563 0.0040023902922389 -179.681245377761 0.0040023902922389 -179.681245377761 0.972679370633321 -163.718163440377 
14.25                          0.96980237523376 -171.551868031261 0.00409032272979144 179.991146663691 0.00409032272979145 179.991146663691 0.972166476776769 -164.619068467304 
14.3                           0.969207121103785 -172.481492739482 0.00418292325034119 179.684891783359 0.00418292325034116 179.684891783359 0.97163695627093 -165.526276958606 
14.35                          0.968591393350492 -173.418356383724 0.00428058270978674 179.400189634    0.00428058270978672 179.400189634    0.971089951365732 -166.439984373438 
14.4                           0.96795409301305 -174.362712255104 0.00438373157690156 179.137165203797 0.00438373157690153 179.137165203797 0.970524544208216 -167.360397032741 
14.45                          0.967294041909274 -175.314827975115 0.0044928443645403 178.895857912539 0.00449284436454028 178.895857912539 0.969939751546273 -168.287732870414 
14.5                           0.966609975479046 -176.274986507788 0.00460844458871283 178.676209911834 0.00460844458871282 178.676209911834 0.969334518867341 -169.222222247535 
14.55                          0.965900534846972 -177.243487259333 0.00473111032226954 178.478053637831 0.00473111032226954 178.478053637831 0.968707713900973 -170.164108835972 
14.6                           0.965164258004042 -178.220647274346 0.00486148041929103 178.301098691708 0.00486148041929103 178.301098691708 0.968058119403831 -171.113650578458 
14.65                          0.964399569993224 -179.206802538685 0.005000261497192 178.144918153262 0.00500026149719199 178.144918153261 0.967384425133622 -172.071120733058 
14.7                           0.963604771966619 179.797690599583 0.00514823577634862 178.008934465712 0.0051482357763486 178.008934465712 0.966685218904429 -173.0368090109  
14.75                          0.962778028961492 178.792453878387 0.00530626989213056 177.892405064415 0.00530626989213055 177.892405064415 0.965958976599411 -174.01102281714 
14.8                           0.9619173562187  177.777085424643 0.00547532481203654 177.794407957139 0.0054753248120365 177.794407957139 0.965204050997497 -174.994088606321 
14.85                          0.961020603839019 176.751157895798 0.00565646701176929 177.71382749721  0.00565646701176929 177.71382749721  0.96441865924796 -175.986353364734 
14.9                           0.960085439539815 175.714216441651 0.00585088108924354 177.649340620872 0.00585088108924354 177.649340620873 0.963600868799863 -176.988186233951 
14.95                          0.959109329235389 174.665776465778 0.00605988402553916 177.599403844119 0.00605988402553913 177.599403844119 0.962748581561603 -177.999980291524 
15                             0.958089515117942 173.605321163125 0.00628494133771731 177.562241329005 0.00628494133771731 177.562241329005 0.96185951602803 -179.022154506923 
15.05                          0.957022990860873 172.532298807275 0.00652768541143498 177.535834332098 0.00652768541143496 177.535834332098 0.960931187067716 179.944844106836 
15.1                           0.955906473500276 171.446119757217 0.00678993635291135 177.517912335093 0.00678993635291136 177.517912335093 0.959960883009347 178.900538122724 
15.15                          0.954736371471636 170.346153149405 0.00707372576180409 177.505946127067 0.00707372576180407 177.505946127067 0.958945639602003 177.844417084134 
15.2                           0.953508748184084 169.23172323611  0.00738132390110339 177.497143057164 0.00738132390110338 177.497143057164 0.957882210347009 176.775934614408 
15.25                          0.952219280400587 168.102105325648 0.00771527082986052 177.488444604439 0.00771527082986052 177.488444604439 0.956767032606141 175.694505217604 
15.3                           0.95086321055473 166.956521273831 0.00807841217260017 177.47652631804  0.00807841217260019 177.47652631804  0.955596188778664 174.599500731997 
15.35                          0.949435291967888 165.794134468808 0.00847394032948373 177.457800067125 0.0084739403294837 177.457800067125 0.954365361703546 173.490246392554 
15.4                           0.947929725727627 164.61404424326  0.00890544208840886 177.428418408591 0.00890544208840887 177.428418408591 0.953069783277443 172.366016452582 
15.45                          0.946340087740624 163.415279638529 0.00937695379004114 177.384280736004 0.00937695379004114 177.384280736004 0.951704175076817 171.226029307968 
15.5                           0.944659244170384 162.196792434555 0.00989302542640537 177.321040720171 0.0098930254264054 177.321040720171 0.950262679524737 170.069442059711 
15.55                          0.942879253097867 160.957449347379 0.0104587953319345 177.234114396641 0.0104587953319346 177.234114396641 0.94873877983837 168.895344441904 
15.6                           0.940991249784626 159.696023282326 0.011080077463681 177.118688104113 0.011080077463681 177.118688104113 0.947125206617563 167.702752032764 
15.65                          0.938985312351208 158.411183515809 0.0117634636782451 176.969725335692 0.0117634636782451 176.969725335692 0.945413828470237 166.490598655976 
15.7                           0.936850303980607 157.10148466202  0.0125164439135733 176.781971436468 0.0125164439135733 176.781971436467 0.943595523493394 165.257727868573 
15.75                          0.934573686882153 155.765354262986 0.0133475477947267 176.549954968076 0.0133475477947266 176.549954968076 0.941660027710294 164.002883420249 
15.8                           0.93214130216043 154.40107882203  0.0142665119293437 176.267984463489 0.0142665119293438 176.267984463489 0.93959575566733 162.724698558086 
15.85                          0.929537108369572 153.006788082842 0.0152844780716666 175.930139209884 0.0152844780716666 175.930139209884 0.937389587271081 161.421684041312 
15.9                           0.926742869823365 151.580437340941 0.0164142284508899 175.530252617909 0.0164142284508899 175.530252617909 0.935026613536777 160.092214724857 
15.95                          0.923737783584872 150.119787564791 0.017670465924391 175.061886652732 0.017670465924391 175.061886652732 0.932489832148105 158.734514571274 
16                             0.920498031361821 148.622383105289 0.0190701482802191 174.518295704469 0.0190701482802192 174.518295704469 0.929759781499952 157.346639962982 
16.05                          0.916996239145077 147.085526793775 0.0206328880329658 173.892378149667 0.0206328880329659 173.892378149667 0.926814099092687 155.926461218638 
16.1                           0.913200823176736 145.506252283655 0.022381431491909 173.176613687391 0.0223814314919091 173.176613687391 0.923626986626662 154.471642281066 
16.15                          0.90907519552249 143.881293601417 0.0243422337835412 172.36298430996  0.0243422337835412 172.362984309959 0.920168559741663 152.979618658783 
16.2                           0.904576795929425 142.207052073998 0.0265461499142235 171.442876478661 0.0265461499142235 171.442876478661 0.916404054873503 151.447573898801 
16.25                          0.899655908558434 140.479561146403 0.0290292658436264 170.406961714282 0.0290292658436265 170.406961714282 0.912292858976658 149.872415191948 
16.3                           0.894254212431606 138.694450183666 0.0318338977820717 169.245052386978 0.0318338977820718 169.245052386978 0.907787319754877 148.250749236661 
16.35                          0.888303003045603 136.846909303309 0.0350097922016291 167.945929026127 0.0350097922016292 167.945929026127 0.902831284565293 146.578860327494 
16.4                           0.881721009990794 134.931658828745 0.0386155626749838 166.49713502892  0.0386155626749838 166.49713502892  0.897358305668795 144.852693969305 
16.45                          0.874411722837583 132.942929440611 0.0427204012966945 164.884734347375 0.0427204012966945 164.884734347375 0.891289439049394 143.06785142685  
16.5                           0.866260127902805 130.874463089136 0.0474060996531946 163.093027800912 0.0474060996531947 163.093027800912 0.884530556063188 141.219603938054 
16.55                          0.857128757797043 128.719551101966 0.0527694027575158 161.104224492414 0.0527694027575158 161.104224492414 0.876969086772857 139.302940523666 
16.6                           0.846852975615591 126.471136081899 0.0589246915929242 158.898067084532 0.0589246915929242 158.898067084532 0.86847013087558 137.312671454948 
16.65                          0.835235478310755 124.122020345019 0.066006933429509 156.451414571179 0.066006933429509 156.451414571179 0.85887192519798 135.243622062222 
16.7                           0.822040149232957 121.665249223822 0.0741747336474063 153.737795541692 0.0741747336474063 153.737795541692 0.847980779439367 133.090970975173 
16.75                          0.806985688548425 119.09477772305  0.083613136999283 150.726961764434 0.0836131369992831 150.726961764434 0.835565843047253 130.85081625435  
16.8                           0.789740021478696 116.406591220177 0.0945355144531184 147.384500702753 0.0945355144531183 147.384500702753 0.821354544411423 128.521096118622 
16.85                          0.769917518719329 113.600544937352 0.107183375202842 143.67161254862  0.107183375202842 143.67161254862  0.80503040388621 126.103051675071 
16.9                           0.747082838796665 110.683323064735 0.121822204776598 139.545229893537 0.121822204776598 139.545229893537 0.786236382351219 123.603496862155 
16.95                          0.720768054969705 107.673100038468 0.138730442107905 134.958761834391 0.138730442107905 134.958761834391 0.764589227446896 121.038241871526 
17                             0.690513886466762 104.606688021441 0.158177632348844 129.863874663215 0.158177632348844 129.863874663215 0.739713504286337 118.437051049879 
17.05                          0.655950927448123 101.550065164121 0.180387187967611 124.213845830835 0.180387187967611 124.213845830835 0.711307576481592 115.850374206881 
17.1                           0.616940608410869 98.6128706904254 0.205480338043537 117.969055938948 0.205480338043537 117.969055938948 0.679255452679632 113.357484488484 
17.15                          0.573792331830134 95.9659050614422 0.233402888619328 111.104935320804 0.233402888619329 111.104935320804 0.643792510087662 111.074067091499 
17.2                           0.527550906856017 93.8561141526276 0.26384752364224 103.621906999805 0.26384752364224 103.621906999805 0.605709749019257 109.154075310312 
17.25                          0.480289481030635 92.6030062455803 0.296200698123927 95.5554182972992 0.296200698123927 95.5554182972992 0.566530327553096 107.775817335942 
17.3                           0.435234132604721 92.5425473623612 0.329555924951696 86.982383207834  0.329555924951696 86.982383207834  0.528520195452953 107.098911998078 
17.35                          0.396414417758273 93.874141713635  0.362826812457434 78.0195011764127 0.362826812457434 78.0195011764127 0.494355912611266 107.186899213449 
17.4                           0.367542800478618 96.4232030416883 0.394950755994793 68.810651275799  0.394950755994793 68.8106512757989 0.466379647718474 107.922676837278 
17.45                          0.350326886706002 99.5098742287526 0.425114700735637 59.5052188172082 0.425114700735637 59.5052188172081 0.445688886425363 108.986893508055 
17.5                           0.343362129272953 102.190065968765 0.452906411555677 50.2342078234274 0.452906411555676 50.2342078234273 0.431616940682748 109.955590399326 
17.55                          0.342747252625856 103.742989647635 0.478331291195427 41.0923839746871 0.478331291195426 41.092383974687  0.422004177540367 110.468285616323 
17.6                           0.343886396072513 103.926216945809 0.501708582515363 32.1312662336861 0.501708582515362 32.1312662336861 0.414044893518782 110.343177550159 
17.65                          0.342951293453867 102.869636774698 0.52351154854704 23.3624649781074 0.523511548547039 23.3624649781074 0.405122404440984 109.583006937681 
17.7                           0.33738019750255 100.865927995048 0.544216354118763 14.7674136919734 0.544216354118762 14.7674136919734 0.393268385083835 108.318176025581 
17.75                          0.325757683067744 98.241618891598  0.564194081973432 6.30915380567635 0.564194081973431 6.30915380567634 0.377271028648108 106.752061846588 
17.8                           0.307531434004894 95.3234273156587 0.583651135670974 -2.05672691743719 0.583651135670973 -2.05672691743721 0.356619074108926 105.137227854453 
17.85                          0.282795880444921 92.4659068665651 0.602609341912228 -10.3732603727635 0.602609341912227 -10.3732603727635 0.331436362820635 103.78326731149  
17.9                           0.252212084382657 90.1256599677344 0.620915759230096 -18.6755987165209 0.620915759230095 -18.6755987165209 0.302487315302805 103.089255142051 
17.95                          0.217092260829949 89.0021797947542 0.638275773797616 -26.9867122987716 0.638275773797616 -26.9867122987716 0.271287276788756 103.590678659815 
18                             0.179737222277028 90.3063128346703 0.654305653795096 -35.3151636343775 0.654305653795096 -35.3151636343775 0.240324571963275 105.987831542415 
18.05                          0.144295783075635 96.1886102008126 0.668599861158105 -43.6549378021656 0.668599861158104 -43.6549378021657 0.213315471353664 111.037290549403 
18.1                           0.118413200159916 109.529564043627 0.680804529526166 -51.9872932348402 0.680804529526165 -51.9872932348402 0.195076573697479 119.041279334749 
18.15                          0.112758335775683 129.307883852031 0.690684241070959 -60.2843895628392 0.690684241070958 -60.2843895628392 0.190052978047513 128.923194060212 
18.2                           0.130599149064326 146.164426873612 0.698168047858954 -68.5141183817748 0.698168047858953 -68.5141183817749 0.19948840585679 138.204730109776 
18.25                          0.162966728716786 154.840625819492 0.703364749536889 -76.6452777531451 0.703364749536888 -76.6452777531451 0.22038601438787 144.828467405317 
18.3                           0.200517301454458 157.404573831366 0.706545818467333 -84.6521629970646 0.706545818467333 -84.6521629970646 0.247870578605972 148.355326121686 
18.35                          0.238034023879536 156.466996678329 0.708103302950335 -92.5178555041861 0.708103302950335 -92.5178555041861 0.27766155503374 149.338676099014 
18.4                           0.272869116807528 153.556812913586 0.708495471786192 -100.235888722062 0.708495471786192 -100.235888722062 0.306800489481171 148.501380473651 
18.45                          0.303654079321178 149.485151213747 0.708193145011505 -107.810382878417 0.708193145011505 -107.810382878417 0.333452591174124 146.42194613032  
18.5                           0.32970217187703 144.687599102058 0.707635783913856 -115.255020747627 0.707635783913856 -115.255020747627 0.356562275089107 143.502281829085 
18.55                          0.350723838460195 139.402383305376 0.707201173544728 -122.591333989662 0.707201173544729 -122.591333989662 0.375584174522031 140.008253855814 
18.6                           0.366673127222735 133.758436187757 0.707188218215455 -129.846719259783 0.707188218215455 -129.846719259783 0.39030160832599 136.112517006094 
18.65                          0.377657565712304 127.820448952332 0.707809978064152 -137.052479308372 0.707809978064153 -137.052479308372 0.40070920722297 131.925978390561 
18.7                           0.383885520450529 121.613033398311 0.70919346593016 -144.242052646765 0.709193465930161 -144.242052646766 0.406939871184041 127.518799099117 
18.75                          0.385639368438455 115.134153465123 0.711383248992729 -151.449494219182 0.71138324899273 -151.449494219182 0.409222645195597 122.93389887925  
18.8                           0.38326794947023 108.362672005972 0.714346897852788 -158.708211016333 0.714346897852789 -158.708211016333 0.407862284794894 118.195291225773 
18.85                          0.377193819780041 101.262478398428 0.717981335085629 -166.049936925219 0.71798133508563 -166.049936925219 0.403233612193507 113.312678442864 
18.9                           0.367931683145207 93.78462397944   0.722119894299153 -173.503939688434 0.722119894299154 -173.503939688434 0.395784946419359 108.283035705827 
18.95                          0.35611456181436 85.8685791412351 0.726540273997815 178.903523204377 0.726540273997816 178.903523204377 0.38604541881901 103.089446196234 
19                             0.342523859453987 77.4439607116051 0.730973489523235 171.149457493046 0.730973489523236 171.149457493046 0.374631329643457 97.697231813903  
19.05                          0.328118293806841 68.4348543914235 0.735113382165243 163.214040266162 0.735113382165243 163.214040266162 0.362247496542217 92.0475526223221 
19.1                           0.314054300577486 58.7700440279785 0.738625331293751 155.080147893453 0.738625331293751 155.080147893453 0.34968160649201 86.0493140053775 
19.15                          0.301686400520714 48.403200677058  0.741151794183256 146.732530948154 0.741151794183257 146.732530948154 0.337793589651156 79.5716383598037 
19.2                           0.29253081034568 37.3448859841315 0.742311635424547 138.156777485338 0.742311635424548 138.156777485338 0.3275076362864  72.4413525743624 
19.25                          0.288174140638076 25.699226008996  0.741690545801196 129.338367439059 0.741690545801198 129.338367439059 0.319818748563684 64.4523533511527 
19.3                           0.290122160641117 13.6825919719491 0.738821902128261 120.262308137761 0.738821902128263 120.262308137761 0.315821853821238 55.3946870895954 
19.35                          0.29961709804433 1.59448030358318 0.733161796634405 110.914009973045 0.733161796634407 110.914009973045 0.316750738154825 45.1075749430007 
19.4                           0.317481791321903 -10.2644077381771 0.724068870570707 101.28213354677  0.724068870570709 101.282133546769 0.323975518707742 33.5484589406376 
19.45                          0.344029589832821 -21.6840155081712 0.710808098868154 91.3639828039283 0.710808098868155 91.3639828039282 0.338875712845586 20.849704383069  
19.5                           0.379016332075355 -32.5876722479768 0.692604283145289 81.1734427225763 0.69260428314529 81.1734427225761 0.362534455377347 7.3213960140285  
19.55                          0.421585990510889 -43.0068962198549 0.668768013463103 70.7503003579338 0.668768013463104 70.7503003579336 0.395316482791082 -6.61892813361333 
19.6                           0.470219058814372 -53.0181506574393 0.638893815372435 60.1681661846055 0.638893815372435 60.1681661846055 0.436522037568987 -20.5533471314793 
19.65                          0.522769090444834 -62.6833802692376 0.603083847149574 49.536909158006  0.603083847149574 49.536909158006  0.484318602364626 -34.1426332612808 
19.7                           0.576675688070443 -72.0186278792322 0.562101544214714 38.9959605164763 0.562101544214714 38.9959605164763 0.536021787668877 -47.1476853558156 
19.75                          0.629348535799876 -80.9934105991418 0.517354258294054 28.6980186524979 0.517354258294053 28.698018652498  0.58863002083311 -59.4134945325251 
19.8                           0.678595755022652 -89.5500956457832 0.470673923379196 18.787450600998  0.470673923379197 18.7874506009983 0.639409560872989 -70.8471459386561 
19.85                          0.72292634246621 -97.6285898199225 0.42397420054026 9.38073006926417 0.423974200540261 9.38073006926445 0.686321664457933 -81.4036744814925 
19.9                           0.761629943806186 -105.185087672364 0.378924784244871 0.555059444734657 0.378924784244873 0.555059444735007 0.728182537560351 -91.0778943111351 
19.95                          0.794659296587528 -112.200462910553 0.336752364402289 -7.65306727321606 0.336752364402291 -7.65306727321573 0.764582315540134 -99.8969949195486 
20                             0.822415221612625 -118.679731464051 0.2981934841736  -15.2417808858404 0.298193484173602 -15.2417808858401 0.79567281654106 -107.911825201688 
20.05                          0.845531327994196 -124.646542403554 0.263557430860684 -22.23430503072  0.263557430860686 -22.2343050307198 0.821935228372068 -115.187705794126 
20.1                           0.864711333824841 -130.136335785721 0.232837917176237 -28.6693751205893 0.232837917176239 -28.6693751205892 0.843993239309634 -121.796329234999 
20.15                          0.880629480411855 -135.190327032405 0.205826816159488 -34.5934446041754 0.20582681615949 -34.5934446041753 0.862490226689404 -127.809684925982 
20.2                           0.893881875180055 -139.851110569014 0.182206535235414 -40.0551805162336 0.182206535235416 -40.0551805162336 0.878021984470977 -133.296133741693 
20.25                          0.904970972664285 -144.159862851817 0.161615222438945 -45.102004234242 0.161615222438946 -45.1020042342421 0.891107866963214 -138.318267568905 
20.3                           0.914308222712232 -148.154797975233 0.143688025766768 -49.778171415819 0.14368802576677 -49.7781714158192 0.902184626761638 -142.932039601978 
20.35                          0.92222487749342 -151.870482033582 0.128080504466596 -54.1238897953988 0.128080504466597 -54.1238897953991 0.911611784808583 -147.186697849583 
20.4                           0.928985211067015 -155.33768079428 0.114480061660707 -58.175079211131 0.114480061660708 -58.1750792111314 0.919681717955048 -151.125170212216 
20.45                          0.934799281854695 -158.583508549519 0.102609958380148 -61.9634969910488 0.102609958380149 -61.9634969910492 0.926630770283791 -154.7846656942  
20.5                           0.939834053922579 -161.631727062965 0.0922290733985758 -65.5170496419982 0.0922290733985763 -65.5170496419986 0.932649627735539 -158.197347446136 
20.55                          0.94422257581512 -164.503102940468 0.0831294479987856 -68.8601819921205 0.0831294479987861 -68.8601819921209 0.93789227595312 -161.390996369651 
20.6                           0.948071324496257 -167.215771421484 0.0751328556016617 -72.014281444683 0.0751328556016619 -72.0142814446834 0.942483410789326 -164.389624201841 
20.65                          0.951465976393457 -169.785579466051 0.0680871093502378 -74.9980641571073 0.0680871093502378 -74.9980641571078 0.946524419247814 -167.21401902312 
20.7                           0.954475897425966 -172.226395852741 0.0618624909168407 -77.8279274438103 0.0618624909168407 -77.8279274438108 0.950098138499667 -169.882219624904 
20.75                          0.957157619782324 -174.550384431541 0.0563484857974368 -80.5182627429418 0.0563484857974366 -80.5182627429422 0.953272613628813 -172.409922178305 
20.8                           0.95955753073321 -176.768241181329 0.0514508962834987 -83.0817289602348 0.0514508962834986 -83.0817289602352 0.956104054647028 -174.810825836693 
20.85                          0.961713954468466 -178.889397913038 0.047089340768334 -85.5294887609516 0.0470893407683339 -85.5294887609519 0.95863916213824 -177.096924959549 
20.9                           0.963658768548676 179.07780366518  0.0431951162071196 -87.8714115756106 0.0431951162071193 -87.8714115756109 0.960916958942257 -179.278755571485 
20.95                          0.965418664032874 177.125963644235 0.0397093864358558 -90.1162474144301 0.0397093864358556 -90.1162474144303 0.962970236803892 178.634396944782 
21                             0.967016132555798 175.248497697873 0.0365816547959275 -92.2717754617157 0.0365816547959272 -92.271775461716 0.964826703165723 176.634322750662 
21.05                          0.968470243661183 173.439529644678 0.0337684804423066 -94.3449310828919 0.0337684804423063 -94.344931082892 0.966509894204642 174.713739743452 
21.1                           0.969797260451626 171.693799895259 0.0312324011329568 -96.341914456968 0.0312324011329566 -96.3419144569681 0.968039905215131 172.866168546965 
21.15                          0.971011130066004 170.006587301885 0.0289410296852068 -98.268283617613 0.0289410296852066 -98.2682836176131 0.969433977803662 171.085826537722 
21.2                           0.972123876780589 168.373642304522 0.0268662958219837 -100.129034282593 0.0268662958219836 -100.129034282592 0.970706974392525 169.367537771997 
21.25                          0.973145918962448 166.791129599717 0.0249838094036604 -101.928668489778 0.0249838094036602 -101.928668489778 0.971871763649534 167.706656211755 
21.3                           0.974086326151403 165.255578845182 0.0232723248675561 -103.671253742824 0.023272324867556 -103.671253742823 0.972939535184278 166.099000093297 
21.35                          0.974953028805123 163.763842155878 0.0217132900213919 -105.36047409977 0.0217132900213918 -105.36047409977 0.973920057805087 164.540795652541 
21.4                           0.975752990406767 162.313057351605 0.0202904651700634 -106.999674409314 0.0202904651700633 -106.999674409313 0.97482189252163 163.028628726573 
21.45                          0.976492349478536 160.900616086524 0.0189896009392689 -108.591898707374 0.0189896009392688 -108.591898707373 0.975652569082894 161.559403003008 
21.5                           0.977176537398201 159.524136132929 0.0177981651492684 -110.139923625763 0.0177981651492683 -110.139923625763 0.976418732989029 160.130303895967 
21.55                          0.977810376652953 158.181437209346 0.016705110743582 -111.646287530471 0.016705110743582 -111.646287530471 0.977126268479548 158.738767197958 
21.6                           0.97839816319196 156.870519840836 0.0157006781435415 -113.113315995039 0.0157006781435415 -113.113315995038 0.977780401881856 157.382451797366 
21.65                          0.97894373578556 155.589546820513 0.0147762265273647 -114.543144121047 0.0147762265273647 -114.543144121047 0.978385788829349 156.059215866935 
21.7                           0.979450534712777 154.336826908753 0.013924089462559 -115.937736139689 0.013924089462559 -115.937736139688 0.978946588171104 154.767096024208 
21.75                          0.979921651640319 153.110800462656 0.0131374510874811 -117.298902663164 0.0131374510874811 -117.298902663163 0.979466524853038 153.504289043894 
21.8                           0.980359872195892 151.910026735156 0.0124102396706829 -118.628315899981 0.012410239670683 -118.62831589998 0.979948943620685 152.269135767712 
21.85                          0.980767712453998 150.733172622197 0.0117370358992013 -119.927523102356 0.0117370358992014 -119.927523102355 0.980396855051693 151.060106911742 
21.9                           0.981147450326488 149.579002669153 0.011112993678952 -121.197958475319 0.011112993678952 -121.197958475319 0.980812975152636 149.875790516693 
21.95                          0.981501152669878 148.446370175113 0.010533771588072 -122.440953744546 0.0105337715880721 -122.440953744546 0.981199759535105 148.714880824454 
22                             0.981830698777063 147.334209256736 0.00999547342070775 -123.657747552392 0.00999547342070782 -123.657747552391 0.981559433008897 147.576168396066 
22.05                          0.982137800804731 146.241527752903 0.0094945965052184 -124.849493828246 0.00949459650521849 -124.849493828246 0.981894015286669 146.458531312921 
22.1                           0.982424021593707 145.167400867807 0.00902798668594861 -126.017269259444 0.00902798668594871 -126.017269259443 0.982205343377726 145.360927325514 
22.15                          0.982690790263062 144.110965464155 0.00859279902886683 -127.162079972024 0.00859279902886692 -127.162079972024 0.982495091153382 144.282386833006 
22.2                           0.98293941589638 143.071414929968 0.00818646345441561 -128.284867516162 0.00818646345441569 -128.284867516162 0.982764786488204 143.222006592969 
22.25                          0.983171099587528 142.047994552614 0.00780665462073054 -129.386514238651 0.00780665462073064 -129.386514238651 0.983015826317226 142.178944074298 
22.3                           0.983386945071148 141.039997342322 0.00745126548094693 -130.467848114175 0.00745126548094701 -130.467848114174 0.983249489896105 141.152412377899 
22.35                          0.983587968128361 140.046760254861 0.00711838402289257 -131.529647097925 0.00711838402289263 -131.529647097925 0.983466950507245 140.141675659658 
22.4                           0.983775104929339 139.067660769364 0.00680627277075628 -132.57264305418 0.00680627277075635 -132.57264305418 0.98366928581826 139.146044998685 
22.45                          0.983949219450396 138.102113782797 0.00651335068853338 -133.597525308638 0.00651335068853344 -133.597525308639 0.983857487068663 138.164874661075 
22.5                           0.984111110083185 137.149568787249 0.00623817717601413 -134.604943866347 0.00623817717601421 -134.604943866347 0.984032467235043 137.197558715675 
22.55                          0.984261515536775 136.209507300302 0.0059794378913024 -135.595512331935 0.00597943789130248 -135.595512331936 0.98419506830351 136.243527963738 
22.6                           0.984401120119235 135.281440522288 0.00573593217058593 -136.569810564405 0.005735932170586 -136.569810564405 0.984346067760096 135.302247148974 
22.65                          0.984530558473385 134.364907197274 0.00550656184715979 -137.528387094814 0.00550656184715984 -137.528387094815 0.984486184394468 134.373212418536 
22.7                           0.984650419831272 133.459471657316 0.00529032129839358 -138.471761331833 0.00529032129839362 -138.471761331834 0.98461608349934 133.455949008955 
22.75                          0.984761251843318 132.564722031819 0.00508628857215112 -139.400425577183 0.00508628857215117 -139.400425577183 0.984736381536944 132.550009134091 
22.8                           0.98486356403077 131.680268605904 0.00489361746371527 -140.314846870397 0.00489361746371532 -140.314846870398 0.984847650334493 131.654970054764 
22.85                          0.98495783090382 130.805742313424 0.00471153043104259 -141.215468680088 0.00471153043104263 -141.215468680088 0.984950420862561 130.770432312081 
22.9                           0.985044494782383 129.940793351878 0.00453931225059381 -142.102712456932 0.00453931225059385 -142.102712456933 0.985045186643374 129.896018108444 
22.95                          0.985123968351938 129.085089907796 0.00437630432840639 -142.976979061867 0.00437630432840642 -142.976979061867 0.985132406830133 129.031369822017 
23                             0.985196636982833 128.238316982422 0.00422189959179313 -143.838650081466 0.00422189959179314 -143.838650081466 0.985212508993349 128.17614864196  
