! Touchstone file exported from HFSS 3D Layout Design 2026.1.0
!        File:           D:/Work/SIM/ADS_AUTO_SIM/projects/RFSOC_RF/TX_Fillter.aedt
!        Generated:      08:15:15 AM Aug 31, 2026
!        Design:         TX_BAND1_MCFIL_R75_CNN011
!        Project:        TX_Fillter
!
# GHz S MA R 50.000000
! Terminal data exported
! Port[1] = Port1
! Port[2] = Port2
14                             0.972952270184561 -164.459523590424 0.00359975473689121 -176.736062266071 0.00359975473689121 -176.736062266071 0.975502072400264 -159.772096533997 
14.05                          0.972457828591501 -165.342508962752 0.00366980342136442 -177.106584224204 0.00366980342136443 -177.106584224204 0.97506789524026 -160.599481666201 
14.1                           0.971947907776714 -166.231560422157 0.00374322371115564 -177.45627146922 0.00374322371115565 -177.45627146922 0.974620185975985 -161.432020615761 
14.15                          0.971421747167553 -167.126866584841 0.00382028281112895 -177.784702888135 0.00382028281112896 -177.784702888136 0.974158268955602 -162.269873941792 
14.2                           0.970878535850988 -168.02862598485 0.00390127419137996 -178.091498598612 0.00390127419137995 -178.091498598612 0.973681422873939 -163.113210824139 
14.25                          0.970317408396561 -168.937047723639 0.00398652047390431 -178.376328073937 0.0039865204739043 -178.376328073937 0.973188876900702 -163.962209640727 
14.3                           0.969737440260593 -169.852352171338 0.00407637665841533 -178.638919114444 0.00407637665841532 -178.638919114444 0.972679806411948 -164.81705859203 
14.35                          0.969137642722234 -170.774771724661 0.00417123372903993 -178.879067687706 0.00417123372903992 -178.879067687707 0.972153328276986 -165.677956377255 
14.4                           0.968516957295137 -171.704551626941 0.00427152268908977 -179.096648645517 0.00427152268908977 -179.096648645519 0.971608495646179 -166.5451129274  
14.45                          0.967874249550804 -172.641950856371 0.00437771907739313 -179.291627307584 0.0043777190773931 -179.291627307584 0.971044292177444 -167.418750200884 
14.5                           0.967208302280586 -173.587243089256 0.00449034802693282 -179.46407187988 0.00449034802693282 -179.46407187988 0.97045962563029 -168.299103048179 
14.55                          0.966517807912893 -174.540717745836 0.00460998993495824 -179.614166649618 0.00460998993495824 -179.614166649619 0.969853320745814 -169.186420152584 
14.6                           0.96580136009    -175.502681127171 0.00473728682355 -179.742225868815 0.00473728682354996 -179.742225868816 0.969224111318961 -170.080965055175 
14.65                          0.965057444294622 -176.473457652527 0.00487294948110219 -179.848708204991 0.00487294948110218 -179.848708204992 0.968570631355157 -170.983017272943 
14.7                           0.964284427399899 -177.453391207903 0.00501776548868869 -179.934231601257 0.00501776548868867 -179.934231601258 0.967891405186816 -171.892873520225 
14.75                          0.963480545996995 -178.442846617598 0.00517260825122474 -179.9995883501  0.00517260825122471 -179.9995883501  0.967184836405693 -172.810849044847 
14.8                           0.962643893331735 -179.442211252193 0.0053384471722358 179.95423985283  0.00533844717223578 179.954239852829 0.966449195444065 -173.737279091804 
14.85                          0.961772404654813 179.548103211974 0.00551635913353105 179.926067144586 0.00551635913353104 179.926067144586 0.965682605610581 -174.672520509006 
14.9                           0.96086384075846 178.527658864882 0.00570754146791439 179.914489321543 0.00570754146791439 179.914489321543 0.96488302735444 -175.616953511479 
14.95                          0.959915769434866 177.495989447289 0.00591332664517171 179.917870581593 0.00591332664517171 179.917870581592 0.964048240493397 -176.570983622615 
15                             0.958925544547104 176.452598025938 0.00613519893007284 179.934331519729 0.00613519893007282 179.934331519728 0.963175824095601 -177.535043813554 
15.05                          0.957890282350204 175.396954435015 0.0063748133173661 179.961738713398 0.00637481331736608 179.961738713397 0.96226313365091 -178.509596864626 
15.1                           0.956806834636604 174.328492456108 0.0066340171043567 179.997696214999 0.0066340171043567 179.997696214998 0.96130727510225 -179.495137976112 
15.15                          0.955671758204212 173.246606705199 0.00691487452861499 -179.96046077057 0.00691487452861498 -179.96046077057 0.960305075229298 179.507802340669 
15.2                           0.954481280054011 172.150649190968 0.00721969497904297 -179.915669807495 0.00721969497904296 -179.915669807496 0.959253047782373 178.498655056559 
15.25                          0.95323125761395 171.039925503792 0.00755106538582553 -179.871142619616 0.00755106538582552 -179.871142619616 0.958147354650252 177.47680906167  
15.3                           0.951917133152696 169.91369058931  0.00791188751223456 -179.830363928682 0.00791188751223457 -179.830363928682 0.956983761206997 176.441607200252 
15.35                          0.9505338813851  168.771144054046 0.00830542101313688 -179.797087849139 0.00830542101313689 -179.797087849139 0.955757584814041 175.392341850588 
15.4                           0.949075949074267 167.611424943415 0.00873533329667638 -179.775332096011 0.0087353332966764 -179.775332096011 0.95446363524744 174.328249989594 
15.45                          0.947537185194579 166.433605924271 0.00920575743347374 -179.769370422763 0.00920575743347374 -179.769370422763 0.953096145567098 173.248507673161 
15.5                           0.945910759924889 165.236686794983 0.00972135960988626 -179.783723872737 0.00972135960988628 -179.783723872737 0.951648691633256 172.152223853444 
15.55                          0.944189070378228 164.019587235815 0.0102874179284204 -179.823151594009 0.0102874179284205 -179.823151594009 0.95011409809078 171.038433443199 
15.6                           0.942363630526235 162.781138701096 0.0109099147317518 -179.892642126825 0.0109099147317518 -179.892642126825 0.948484328164833 169.906089524823 
15.65                          0.940424942221645 161.520075342451 0.0115956450824902 -179.997406219421 0.0115956450824902 -179.997406219421 0.946750354018264 168.754054588029 
15.7                           0.938362343532633 160.235023839549 0.012352344588112 179.857127641828 0.012352344588112 179.857127641828 0.944902003680587 167.581090665242 
15.75                          0.936163829743498 158.924492001804 0.0131888404432578 179.665313689553 0.0131888404432579 179.665313689553 0.942927779631137 166.385848218186 
15.8                           0.93381584130217 157.586855992392 0.0141152303993636 179.421283925097 0.0141152303993637 179.421283925097 0.940814642954193 165.166853613647 
15.85                          0.931303011649376 156.220346016311 0.015143095400465 179.118936280468 0.015143095400465 179.118936280468 0.938547755516447 163.922495012266 
15.9                           0.928607866174873 154.823030309718 0.0162857528877724 178.751914328996 0.0162857528877724 178.751914328996 0.936110170764023 162.651006483964 
15.95                          0.925710461422339 153.392797272845 0.0175585593264262 178.313576888477 0.0175585593264262 178.313576888477 0.93348246139137 161.35045016104  
16                             0.92258795099307 151.927335610082 0.0189792724063784 177.796955744419 0.0189792724063784 177.796955744419 0.930642269163703 160.018696251533 
16.05                          0.919214061241428 150.424112389396 0.0205684856833568 177.194699565313 0.0205684856833569 177.194699565313 0.927563758410656 158.653400771242 
16.1                           0.915558455646472 148.880349026042 0.0223501512258666 176.499001870236 0.0223501512258666 176.499001870236 0.924216949945759 157.25198092926  
16.15                          0.91158596149592 147.29299535937  0.0243522091835593 175.701510626068 0.0243522091835593 175.701510626068 0.920566906159373 155.811588244767 
16.2                           0.907255626032218 145.658702268596 0.0266073471275001 174.793216685197 0.0266073471275  174.793216685197 0.916572730505623 154.329079723323 
16.25                          0.90251956131303 143.973793729759 0.0291539165054849 173.764317820064 0.0291539165054849 173.764317820064 0.912186335275432 152.800987844207 
16.3                           0.897321527657738 142.234239955818 0.0320370384432513 172.604054577373 0.0320370384432513 172.604054577373 0.90735092019711 151.223490809911 
16.35                          0.891595194870175 140.435634448949 0.0353099359850572 171.30051359697  0.0353099359850572 171.30051359697  0.901999091012913 149.592385649436 
16.4                           0.885262009181266 138.573179687117 0.0390355338102904 169.840393497778 0.0390355338102904 169.840393497778 0.896050532208991 147.903068610522 
16.45                          0.878228583896531 136.641689173936 0.0432883677442396 168.208728085413 0.0432883677442396 168.208728085414 0.889409133029886 146.150530239862 
16.5                           0.870383527078055 134.635618344123 0.0481568417786938 166.388561780449 0.0481568417786938 166.388561780449 0.881959454375563 144.32937729932  
16.55                          0.861593628314628 132.549144343507 0.0537458540815518 164.360573336182 0.0537458540815518 164.360573336182 0.873562423775793 142.433901255081 
16.6                           0.851699364252655 130.376326555448 0.060179775640834 162.102647039022 0.060179775640834 162.102647039022 0.864050171529598 140.458225168215 
16.65                          0.840509777878428 128.111398305623 0.0676056889930867 159.589397238813 0.0676056889930867 159.589397238813 0.85322000222016 138.396579994676 
16.7                           0.827796991386625 125.749268952205 0.0761966526963199 156.791664837226 0.0761966526963199 156.791664837226 0.84082768545017 136.243791491797 
16.75                          0.813291016832801 123.28635940702  0.0861545077143725 153.676027387816 0.0861545077143726 153.676027387816 0.826580642399906 133.996105809822 
16.8                           0.796676281514922 120.721958890303 0.0977113245470912 150.20440389826  0.0977113245470914 150.20440389826  0.810132361124976 131.652552951121 
16.85                          0.777592614157262 118.060381122156 0.111127931004079 146.333899639128 0.111127931004079 146.333899639128 0.791080747325442 129.217150673307 
16.9                           0.755645645489182 115.314310753667 0.126687000309269 142.017134472744 0.12668700030927 142.017134472744 0.768975464647884 126.702390217336 
16.95                          0.730434935872954 112.509835090407 0.144676956125085 137.203435088588 0.144676956125086 137.203435088588 0.743343017542565 124.134601371741 
17                             0.701612526964438 109.693649632756 0.16536179486116 131.841432976222 0.16536179486116 131.841432976222 0.713743441859704 121.561887279399 
17.05                          0.668988547568969 106.942541896307 0.188931802451021 125.883734097414 0.188931802451021 125.883734097414 0.679877812967979 119.065113549453 
17.1                           0.632699287936666 104.373912728399 0.215433044516146 119.294260022009 0.215433044516147 119.294260022009 0.641767011419811 116.771364179408 
17.15                          0.593436443250671 102.15276532513  0.244682297942617 112.058332732013 0.244682297942617 112.058332732013 0.600008997955091 114.866195490464 
17.2                           0.552688206622751 100.484238442173 0.27619041752412 104.194285334902 0.27619041752412 104.194285334902 0.556076844409742 113.594237364014 
17.25                          0.512854401215484 99.5728635954958 0.309136180368291 95.7633520893328 0.309136180368291 95.7633520893328 0.512526994688583 113.226763064477 
17.3                           0.477004454182906 99.5310792642264 0.34243784668146 86.8727599449969 0.34243784668146 86.8727599449969 0.472865341370578 113.967899986553 
17.35                          0.448083626141006 100.254703379167 0.374939166857802 77.6672955901462 0.374939166857802 77.6672955901463 0.440787342116563 115.797798728222 
17.4                           0.427725745810789 101.357332111214 0.405660627069376 68.3087224275344 0.405660627069376 68.3087224275344 0.418812158463548 118.344446627711 
17.45                          0.415378215512708 102.275732781324 0.434010621915616 58.948796876841  0.434010621915616 58.948796876841  0.407025125753282 120.955773973575 
17.5                           0.40847020472278 102.508964643382 0.459862526113058 49.7055844879229 0.459862526113058 49.7055844879229 0.402971484767955 122.996392200589 
17.55                          0.403494995287618 101.79469653118  0.483481069626237 40.6508116906865 0.483481069626238 40.6508116906865 0.402837774473731 124.117648580737 
17.6                           0.397151280481529 100.113082991366 0.50535791197501 31.8098982332211 0.50535791197501 31.809898233221  0.402904588700176 124.295686833274 
17.65                          0.386946688204313 97.5914018032075 0.526036570471262 23.1710254780421 0.526036570471262 23.1710254780421 0.400381976252884 123.711767117103 
17.7                           0.37128531706768 94.4152484582479 0.545978269178398 14.6979683043622 0.545978269178398 14.6979683043622 0.393575691548236 122.631067129476 
17.75                          0.349317415607838 90.7863534698821 0.565482387330125 6.3426963408108  0.565482387330125 6.34269634081074 0.381735327016987 121.341943711312 
17.8                           0.320765424489838 86.9229658232987 0.584653305465194 -1.94418515626104 0.584653305465192 -1.94418515626105 0.364867554660286 120.145476665509 
17.85                          0.285818905879869 83.0954202316446 0.603401008988221 -10.2056011359794 0.60340100898822 -10.2056011359794 0.343635002441075 119.370591171221 
17.9                           0.245123265656093 79.7097973788104 0.621466903250311 -18.4726010593258 0.62146690325031 -18.4726010593257 0.31936030507776 119.393763768627 
17.95                          0.199888605567133 77.5042891985505 0.638470865019095 -26.7611600853616 0.638470865019094 -26.7611600853615 0.294102747734159 120.637976635517 
18                             0.152266307453132 78.0842655360266 0.653976488325552 -35.0711305309887 0.653976488325552 -35.0711305309886 0.270716102067157 123.503958075019 
18.05                          0.106724221049277 85.5510558570727 0.66756814639007 -43.3873761944515 0.66756814639007 -43.3873761944513 0.252678347701666 128.166260187171 
18.1                           0.0752991402667473 109.356020126668 0.678928002622933 -51.6829892637567 0.678928002622934 -51.6829892637565 0.243364996732545 134.249922254311 
18.15                          0.0802002354044589 145.070216342166 0.687897359656582 -59.9241475229419 0.687897359656582 -59.9241475229418 0.24471703852125 140.698373872933 
18.2                           0.115509008404872 163.406341458496 0.694508343186109 -68.0757795428208 0.69450834318611 -68.0757795428206 0.256196346979448 146.224394017268 
18.25                          0.159424504603976 168.088406645147 0.698979579009321 -76.1069908367559 0.698979579009323 -76.1069908367558 0.275151864968004 150.006991648976 
18.3                           0.20302074472169 167.174534961485 0.701680036021674 -83.9953082938937 0.701680036021676 -83.9953082938936 0.298197159132578 151.898052336106 
18.35                          0.243109605592772 163.801095953033 0.703073486882449 -91.729189562204 0.703073486882451 -91.729189562204 0.322323152941297 152.156502123991 
18.4                           0.278289209800761 159.202054029916 0.703658628640493 -99.3087362942439 0.703658628640494 -99.3087362942439 0.345300300608314 151.153396501857 
18.45                          0.307901348971724 153.926106372276 0.703916935938832 -106.744942906453 0.703916935938832 -106.744942906453 0.365645697947817 149.224477011693 
18.5                           0.3316830822637  148.238181158678 0.704274561936386 -114.057997681708 0.704274561936386 -114.057997681708 0.38245359652474 146.629670656988 
18.55                          0.349605708554956 142.268889066772 0.705079126377637 -121.275141695235 0.705079126377636 -121.275141695235 0.395225099350051 143.557048888971 
18.6                           0.361783166635811 136.078030737928 0.706588769509524 -128.428463490123 0.706588769509523 -128.428463490123 0.403735549653963 140.138601867932 
18.65                          0.368417657227591 129.684692877268 0.708969616947792 -135.552849975782 0.70896961694779 -135.552849975782 0.407942691721238 136.465918957761 
18.7                           0.369771267601284 123.082662503362 0.712298149812914 -142.684183488139 0.712298149812913 -142.684183488139 0.407929216890288 132.602638336146 
18.75                          0.366157980920299 116.248594494134 0.716566101368997 -149.857794415398 0.716566101368995 -149.857794415398 0.403871977010836 128.593405035706 
18.8                           0.357952126838237 109.146140017383 0.721686794931769 -157.107148809973 0.721686794931768 -157.107148809973 0.396030730939027 124.469698379588 
18.85                          0.345609840891578 101.727501364903 0.727502928582393 -164.462761154068 0.727502928582393 -164.462761154068 0.384749853435189 120.252738995934 
18.9                           0.329700052241511 93.9331568495158 0.733796481657913 -171.951360539791 0.733796481657913 -171.95136053979 0.370466440548731 115.953277397134 
18.95                          0.310941047446531 85.6903843600242 0.740301506006963 -179.595388461181 0.740301506006962 -179.595388461181 0.353717748937261 111.567580059016 
19                             0.290237843908291 76.9117889784754 0.74671994700109 172.58705061978  0.746719947001091 172.58705061978  0.335140494672329 107.068492690769 
19.05                          0.268714383244816 67.4967743602354 0.752739289159758 164.581651339386 0.752739289159759 164.581651339386 0.315455492421014 102.390304400403 
19.1                           0.247732246485168 57.3424309056754 0.758048927469931 156.376686890307 0.758048927469931 156.376686890307 0.295435575556344 97.4066927302504 
19.15                          0.228882550014693 46.3751816987837 0.76235021810932 147.961119656086 0.76235021810932 147.961119656086 0.275865457820176 91.9029351970224 
19.2                           0.213929210585941 34.6149263505497 0.765353914604424 139.32223817344  0.765353914604423 139.32223817344  0.257521137611502 85.5475746125391 
19.25                          0.204678826202471 22.2625879684967 0.766758982473924 130.443255157593 0.766758982473922 130.443255157593 0.241220947369116 77.8759900332945 
19.3                           0.202783642752957 9.74638954579843 0.766209345075966 121.301574328746 0.766209345075962 121.301574328746 0.228015241844088 68.3123086612781 
19.35                          0.209563817724558 -2.37574000309916 0.7632306543527  111.868711877854 0.763230654352696 111.868711877854 0.219544364499194 56.2827783667828 
19.4                           0.225968146355899 -13.6601896549706 0.75715871361984 102.113094749106 0.757158713619836 102.113094749106 0.218420260724577 41.4946063174596 
19.45                          0.252644735732246 -23.9858126929588 0.747085901441907 92.0070211364469 0.747085901441902 92.007021136447  0.228144199772957 24.3423269300649 
19.5                           0.289907699740055 -33.5528423275443 0.731870909274634 81.5386294876475 0.731870909274631 81.5386294876477 0.252002582031854 6.03556498857607 
19.55                          0.337457260608285 -42.7093396426484 0.710270907657567 70.7282133707866 0.710270907657565 70.7282133707867 0.291376020192199 -11.9825638838471 
19.6                           0.393977967379133 -51.7602912512398 0.68123894347016 59.6451959517478 0.68123894347016 59.6451959517479 0.344895108278949 -28.8003286811103 
19.65                          0.456915781606728 -60.8605521988097 0.644351379059699 48.4183097983787 0.6443513790597  48.4183097983787 0.408895397443435 -44.1654444997376 
19.7                           0.522693872470744 -70.0018298394544 0.600199521983783 37.2301316113631 0.600199521983785 37.2301316113628 0.47843584861158 -58.1543733876787 
19.75                          0.587391931006916 -79.0598342319644 0.550499763474807 26.2920972055983 0.550499763474808 26.2920972055978 0.548386386957782 -70.8964068514631 
19.8                           0.647608213159575 -87.8627228194281 0.497783572561905 15.8069245414363 0.497783572561905 15.8069245414356 0.614412309549036 -82.4819336560041 
19.85                          0.701088626989712 -96.2508692184266 0.444792824083417 5.93384978371816 0.444792824083415 5.93384978371729 0.67361454944972 -92.9705058807787 
19.9                           0.746882172850449 -104.111774534328 0.393888396745836 -3.22996831512818 0.393888396745833 -3.22996831512915 0.724654009327773 -102.419155164657 
19.95                          0.785092930778088 -111.38897012359 0.346714813402774 -11.6489842779965 0.34671481340277 -11.6489842779975 0.767449109862198 -110.898583435721 
20                             0.816468375448827 -118.073723355354 0.304158400412507 -19.3361069105573 0.304158400412503 -19.3361069105582 0.802701030679101 -118.494443714761 
20.05                          0.842027393555867 -124.190159900563 0.266491189940761 -26.3355671601168 0.266491189940756 -26.3355671601176 0.831464771344085 -125.300830065866 
20.1                           0.862812411498452 -129.780987247868 0.233572769080152 -32.7077896015738 0.233572769080147 -32.7077896015744 0.854858772896002 -131.412498287542 
20.15                          0.879761175430654 -134.896805259396 0.205030438282997 -38.5185520311635 0.205030438282992 -38.518552031164 0.873909550665911 -136.918992351081 
20.2                           0.893660391198692 -139.589280493981 0.180389371506253 -43.8323269855038 0.180389371506249 -43.8323269855041 0.889490328765229 -141.901321473392 
20.25                          0.905144263692431 -143.907348786446 0.159154209175126 -48.70877136162  0.159154209175122 -48.7087713616202 0.902312616775992 -146.430694513005 
20.3                           0.914712761908651 -147.895438428821 0.140854146753959 -53.201259749902 0.140854146753956 -53.2012597499021 0.912942190794932 -150.568573592117 
20.35                          0.922755576802258 -151.592901459399 0.125064150871544 -57.3566058318926 0.125064150871541 -57.3566058318926 0.921823181761588 -154.367433692986 
20.4                           0.929575159673995 -155.034100013391 0.111412027572816 -61.2154027290404 0.111412027572813 -61.2154027290403 0.92930231230695 -157.871818405362 
20.45                          0.935406359048623 -158.248807211354 0.0995778325305502 -64.8126386905147 0.0995778325305486 -64.8126386905146 0.935650072866069 -161.119453049524 
20.5                           0.940432180247267 -161.262727939572 0.089289588827448 -68.1783960945086 0.0892895888274468 -68.1783960945083 0.94107800537861 -164.142292558945 
20.55                          0.944796027218437 -164.098035885467 0.0803175769891511 -71.3385348384051 0.0803175769891502 -71.3385348384049 0.94575230324815 -166.967451531188 
20.6                           0.948611045014084 -166.773876479192 0.0724684070253173 -74.3153148618208 0.0724684070253166 -74.3153148618205 0.949804300241706 -169.618002407942 
20.65                          0.951967187044343 -169.306815025061 0.0655794641354904 -77.1279418154683 0.06557946413549 -77.127941815468 0.953338476272022 -172.113647033028 
20.7                           0.954936544063964 -171.711224923888 0.0595139744712241 -79.7930348751103 0.0595139744712239 -79.7930348751101 0.956438541034066 -174.471275173409 
20.75                          0.957577364206548 -173.999618540499 0.0541567540839449 -82.3250226778295 0.0541567540839448 -82.3250226778295 0.959172054512252 -176.705426093019 
20.8                           0.959937094293627 -176.182926563985 0.0494106135231322 -84.7364760281432 0.0494106135231322 -84.7364760281433 0.961593943330597 -178.828668901717 
20.85                          0.962054691061065 -178.270732713908 0.0451933509840999 -87.0383864901685 0.0451933509841001 -87.0383864901687 0.963749186769166 179.148084212135 
20.9                           0.96396238737809 179.728529478812 0.0414352544175895 -89.2403994113753 0.0414352544175897 -89.2403994113756 0.965674878478534 177.21531976835  
20.95                          0.965687050471712 177.807411713728 0.0380770340654859 -91.351008934352 0.038077034065486 -91.3510089343524 0.967401817845023 175.364709698333 
21                             0.967251233433147 175.95931248106  0.0350681140504082 -93.3777214630861 0.0350681140504085 -93.3777214630866 0.968955745742422 173.588934660271 
21.05                          0.96867399494756 174.178360642083 0.0323652209802373 -95.3271930113085 0.0323652209802376 -95.327193011309 0.970358310196252 171.881537202121 
21.1                           0.969971542858634 172.459317271161 0.0299312170410592 -97.2053449358304 0.0299312170410595 -97.205344935831 0.971627825848159 170.236799291909 
21.15                          0.971157743002633 170.797492646299 0.0277341338208859 -99.0174617655277 0.0277341338208861 -99.0174617655285 0.97277987510749 168.649639785503 
21.2                           0.972244524334567 169.188675822356 0.0257463707777208 -100.768274172827 0.025746370777721 -100.768274172828 0.973827787038573 167.115528253175 
21.25                          0.973242203699933 167.629074677083 0.0239440287749419 -102.462029585933 0.023944028774942 -102.462029585933 0.974783021253756 165.630412271568 
21.3                           0.974159747934458 166.115264696194 0.0223063545277872 -104.102552490311 0.0223063545277873 -104.102552490312 0.975655477550926 164.190655837781 
21.35                          0.975004986761246 164.644145071823 0.0208152762658999 -105.693296101129 0.0208152762659  -105.693296101131 0.97645374715482 162.792987003275 
21.4                           0.97578478680877 163.212900940328 0.0194550145611983 -107.237386789701 0.0194550145611984 -107.237386789702 0.977185317759027 161.43445317898  
21.45                          0.976505194711113 161.818970790644 0.0182117552340291 -108.737662404222 0.0182117552340292 -108.737662404223 0.977856741802894 160.112382846942 
21.5                           0.977171555468344 160.460018241692 0.0170733736548378 -110.196705427498 0.0170733736548379 -110.196705427498 0.978473775322505 158.824352642281 
21.55                          0.977788610890422 159.133907523958 0.0160292017070227 -111.616871753414 0.0160292017070227 -111.616871753415 0.979041493117692 157.568158953479 
21.6                           0.978360581913246 157.838682111987 0.0150698302556421 -113.000315732609 0.0150698302556421 -113.00031573261 0.979564384752658 156.341793338017 
21.65                          0.978891237780464 156.572546046001 0.0141869412471994 -114.349012030325 0.0141869412471994 -114.349012030326 0.980046434964107 155.143421171222 
21.7                           0.979383954470143 155.333847556008 0.0133731646055849 -115.664774751358 0.0133731646055849 -115.664774751359 0.980491191319495 153.971363044587 
21.75                          0.979841764267791 154.121064663579 0.012621955935053 -116.949274214546 0.012621955935053 -116.949274214547 0.980901821398285 152.824078510132 
21.8                           0.980267398013883 152.932792487596 0.0119274917304497 -118.20405169946 0.0119274917304497 -118.204051699461 0.981281161322854 151.700151833171 
21.85                          0.980663321260511 151.767732022565 0.0112845793579276 -119.430532438534 0.0112845793579275 -119.430532438535 0.981631757114411 150.598279469992 
21.9                           0.981031765339908 150.624680193271 0.0106885795303313 -120.630037086758 0.0106885795303313 -120.630037086758 0.981955900071289 149.517259031542 
21.95                          0.981374754163248 149.502521018833 0.0101353393797216 -121.803791866891 0.0101353393797216 -121.803791866891 0.982255657145932 148.455979531197 
22                             0.981694127420985 148.400217743732 0.00962113454073502 -122.952937559534 0.00962113454073503 -122.952937559534 0.982532897120286 147.413412745358 
22.05                          0.981991560737873 147.316805813914 0.00914261891519142 -124.07853748342 0.00914261891519143 -124.07853748342 0.982789313237467 146.388605541168 
22.1                           0.982268583240486 146.251386593353 0.00869678100065086 -125.181584591097 0.00869678100065091 -125.181584591097 0.983026442833248 145.38067304705  
22.15                          0.982526592917891 145.203121731047 0.00828090584162672 -126.263007788109 0.00828090584162672 -126.263007788109 0.983245684418261 144.388792559665 
22.2                           0.982766870093215 144.171228100729 0.00789254180845631 -127.323677569328 0.00789254180845634 -127.323677569327 0.983448312586424 143.41219809597  
22.25                          0.982990589272474 143.154973246069 0.00752947153074139 -128.364411053782 0.00752947153074144 -128.364411053781 0.983635491063547 142.450175511782 
22.3                           0.983198829594774 142.15367127302  0.00718968641411213 -129.385976488833 0.00718968641411218 -129.385976488832 0.983808284159554 141.50205811903  
22.35                          0.983392584073193 141.166679138589 0.00687136425436285 -130.389097285516 0.00687136425436291 -130.389097285515 0.983967666846155 140.567222742983 
22.4                           0.983572767786805 140.193393291796 0.00657284953460818 -131.374455639178 0.00657284953460824 -131.374455639177 0.98411453364742 139.645086168564 
22.45                          0.983740225160335 139.23324662816  0.00629263605136664 -132.342695782803 0.0062926360513667 -132.342695782801 0.98424970650219 138.735101931456 
22.5                           0.983895736447921 138.285705723873 0.0060293515663044 -133.29442691471 0.00602935156630447 -133.294426914709 0.984373941733474 137.836757415415 
22.55                          0.984040023520724 137.350268319923 0.00578174422334477 -134.230225837228 0.00578174422334484 -134.230225837226 0.984487936240166 136.949571222057 
22.6                           0.98417375504403 136.426461030028 0.00554867050726031 -135.150639338643 0.0055486705072604 -135.150639338642 0.98459233300974 136.073090783597 
22.65                          0.98429755111761 135.513837249332 0.00532908455078946 -136.056186346871 0.00532908455078952 -136.05618634687 0.984687726036617 135.206890192609 
22.7                           0.98441198744308 134.611975243499 0.00512202862363627 -136.947359879993 0.00512202862363634 -136.947359879991 0.98477466471906 134.350568226027 
22.75                          0.984517599073447 133.720476400177 0.00492662465915985 -137.824628815856 0.00492662465915994 -137.824628815855 0.984853657797489 133.503746543277 
22.8                           0.984614883792786 132.838963626858 0.00474206669374272 -138.688439500413 0.00474206669374279 -138.688439500412 0.984925176888591 132.666068040819 
22.85                          0.984704305167793 131.967079880938 0.00456761411025683 -139.539217212153 0.0045676141102569 -139.539217212153 0.984989659662418 131.837195347384 
22.9                           0.98478629530764 131.10448681932  0.00440258559114387 -140.377367498051 0.00440258559114391 -140.377367498051 0.985047512703465 131.016809446005 
22.95                          0.984861257364015 130.250863556319 0.00424635369874542 -141.203277394664 0.00424635369874544 -141.203277394665 0.985099114091493 130.204608410473 
23                             0.984929567799286 129.405905519782 0.00409834001095966 -142.017316546472 0.00409834001095967 -142.017316546472 0.985144815733281 129.400306245229 
