! Touchstone file exported from HFSS 3D Layout Design 2026.1.0
!        File:           D:/Work/SIM/ADS_AUTO_SIM/projects/RFSOC_RF/TX_Fillter.aedt
!        Generated:      12:55:55 AM Aug 31, 2026
!        Design:         TX_BAND1_MCFIL_R17_CNN045
!        Project:        TX_Fillter
!
# GHz S MA R 50.000000
! Terminal data exported
! Port[1] = Port1
! Port[2] = Port2
14                             0.972152338270094 -166.536151697934 0.00374317450537007 -178.242149488697 0.00374317450537007 -178.242149488697 0.97449700122988 -161.248060094059 
14.05                          0.971637999003646 -167.431626075787 0.0038162431395313 -178.664878810893 0.00381624313953126 -178.664878810894 0.974041410448049 -162.117982847659 
14.1                           0.971107627407385 -168.333433737687 0.00389272066428207 -179.068528957086 0.003892720664282 -179.068528957086 0.973571920502757 -162.993544515365 
14.15                          0.970560448252925 -169.241771849749 0.00397286896061173 -179.452715059043 0.00397286896061165 -179.452715059044 0.973087858847991 -163.874910762739 
14.2                           0.969995635925863 -170.156847720274 0.0040569750254447 -179.817088064412 0.00405697502544459 -179.817088064412 0.972588508925354 -164.762255967077 
14.25                          0.969412310321583 -171.07887945207 0.00414535367864333 179.838658289565 0.00414535367864322 179.838658289564 0.972073106555056 -165.655763785681 
14.3                           0.96880953233746 -172.008096645904 0.00423835058332779 179.514779770696 0.00423835058332766 179.514779770696 0.971540835969729 -166.55562776891 
14.35                          0.968186298914734 -172.944741159878 0.00433634561758559 179.211473189766 0.00433634561758546 179.211473189766 0.970990825449424 -167.462052022272 
14.4                           0.967541537577117 -173.889067930076 0.00443975664055356 178.92886716695  0.00443975664055343 178.92886716695  0.970422142510617 -168.375251922229 
14.45                          0.966874100405991 -174.841345858388 0.0045490437014791 178.667012125157 0.00454904370147896 178.667012125157 0.969833788595569 -169.295454890938 
14.5                           0.966182757383746 -175.801858774104 0.00466471374683259 178.425869524993 0.00466471374683246 178.425869524992 0.969224693200959 -170.222901235749 
14.55                          0.96546618902727 -176.770906476634 0.00478732588800376 178.205300375555 0.00478732588800362 178.205300375555 0.96859370737608 -171.157845059915 
14.6                           0.964722978222409 -177.748805867513 0.00491749730075958 178.005053078048 0.00491749730075945 178.005053078047 0.967939596510901 -172.100555251764 
14.65                          0.963951601157371 -178.73589218088 0.00505590983769985 177.82475068503  0.00505590983769973 177.82475068503  0.96726103232266 -173.051316560391 
14.7                           0.963150417237944 -179.73252032264 0.00520331744669754 177.66387768669  0.00520331744669742 177.663877686691 0.966556583936118 -174.010430766928 
14.75                          0.962317657849879 179.260933670197 0.00536055450209739 177.521766466041 0.00536055450209728 177.521766466041 0.965824707936752 -174.978217961523 
14.8                           0.96145141381324 178.244071037127 0.00552854517168093 177.397583596455 0.00552854517168084 177.397583596455 0.965063737257641 -175.955017937419 
14.85                          0.96054962134939 177.216468554249 0.00570831396159316 177.290316186078 0.00570831396159306 177.290316186078 0.964271868739019 -176.941191714919 
14.9                           0.959610046352981 176.177676630547 0.00590099760417781 177.198758502561 0.00590099760417776 177.198758502561 0.963447149173825 -177.937123209652 
14.95                          0.958630266727867 175.127217222002 0.00610785848072176 177.121499136144 0.00610785848072171 177.121499136144 0.962587459622351 -178.943221061386 
15                             0.957607652506333 174.064581542815 0.00633029980335588 177.056908976952 0.00633029980335584 177.056908976952 0.961690497743229 -179.959920641732 
15.05                          0.956539343424211 172.989227550314 0.00656988281887893 177.003130290698 0.0065698828188789 177.003130290698 0.960753757845547 179.012313738522 
15.1                           0.955422223568706 171.900577177033 0.00682834634335214 176.958067173157 0.00682834634335214 176.958067173157 0.95977450831622 177.972986398965 
15.15                          0.954252892649344 170.798013279917 0.00710762899151936 176.91937764512  0.00710762899151939 176.91937764512  0.958749766016382 176.92156760938  
15.2                           0.953027633363019 169.680876272567 0.00740989453131702 176.88446761381  0.00740989453131704 176.88446761381  0.957676267168191 175.857490629622 
15.25                          0.951742374228778 168.548460401793 0.0077375608732169 176.850486872382 0.00773756087321693 176.850486872382 0.95655043416659 174.780148435233 
15.3                           0.950392647153343 167.400009624459 0.00809333329963348 176.814327235262 0.00809333329963351 176.814327235261 0.955368337645852 173.688890089761 
15.35                          0.948973538849969 166.234713034526 0.00848024265444989 176.772622814224 0.00848024265444993 176.772622814224 0.954125653004263 172.583016719385 
15.4                           0.94747963506561 165.05169978326  0.0089016893509194 176.721752329648 0.00890168935091945 176.721752329648 0.952817610436855 171.461777039304 
15.45                          0.94590495636789 163.850033427711 0.00936149422271898 176.657843226337 0.00936149422271902 176.657843226337 0.951438937339554 170.324362374317 
15.5                           0.944242883995263 162.628705633546 0.0098639574438264 176.576777227481 0.00986395744382646 176.576777227481 0.949983791720311 169.169901108144 
15.55                          0.942486073970594 161.386629148206 0.0104139269855957 176.474196818726 0.0104139269855957 176.474196818725 0.948445684974031 167.997452487003 
15.6                           0.940626357306509 160.12262994896  0.0110168783730798 176.345512012146 0.0110168783730799 176.345512012145 0.946817392035526 166.805999692946 
15.65                          0.938654623673409 158.835438457748 0.0116790078585777 176.185906602433 0.0116790078585778 176.185906602433 0.945090846502645 165.594442091289 
15.7                           0.936560685336539 157.52367970081  0.012407341562465 175.990342999313 0.012407341562465 175.990342999312 0.943257017799875 164.361586544283 
15.75                          0.934333117469827 156.185862276221 0.0132098636566882 175.753564604238 0.0132098636566883 175.753564604238 0.94130576680559 163.10613767015  
15.8                           0.931959070087123 154.820365976912 0.0140956673057788 175.470094597072 0.0140956673057789 175.470094597072 0.939225675561351 161.826686913154 
15.85                          0.929424045752616 153.425427901516 0.0150751328592965 175.134229908629 0.0150751328592965 175.134229908629 0.937003845678207 160.521700277309 
15.9                           0.926711635887066 151.999126871773 0.0161601387388928 174.740029074013 0.0161601387388929 174.740029074013 0.934625658800814 159.189504564896 
15.95                          0.923803206806456 150.539365965599 0.0173643116190298 174.281292583361 0.0173643116190299 174.281292583361 0.932074490919925 157.82827195344  
16                             0.92067752452941 149.043852973258 0.0187033239050283 173.751534262353 0.0187033239050283 173.751534262353 0.929331370355357 156.436002744725 
16.05                          0.917310304763931 147.510078596389 0.0201952482129205 173.143942114151 0.0201952482129206 173.143942114151 0.926374566763064 155.010506132457 
16.1                           0.913673671205407 145.935292245912 0.0218609806027275 172.451326925802 0.0218609806027275 172.451326925802 0.923179095427338 153.54937887035  
16.15                          0.909735501196569 144.316475370328 0.0237247467578699 171.666056773926 0.0237247467578699 171.666056773925 0.919716117234562 152.049981793784 
16.2                           0.905458632748674 142.650312385107 0.0258147081727247 170.779975346706 0.0258147081727247 170.779975346706 0.915952209920057 150.509414277815 
16.25                          0.900799900730581 140.933159514539 0.0281636887084259 169.784301725605 0.0281636887084259 169.784301725605 0.911848480257082 148.92448693673  
16.3                           0.895708962558031 139.161012259349 0.0308100455342623 168.669508942129 0.0308100455342623 168.669508942129 0.907359479659553 147.291693239346 
16.35                          0.890126864920296 137.32947285996  0.0337987122840797 167.425178257366 0.0337987122840797 167.425178257366 0.902431877122357 145.607181313858 
16.4                           0.883984293166486 135.433720183051 0.0371824457739245 166.039825743248 0.0371824457739245 166.039825743248 0.897002833656225 143.866728177765 
16.45                          0.877199434644382 133.468486148649 0.0410233099643844 164.500697453514 0.0410233099643844 164.500697453514 0.890998011963637 142.065720157189 
16.5                           0.869675378235635 131.428045498173 0.0453944303750903 162.793529406298 0.0453944303750903 162.793529406298 0.884329145510852 140.199145676433 
16.55                          0.861296968126224 129.306229949308 0.0503820459698703 160.902269020611 0.0503820459698703 160.902269020611 0.876891085535687 138.261610401514 
16.6                           0.851927037482725 127.096484480967 0.056087868633904 158.808756005833 0.056087868633904 158.808756005833 0.868558249180615 136.2473906837   
16.65                          0.841401980304393 124.791994024237 0.0626317243817786 156.492363751721 0.0626317243817786 156.492363751721 0.859180418788248 134.150550555718 
16.7                           0.829526701139771 122.385925327359 0.0701543817134034 153.929608243405 0.0701543817134035 153.929608243405 0.848577913273881 131.965161970039 
16.75                          0.816069154606265 119.871854404139 0.0788203495985684 151.093742398838 0.0788203495985685 151.093742398838 0.836536306053334 129.685690144309 
16.8                           0.800755021215512 117.244489370574 0.0888202183333871 147.954372504849 0.0888202183333871 147.954372504849 0.82280116625609 127.307639399216 
16.85                          0.783263679049127 114.500857795452 0.100371776880214 144.477164443164 0.100371776880213 144.477164443164 0.807073858302398 124.82860420039  
16.9                           0.763227698261373 111.642213974582 0.113718618812267 140.623756254744 0.113718618812267 140.623756254744 0.789010411740838 122.249939406616 
16.95                          0.740239842078345 108.67703943663  0.129124208229444 136.352066041382 0.129124208229444 136.352066041382 0.768227083409454 119.579352981598 
17                             0.713874237449364 105.625651957369 0.146858452995281 131.617282347078 0.146858452995281 131.617282347078 0.744318683601978 116.834819285289 
17.05                          0.683731994641051 102.527059569804 0.167172964121219 126.373937202171 0.167172964121218 126.373937202171 0.716899008051479 114.050259171646 
17.1                           0.649525348430878 99.4486568837974 0.190261030997909 120.579548332392 0.190261030997908 120.579548332392 0.685676022832528 111.283295753743 
17.15                          0.611215734906821 96.4988089004737 0.216200250972534 114.200278285709 0.216200250972534 114.200278285709 0.650575188174319 108.624763238649 
17.2                           0.569214027084476 93.8405321907165 0.244881670241704 107.218722586341 0.244881670241703 107.218722586341 0.611916651217807 106.207943498406 
17.25                          0.52462493329498 91.6999597133155 0.275940619960628 99.6431066503468 0.275940619960628 99.6431066503469 0.570626545827485 104.211924321125 
17.3                           0.479460350785716 90.3544023652735 0.30871891118982 91.5158071247611 0.30871891118982 91.5158071247611 0.528410784781213 102.847703469881 
17.35                          0.436658110749503 90.0730788770747 0.34229597927642 82.9176963346641 0.34229597927642 82.9176963346641 0.487749346614606 102.310554371219 
17.4                           0.399668359779481 90.9848442525649 0.375612500573436 73.9645224131512 0.375612500573436 73.9645224131511 0.45153182663283 102.688919219083 
17.45                          0.371454133902712 92.902797160665  0.407667365575717 64.7936425411045 0.407667365575717 64.7936425411044 0.422260398360146 103.857194016704 
17.5                           0.353192558195922 95.2553667105336 0.437719061279268 55.5436962392013 0.437719061279268 55.5436962392012 0.401073912466952 105.438669506414 
17.55                          0.343557382158243 97.2855914617344 0.465407740565497 46.3336717287588 0.465407740565497 46.3336717287587 0.387192975499284 106.919754779775 
17.6                           0.339281872066084 98.4062543197358 0.490754380173505 37.2482346570268 0.490754380173505 37.2482346570267 0.378237624632267 107.861671445179 
17.65                          0.336541826071775 98.393773200689  0.514057530879861 28.3328044256742 0.51405753087986 28.3328044256741 0.371176507693815 108.046249386712 
17.7                           0.332098733318513 97.3296792907877 0.535746869707652 19.5974179075055 0.535746869707651 19.5974179075054 0.363237775857672 107.478867633052 
17.75                          0.323744354440449 95.4523921138473 0.556248839513703 11.0258029070817 0.556248839513702 11.0258029070816 0.352382945418843 106.312330821522 
17.8                           0.310257999560347 93.0550574082786 0.575892740145914 2.58596448296242 0.575892740145912 2.58596448296235 0.337391913135107 104.77677268875  
17.85                          0.291208508760634 90.4545817825552 0.594861120233756 -5.76014819744656 0.594861120233755 -5.76014819744663 0.317774336635848 103.149611885009 
17.9                           0.266791406066382 88.0142602623937 0.613176613372056 -14.0489634850021 0.613176613372055 -14.0489634850021 0.293672013285428 101.764291999521 
17.95                          0.237772409120979 86.2103601861627 0.630715837117798 -22.3098119098726 0.630715837117797 -22.3098119098726 0.265832392686748 101.049989139538 
18                             0.205573414312551 85.7542444099104 0.647243316363567 -30.5615350393249 0.647243316363568 -30.561535039325 0.235689270947979 101.595976472047 
18.05                          0.172574485816071 87.7898983558401 0.662460088215072 -38.8110199019587 0.662460088215073 -38.8110199019587 0.205575467211459 104.215336049719 
18.1                           0.142769352683632 94.0638594897502 0.676061071218839 -47.0535250845614 0.676061071218841 -47.0535250845614 0.179039236112458 109.879881277361 
18.15                          0.122556598819763 106.20768618581  0.687793106605076 -55.274614375576 0.687793106605078 -55.2746143755761 0.160894213620819 119.141588777509 
18.2                           0.119121259836159 122.370420625721 0.697503789134346 -63.453357679122 0.697503789134348 -63.4533576791221 0.155821215314871 130.809644905775 
18.25                          0.133688104725008 136.066199464289 0.705171856031613 -71.5662598658234 0.705171856031615 -71.5662598658236 0.165109666288394 141.716682397613 
18.3                           0.159883481882732 143.660950219498 0.710913781709281 -79.5912466827904 0.710913781709282 -79.5912466827906 0.185421415150418 149.327072760776 
18.35                          0.190729315666889 146.163965597263 0.714967177898345 -87.5110610345939 0.714967177898346 -87.511061034594 0.211694769494909 153.318893228739 
18.4                           0.221832802447797 145.413966708427 0.71765715784322 -95.3156128086656 0.717657157843221 -95.3156128086657 0.239801506324159 154.508636891923 
18.45                          0.25077149979744 142.674114503511 0.719354780629164 -103.00310845693 0.719354780629164 -103.003108456931 0.267050619092861 153.781191996545 
18.5                           0.276232530269818 138.682143387515 0.72043636765316 -110.580056064676 0.72043636765316 -110.580056064676 0.29183353694921 151.786511004184 
18.55                          0.297531820781966 133.859159800097 0.721249804373131 -118.060417289633 0.721249804373132 -118.060417289633 0.313244633290277 148.953571730172 
18.6                           0.314365923179635 128.44593779133  0.722090536664402 -125.464236250849 0.722090536664402 -125.464236250849 0.330826212022062 145.557253061914 
18.65                          0.326676499054703 122.578406708439 0.723187177495367 -132.816042826921 0.723187177495368 -132.816042826921 0.344410254368203 141.77229435315  
18.7                           0.334572765086169 116.329072941657 0.724695039133105 -140.143249657718 0.724695039133108 -140.143249657718 0.354020731574762 137.708671493209 
18.75                          0.338288116620406 109.730440498659 0.726695428887696 -147.47467914614 0.726695428887699 -147.47467914614 0.359813750102758 133.433380300029 
18.8                           0.338159429221922 102.788834219985 0.729198801375452 -154.839293217681 0.729198801375456 -154.839293217681 0.362042098384397 128.98327510284  
18.85                          0.334622220675932 95.4930659581857 0.732150416474756 -162.265162577074 0.73215041647476 -162.265162577074 0.361035526846446 124.371909514214 
18.9                           0.328216534981792 87.8205140889608 0.735437675066058 -169.778700599551 0.735437675066063 -169.778700599551 0.357190442989944 119.592026589432 
18.95                          0.319598782039297 79.7424129534613 0.738898582460376 -177.404190511303 0.73889858246038 -177.404190511303 0.350964088084151 114.614567358251 
19                             0.309554440819014 71.2299573287365 0.742330718042808 174.836359190885 0.742330718042811 174.836359190885 0.342869620335319 109.384724766839 
19.05                          0.299005791358316 62.2628502198342 0.745499664430453 166.923000635326 0.745499664430454 166.923000635326 0.333470631711166 103.815641161378 
19.1                           0.289008037273203 52.8416275643426 0.748145177083732 158.837271843325 0.748145177083731 158.837271843325 0.323377121323731 97.7808909545316 
19.15                          0.280727147225956 43.0035575223437 0.749982693587071 150.561322551752 0.749982693587069 150.561322551752 0.313250020624581 91.1080292199538 
19.2                           0.275395142620094 32.8381062019183 0.750697465410308 142.076904917159 0.750697465410303 142.07690491716  0.303826885986645 83.5774058706663 
19.25                          0.274245226120806 22.4923735989366 0.749929137835099 133.364534205904 0.749929137835093 133.364534205904 0.295983481913463 74.9333469193219 
19.3                           0.278438778061301 12.1541526707367 0.747246588739542 124.403289923244 0.747246588739537 124.403289923245 0.290836384080391 64.9183439524987 
19.35                          0.289000022283663 2.00810950454289 0.74211688794912 115.171887374246 0.742116887949115 115.171887374247 0.289858016243511 53.3417575359991 
19.4                           0.306760102139244 -7.82006709913269 0.733878831222061 105.651739110992 0.733878831222058 105.651739110993 0.294912158269402 40.1820232369788 
19.45                          0.332284504301953 -17.3011045379397 0.721740270777848 95.8326186520571 0.721740270777846 95.8326186520579 0.308061523719426 25.6818512034088 
19.5                           0.365746943883525 -26.4975378288297 0.704826533730604 85.7210292181103 0.704826533730604 85.721029218111  0.331057558772518 10.3504119270689 
19.55                          0.406748199622103 -35.5196104811007 0.682306927967517 75.3502505184269 0.682306927967519 75.3502505184274 0.364663034077312 -5.17950274795716 
19.6                           0.45414783553905 -44.4668650388056 0.653605556194372 64.7893235878302 0.653605556194373 64.7893235878304 0.40817771098824 -20.3546940558328 
19.65                          0.506027927550919 -53.3836230918035 0.618654295031937 54.1466671859644 0.618654295031937 54.1466671859642 0.459440141140294 -34.815469407203 
19.7                           0.559886337040679 -62.2436822856676 0.578087551454522 43.5641424925938 0.578087551454517 43.5641424925933 0.515277748472455 -48.3803792375293 
19.75                          0.613049753793771 -70.9633517900508 0.53326079677968 33.2005074998619 0.533260796779671 33.2005074998613 0.572193851173216 -60.9760202644526 
19.8                           0.663163259759712 -79.4310288778396 0.486041990656905 23.2084172204936 0.486041990656891 23.208417220493  0.627050276406447 -72.5817966676897 
19.85                          0.708559106844283 -87.5384748713024 0.438448121605163 13.71286823328   0.438448121605146 13.7128682332796 0.677541360352632 -83.2057957019183 
19.9                           0.748382997471092 -95.202810450155 0.392280796467816 4.79812121961637 0.392280796467798 4.79812121961638 0.722357757775836 -92.8786235052069 
19.95                          0.782494034768017 -102.375496760238 0.34889108540175 -3.49456597669046 0.348891085401733 -3.49456597668996 0.76107776287729 -101.651091743043 
20                             0.811245178154588 -109.040707036621 0.309111586287688 -11.1608203387245 0.309111586287671 -11.1608203387234 0.793913613388634 -109.589857926647 
20.05                          0.835254047155039 -115.208009737312 0.27331435213464 -18.223089472784 0.273314352134626 -18.2230894727824 0.821440446365679 -116.771099949633 
20.1                           0.855226384557028 -120.903686612559 0.241527307884283 -24.7204135686229 0.241527307884271 -24.7204135686209 0.844382011706439 -123.274119145546 
20.15                          0.87184654010902 -126.163184598388 0.213556073722575 -30.70009377078  0.213556073722565 -30.7000937707776 0.863472606899755 -129.176275495957 
20.2                           0.885723019719955 -131.025579517967 0.189083967835496 -36.2118260721044 0.189083967835488 -36.2118260721018 0.879383636030631 -134.549698901333 
20.25                          0.897370146764933 -135.529987818539 0.167742958576222 -41.3040368262895 0.167742958576216 -41.3040368262868 0.892693967290553 -139.459582809029 
20.3                           0.907209635810985 -139.713495499928 0.149158714979954 -46.0218667508705 0.149158714979949 -46.0218667508677 0.903885543922739 -143.963628319116 
20.35                          0.915581201219517 -143.610130234644 0.132976286362577 -50.4062582193089 0.132976286362574 -50.4062582193063 0.913351377467379 -148.112210990205 
20.4                           0.922755948136779 -147.250489281356 0.118872773181897 -54.493718906247 0.118872773181896 -54.4937189062445 0.921408244579643 -151.948940402621 
20.45                          0.928949419208174 -150.661747796753 0.106561942372727 -58.3164656714837 0.106561942372726 -58.3164656714814 0.928310041744019 -155.511391197162 
20.5                           0.934332998987504 -153.867867854513 0.095794221002809 -61.9027590648945 0.0957942210028084 -61.9027590648926 0.934259951247914 -158.831871813384 
20.55                          0.939043333632412 -156.889898122417 0.0863542766364453 -65.2773144481068 0.0863542766364449 -65.2773144481052 0.939420769991766 -161.938157907527 
20.6                           0.94318986542683 -159.74630054562 0.0780575244657496 -68.461725284107 0.0780575244657493 -68.4617252841058 0.943923342584555 -164.854155854008 
20.65                          0.946860749136338 -162.453269553131 0.0707463306898875 -71.4748648746503 0.0707463306898873 -71.4748648746495 0.947873292953376 -167.600484303377 
20.7                           0.95012745081181 -165.02502684184 0.0642863255963983 -74.3332510381533 0.064286325596398 -74.3332510381529 0.951356328979973 -170.19497406475 
20.75                          0.953048305420804 -167.474084908594 0.0585630267248357 -77.0513685406775 0.0585630267248355 -77.0513685406774 0.954442394411532 -172.653092627919 
20.8                           0.955671265792369 -169.811478065392 0.0534788500573717 -79.6419496225455 0.0534788500573713 -79.6419496225459 0.957188909567593 -174.988302086899 
20.85                          0.958036029441331 -172.04696253299 0.0489505201871682 -82.1162156796737 0.0489505201871676 -82.1162156796743 0.959643300693949 -177.212359714527 
20.9                           0.9601756890114  -174.189188510052 0.0449068563227881 -84.4840842774135 0.0449068563227876 -84.4840842774144 0.961844977692045 -179.335569940087 
20.95                          0.962118018416125 -176.245847550231 0.0412868958316978 -86.7543459232738 0.0412868958316971 -86.7543459232749 0.963826885328177 178.633004446397 
21                             0.963886480118693 -178.223798556408 0.0380383123732073 -88.9348148285724 0.0380383123732066 -88.9348148285737 0.965616724763957 176.685365097092 
21.05                          0.965501018405372 179.870824544878 0.0351160865382241 -91.0324574901165 0.0351160865382232 -91.0324574901179 0.967237919893258 174.814429182641 
21.1                           0.966978687817765 178.032520722979 0.0324813904244266 -93.0535024549897 0.0324813904244256 -93.0535024549911 0.968710385611054 173.013903944207 
21.15                          0.96833415404482 176.256342987784 0.0301006521186401 -95.0035341646439 0.0301006521186392 -95.0035341646455 0.970051141804983 171.278180738615 
21.2                           0.969580095638437 174.537830730963 0.0279447707658661 -96.8875733427165 0.0279447707658651 -96.8875733427182 0.971274806678785 169.602245285812 
21.25                          0.970727528192253 172.872951542912 0.0259884573404056 -98.7101460081293 0.0259884573404047 -98.7101460081309 0.972393995263804 167.98160140619  
21.3                           0.971786067560112 171.258051053673 0.0242096802067589 -100.475342863994 0.024209680206758 -100.475342863995 0.973419643074166 166.412206013857 
21.35                          0.972764144870542 169.689809577167 0.0225891980080696 -102.186870531178 0.0225891980080687 -102.18687053118 0.974361270365817 164.890413525663 
21.4                           0.973669183202499 168.165204533912 0.0211101653590819 -103.848095858105 0.0211101653590812 -103.848095858106 0.975227199027401 163.412928168364 
21.45                          0.974507743591411 166.681477792102 0.0197577992930715 -105.462084339703 0.0197577992930708 -105.462084339704 0.976024731502645 161.976762930329 
21.5                           0.975285646359228 165.23610720475  0.0185190964748546 -107.031633512762 0.018519096474854 -107.031633512763 0.976760299124347 160.579204120051 
21.55                          0.976008072478296 163.826781735633 0.0173825929034099 -108.559302056987 0.0173825929034093 -108.559302056988 0.977439585681964 159.21778067034  
21.6                           0.976679648690185 162.451379662621 0.016338159242829 -110.047435216257 0.0163381592428286 -110.047435216258 0.978067630837829 157.890237471794 
21.65                          0.977304519335522 161.10794942688  0.0153768260882575 -111.498187059018 0.0153768260882572 -111.498187059019 0.978648917067896 156.59451213781  
21.7                           0.977886407255683 159.794692763031 0.0144906344365244 -112.913540017059 0.0144906344365241 -112.91354001706 0.979187443068902 155.328714701064 
21.75                          0.978428665661977 158.509949800937 0.0136725074251505 -114.295322075398 0.0136725074251503 -114.295322075399 0.979686785997545 154.091109821768 
21.8                           0.97893432250225 157.252185876262 0.0129161400583611 -115.645221930301 0.0129161400583611 -115.645221930301 0.980150154452747 152.880101154535 
21.85                          0.979406118566066 156.019979825883 0.0122159041794535 -116.9648023858  0.0122159041794535 -116.9648023858  0.980580433751903 151.694217575691 
21.9                           0.979846540340302 154.81201357688  0.0115667663958688 -118.255512219751 0.0115667663958689 -118.255512219751 0.980980224765367 150.532101018627 
21.95                          0.980257848444117 153.627062865335 0.0109642170333779 -119.518696717401 0.0109642170333781 -119.518696717402 0.981351877344258 149.392495702884 
22                             0.980642102325547 152.463988944323 0.0104042085026931 -120.755607042419 0.0104042085026934 -120.75560704242 0.981697519192619 148.274238574466 
22.05                          0.98100118178386 151.321731160056 0.00988310171678512 -121.967408591623 0.00988310171678543 -121.967408591624 0.982019080886536 147.176250801559 
22.1                           0.981336805786152 150.199300291758 0.00939761940944086 -123.155188459497 0.00939761940944122 -123.155188459497 0.982318317622617 146.097530192223 
22.15                          0.981650548968915 149.095772564926 0.00894480538262781 -124.319962121392 0.00894480538262821 -124.319962121392 0.982596828180472 145.03714441947  
22.2                           0.981943856151791 148.010284259625 0.00852198885820531 -125.462679429684 0.00852198885820572 -125.462679429684 0.982856071503983 143.994224955118 
22.25                          0.98221805513862 146.942026845738 0.00812675323345712 -126.584230004581 0.00812675323345758 -126.584230004582 0.983097381240716 142.967961627288 
22.3                           0.982474368037987 145.890242585829 0.00775690864394348 -127.685448090568 0.00775690864394393 -127.685448090568 0.983321978524979 141.957597727872 
22.35                          0.982713921299953 144.854220553824 0.00741046782466603 -128.767116940197 0.0074104678246665 -128.767116940199 0.983530983245522 140.962425606106 
22.4                           0.982937754636181 143.833293024158 0.00708562483428842 -129.82997277904 0.00708562483428887 -129.829972779041 0.983725424002005 139.981782692666 
22.45                          0.983146828966092 142.826832191632 0.00678073626944678 -130.874708398712 0.00678073626944726 -130.874708398713 0.983906246923677 139.015047905894 
22.5                           0.983342033511113 141.834247187023 0.0064943046489138 -131.90197641903 0.00649430464891425 -131.901976419032 0.984074323498086 138.061638397853 
22.55                          0.983524192141814 140.854981357665 0.00622496369209788 -132.912392255213 0.00622496369209829 -132.912392255214 0.984230457536194 137.121006603191 
22.6                           0.983694069068184 139.888509785842 0.00597146525437191 -133.906536821626 0.00597146525437231 -133.906536821627 0.984375391382239 136.192637558338 
22.65                          0.983852373950958 138.934337020962 0.00573266771409424 -134.884958999763 0.00573266771409459 -134.884958999764 0.984509811461494 135.276046462491 
22.7                           0.983999766501527 137.991995004254 0.00550752563380761 -135.848177894788 0.00550752563380792 -135.84817789479 0.984634353246218 134.370776455213 
22.75                          0.984136860629011 137.061041167082 0.00529508054171994 -136.796684902114 0.00529508054172022 -136.796684902116 0.984749605709203 133.476396588476 
22.8                           0.98426422818555 136.141056686111 0.00509445269980181 -137.73094560296 0.00509445269980204 -137.730945602962 0.984856115325073 132.592499973487 
22.85                          0.984382402354357 135.231644880348 0.00490483374220165 -138.651401505636 0.00490483374220181 -138.651401505637 0.98495438967155 131.718702084928 
22.9                           0.984491880719484 134.332429736744 0.00472548008261109 -139.55847164742 0.00472548008261122 -139.55847164742 0.985044900676197 130.854639207148 
22.95                          0.984593128051514 133.443054552415 0.00455570700207729 -140.452554070195 0.00455570700207735 -140.452554070196 0.985128087548319 129.999967008599 
23                             0.984686578839179 132.563180682828 0.00439488333985985 -141.334027181575 0.00439488333985986 -141.334027181576 0.98520435943075 129.154359232276 
