! Touchstone file exported from HFSS 3D Layout Design 2026.1.0
!        File:           D:/Work/ADS/HFSS_VERDICT/hfss_sma_connector_cpw.aedt
!        Generated:      02:52:51 PM Aug  6, 2026
!        Design:         SINGLE_END_SMA_CPW_30MM
!        Project:        hfss_sma_connector_cpw
!
! Variables:
!        $sma_Base_D = 6.25mm
!        $sma_Base_L = 8mm
!        $sma_Feet_L = 4mm
!        $sma_Feet_W = 1mm
!        $sma_Front_L = 1.5mm
!        $sma_Front_W = 6.5mm
!        $sma_Hole_D = 1.25mm
!        $sma_PTFE_D = 4.2mm
!        $sma_Pin_D = 0.95mm
!        $sma_Pin_P = 1.7mm
!
# GHz S MA R 50.000000
! Terminal data exported
! Port[1] = Port1
! Port[2] = S1_1_Pin_T1
0.5                            0.0641371323948161 -131.029964570871 0.988081826435436 -41.6077953423636 0.988081826435436 -41.6077953423636 0.0643561952344572 -134.238860012332 
0.6                            0.0745197190402768 -139.251670508259 0.985787920447694 -49.8336000690896 0.985787920447692 -49.8336000690897 0.0746835657321119 -142.964401506844 
0.7                            0.0837751767480452 -147.426651162641 0.983560464406737 -58.0399454421428 0.983560464406734 -58.0399454421428 0.0838443612914166 -151.559511081505 
0.8                            0.0918042495777851 -155.585482882421 0.981417159476804 -66.2296324673447 0.981417159476801 -66.2296324673448 0.0917425950775935 -160.03594767401 
0.9                            0.0985240240473307 -163.752504850988 0.979377860674124 -74.4048247527519 0.979377860674121 -74.4048247527519 0.0983007946285692 -168.395827626819 
1                              0.103869798533531 -171.949917093965 0.977463830387659 -82.5676060938744 0.977463830387657 -82.5676060938744 0.103461517489579 -176.634481021605 
1.1                            0.107796234813868 179.799559754809 0.975694452327717 -90.7202220827978 0.975694452327717 -90.7202220827978 0.107188187193758 175.258469573004 
1.2                            0.110277990606126 171.470676919259 0.974084052802757 -98.8651257318259 0.974084052802758 -98.8651257318259 0.109465452970812 167.29923509     
1.3                            0.111310184527302 163.033791032859 0.972639635722883 -107.004915903736 0.972639635722884 -107.004915903736 0.110299481207109 159.510948641085 
1.4                            0.11090901295286 154.45272626634  0.971359652625373 -115.142224244503 0.971359652625375 -115.142224244503 0.109718571384131 151.925682778029 
1.5                            0.10911279390631 145.681949830546 0.970233703288684 -123.279584261143 0.970233703288686 -123.279584261143 0.107774443277119 144.587545399784 
1.6                            0.105983725301   136.662547747383 0.969243003281093 -131.419302929988 0.969243003281095 -131.419302929988 0.10454455160764 137.55720062504  
1.7                            0.101610755522587 127.316278960061 0.968361451115243 -139.563347300841 0.968361451115245 -139.563347300841 0.100135902873801 130.918386792725 
1.8                            0.0961142283961412 117.536643105906 0.967557139554562 -147.713253651739 0.967557139554563 -147.713253651739 0.0946911329045759 124.787233090289 
1.9                            0.0896534764950658 107.175437699684 0.966794169316797 -155.870063510845 0.966794169316798 -155.870063510845 0.0883981175305029 119.325231381045 
2                              0.0824394428293495 96.0229529436757 0.966034634969472 -164.034288556573 0.966034634969473 -164.034288556573 0.0815051496301445 114.755936456077 
2.1                            0.0747558318133282 83.7809291991634 0.96524066204839 -172.20590462564 0.965240662048391 -172.20590462564 0.0743444117540343 111.381780045437 
2.2                            0.0669937874940054 70.0339822384577 0.96437638275462 179.615626419631 0.96437638275462 179.615626419631 0.0673654479294644 109.58541673492  
2.3                            0.0597033455254253 54.250130266546  0.963409746927679 171.431309493647 0.963409746927679 171.431309493647 0.0611718804017715 109.770506025978 
2.4                            0.0536467064614004 35.9073525580917 0.962314077166193 163.242547398897 0.962314077166193 163.242547398897 0.0565262991116981 112.155898477488 
2.5                            0.0497755703457413 14.9181970748428 0.961069293194492 155.051054804382 0.961069293194493 155.051054804382 0.0542394395746621 116.388556763032 
2.6                            0.0489734509654506 -7.72295190433177 0.959662751168731 146.858760327101 0.959662751168732 146.858760327101 0.0548797377441473 121.287154660784 
2.7                            0.0515724196567365 -29.9843766934425 0.958089667866307 138.667702335108 0.958089667866307 138.667702335108 0.058470610689965 125.289673975694 
2.8                            0.057136614718447 -50.0882550576319 0.956353125968636 130.47992413782  0.956353125968638 130.47992413782  0.0645049040965297 127.33823329462  
2.9                            0.0648070746059109 -67.4624614443875 0.954463682668088 122.297373929493 0.954463682668092 122.297373929493 0.0722515784532949 127.198507206373 
3                              0.0737407729808891 -82.4124797956748 0.952438627155354 114.12181423024  0.952438627155357 114.12181423024  0.0810249650816109 125.142240748409 
3.1                            0.0832858381951682 -95.4941486661578 0.950300951002651 105.954744685818 0.950300951002654 105.954744685818 0.0902820424857523 121.580992559489 
3.2                            0.0929751632830692 -107.206830289431 0.948078107545026 97.7973410301123 0.948078107545027 97.7973410301123 0.0996171626383288 116.889742522951 
3.3                            0.102475529334073 -117.92626300618 0.945800641463934 89.6504118837053 0.945800641463935 89.6504118837053 0.108729595481604 111.362180067774 
3.4                            0.111544258959018 -127.920305441247 0.943500768206351 81.5143739576671 0.943500768206353 81.5143739576671 0.11739399741977 105.216605831575 
3.5                            0.120000545300773 -137.378618230766 0.941210975716987 73.3892452382002 0.94121097571699 73.3892452382002 0.125439519248096 98.6134342458165 
3.6                            0.127707685762022 -146.437450245247 0.938962709815958 65.2746549053641 0.938962709815961 65.2746549053641 0.132736094678543 91.6715071480662 
3.7                            0.134562073137708 -155.197203821407 0.936785191203978 57.1698681198069 0.936785191203981 57.1698681198068 0.1391855421045  84.4805452224019 
3.8                            0.140486174686344 -163.734291200135 0.934704398205744 49.0738234002312 0.934704398205746 49.0738234002311 0.144715671576268 77.1100614604859 
3.9                            0.145423870988232 -172.109078147687 0.932742236336399 40.9851800942187 0.932742236336401 40.9851800942187 0.149276234670038 69.6156411355586 
4                              0.14933724034987 179.628727744698 0.930915904528618 32.9023733843076 0.930915904528621 32.9023733843076 0.152836024015827 62.0434030685784 
4.1                            0.152204286767727 171.436327435845 0.929237458863666 24.8236743312927 0.929237458863667 24.8236743312927 0.155380733623176 54.4332479855514 
4.2                            0.154017342195276 163.275119482543 0.927713567977628 16.7472525991179 0.927713567977629 16.747252599118  0.156911382533666 46.821316923584  
4.3                            0.154782005624315 155.108633747473 0.926345449724054 8.67123969732433 0.926345449724055 8.67123969732434 0.157443223732215 39.2419489169655 
4.4                            0.154516558070193 146.900844831651 0.925128975736768 0.593790793226111 0.925128975736769 0.593790793226064 0.157005133759787 31.7293340330501 
4.5                            0.153251840068512 138.614680253987 0.924054928749001 -7.48685662816692 0.924054928749001 -7.48685662816683 0.155639521610663 24.318991461833  
4.6                            0.151031611799268 130.210588920232 0.923109396413096 -15.5723287491974 0.923109396413096 -15.5723287491973 0.153402817156235 17.0491496835426 
4.7                            0.147913444156329 121.645071148376 0.922274284560178 -23.6640673092934 0.922274284560179 -23.6640673092933 0.150366603785353 9.96205396896231 
4.8                            0.143970216413563 112.869106129274 0.921527932123912 -31.7632884190237 0.921527932123912 -31.7632884190237 0.14661944683453 3.10516093859515 
4.9                            0.139292322642447 103.826463826754 0.920845809273457 -39.870949068329 0.920845809273456 -39.870949068329 0.14226943154237 -3.46791864895975 
5                              0.133990707414689 94.4519842262374 0.920201279744143 -47.9877218411701 0.920201279744143 -47.98772184117  0.137447343009695 -9.6970248562671 
5.1                            0.128200839381665 84.6700956378289 0.919566408088406 -56.113978092263 0.919566408088405 -56.113978092263 0.132310258556255 -15.5161414217424 
5.2                            0.122087636602457 74.3942027849882 0.918912792758865 -64.2497796026106 0.918912792758864 -64.2497796026105 0.127045017169006 -20.8560600574385 
5.3                            0.115851071463934 63.5282067580235 0.918212406646155 -72.3948785312976 0.918212406646154 -72.3948785312976 0.121870499627708 -25.6502826589565 
5.4                            0.10973151226194 51.9723845375797 0.917438427814482 -80.5487253439602 0.91743842781448 -80.5487253439602 0.117036847262895 -29.8456020859614 
5.5                            0.104012541038891 39.6369424908288 0.916566044386202 -88.7104843386725 0.9165660443862  -88.7104843386725 0.112818804300971 -33.4181789933285 
5.6                            0.0990169055943111 26.4667342677708 0.915573218337189 -96.8790564072169 0.915573218337185 -96.8790564072169 0.109499891616031 -36.393620547693 
5.7                            0.095089121374043 12.4774200140481 0.914441392860383 -105.053108741201 0.91444139286038 -105.053108741201 0.107345369072511 -38.8651568064473 
5.8                            0.092558648063771 -2.20623654253691 0.913156126590632 -113.23111127231 0.91315612659063 -113.23111127231 0.106566232827234 -40.9994230646983 
5.9                            0.091684785872187 -17.333004842289 0.911707635404361 -121.411379661401 0.911707635404359 -121.411379661401 0.107283142126928 -43.0198699529184 
6                              0.0925991269913439 -32.5549677722586 0.9100912192941  -129.592124557252 0.910091219294096 -129.592124557252 0.10950364126614 -45.1678310961956 
6.1                            0.0952726910596979 -47.5056978103208 0.908307549083792 -137.771506585663 0.90830754908379 -137.771506585662 0.113122673009021 -47.6558448292921 
6.2                            0.0995264315520518 -61.8886634812362 0.906362786933955 -145.947696093931 0.906362786933952 -145.947696093931 0.117945592809758 -50.6335626162258 
6.3                            0.105077991377204 -75.5282751741661 0.904268517066668 -154.118936104885 0.904268517066667 -154.118936104885 0.123722915190175 -54.1773813163561 
6.4                            0.111599068449433 -88.3687024691109 0.902041469786978 -162.283606317023 0.902041469786979 -162.283606317023 0.130184076305487 -58.3004112296895 
6.5                            0.118761180595556 -100.44046911323 0.899703032675728 -170.440285442186 0.899703032675727 -170.440285442186 0.137062516807697 -62.9718548589248 
6.6                            0.126262338970193 -111.821621232918 0.897278556745719 -178.587808821144 0.897278556745719 -178.587808821144 0.144110593094804 -68.1362724229055 
6.7                            0.133837946095134 -122.60820615239 0.894796480505301 173.274681807162 0.8947964805053  173.274681807161 0.151106452542059 -73.7281380177714 
6.8                            0.14126227911893 -132.896710120644 0.892287308962891 165.147699246439 0.892287308962892 165.147699246439 0.157855883169931 -79.6810100458563 
6.9                            0.148345660231777 -142.77563735135 0.889782495483914 157.031384795637 0.889782495483913 157.031384795637 0.164191592316318 -85.9324298724501 
7                              0.154930298476299 -152.322631683888 0.887313280584186 148.92549673014  0.887313280584186 148.92549673014  0.169971481007306 -92.4259984660345 
7.1                            0.160886209223155 -161.60446277526 0.884909542670754 140.829413932226 0.884909542670753 140.829413932226 0.175076750989231 -99.1118088798778 
7.2                            0.16610773071799 -170.678266324487 0.88259871185703 132.742154401677 0.88259871185703 132.742154401677 0.179410209787681 -105.946023599647 
7.3                            0.170510742287664 -179.593189395896 0.880404790473076 124.662407593204 0.880404790473076 124.662407593204 0.182894878040234 -112.89006591715 
7.4                            0.174030528920155 171.607956830304 0.878347514342143 116.588578913148 0.878347514342142 116.588578913148 0.18547288105075 -119.909677426696 
7.5                            0.176620195212833 162.8871940479   0.876441678885985 108.518844288819 0.876441678885983 108.518844288819 0.187104566715707 -126.973961033756 
7.6                            0.178249536573708 154.21006255745  0.874696644938263 100.451212489531 0.874696644938261 100.451212489531 0.18776779748444 -134.054453695125 
7.7                            0.178904293932347 145.544481733245 0.873116031596332 92.3835927941812 0.873116031596333 92.3835927941812 0.187457391163384 -141.124234112606 
7.8                            0.178585736546582 136.85975103469  0.871697597815699 84.3138656195137 0.871697597815698 84.3138656195138 0.186184718491466 -148.157053813305 
7.9                            0.177310531365229 128.125653283948 0.870433310578653 76.2399537994356 0.870433310578654 76.2399537994357 0.183977493446673 -155.126477458048 
8                              0.17511086623741 119.311626165144 0.869309594844122 68.1598923013555 0.869309594844123 68.1598923013556 0.180879807122167 -162.005026050279 
8.1                            0.172034798694134 110.385977852121 0.868307758417063 60.0718942571141 0.868307758417065 60.0718942571142 0.17695245195055 -168.76333427612 
8.2                            0.168146802565749 101.31513907603  0.867404582631883 51.9744112666634 0.867404582631885 51.9744112666635 0.172273556125842 -175.369362312397 
8.3                            0.16352848065659 92.0629702664733 0.866573066683566 43.8661860106998 0.866573066683569 43.8661860106999 0.166939495590583 178.212252805268 
8.4                            0.158279400038363 82.5901848977174 0.865783309121366 35.7462953050239 0.865783309121367 35.746295305024  0.161065970487367 172.02055481083  
8.5                            0.152517980246828 72.854017992205  0.865003504282556 27.6141818736511 0.865003504282559 27.6141818736511 0.154789021019493 166.098089398878 
8.6                            0.14638231077145 62.8083728315369 0.864201024460445 19.4696733413885 0.864201024460447 19.4696733413886 0.148265608782892 160.489821084538 
8.7                            0.140030672037329 52.4048271056644 0.863343550891817 11.3129872777382 0.86334355089182 11.3129872777381 0.141673198468179 155.240643992015 
8.8                            0.133641356710063 41.5950625875209 0.862400209047513 3.14472158076356 0.862400209047514 3.14472158076375 0.135207546615017 150.390898920446 
8.9                            0.127411114013681 30.3354426684406 0.861342657276105 -5.03416992529291 0.861342657276106 -5.03416992529301 0.129077682228569 145.969406170202 
9                              0.121551186580254 18.5944446851713 0.860146073730457 -13.2224161077107 0.860146073730457 -13.2224161077108 0.123496979135016 141.984029420548 
9.1                            0.116279603209591 6.36316443097172 0.858789985750789 -21.4184800149237 0.858789985750789 -21.4184800149237 0.118669535656568 138.410932484882 
9.2                            0.111808453048398 -6.33221470017837 0.857258889245333 -29.6206211014958 0.857258889245333 -29.6206211014958 0.11477214118488 135.185422402917 
9.3                            0.108325808848279 -19.4193196734347 0.8555426133986  -37.8269653047036 0.855542613398599 -37.8269653047036 0.111934064255586 132.198789953886 
9.4                            0.105974168742785 -32.7753816644698 0.853636397978282 -46.0355794579803 0.853636397978281 -46.0355794579804 0.110219165704364 129.305248661433 
9.5                            0.104830258550929 -46.2354082492266 0.85154066576161 -54.2445460748962 0.851540665761608 -54.2445460748962 0.109615913424437 126.339679829969 
9.6                            0.104892904076515 -59.6139338106172 0.849260489848834 -62.4520343116641 0.849260489848834 -62.4520343116642 0.110039220783364 123.14155760929  
9.7                            0.106084195325432 -72.7343817230948 0.846804773300142 -70.6563629388528 0.846804773300141 -70.6563629388529 0.111343852144225 119.576904052849 
9.8                            0.108264209164341 -85.4553352612485 0.844185175045752 -78.8560514194331 0.844185175045751 -78.8560514194332 0.113344883229254 115.551399982174 
9.9                            0.111254197144969 -97.6849880908527 0.841414830065378 -87.0498556706609 0.841414830065379 -87.049855670661 0.115839039402832 111.01272383699  
10                             0.114860948844927 -109.381893778976 0.83850692257104 -95.2367857333124 0.838506922571039 -95.2367857333124 0.118622156191312 105.944870987163 
