! Touchstone file exported from HFSS 3D Layout Design 2026.1.0
!        File:           D:/Work/SIM/ADS_AUTO_SIM/projects/RFSOC_RF/TX_Fillter.aedt
!        Generated:      05:11:10 AM Aug 31, 2026
!        Design:         TX_BAND1_MCFIL_R51_CNN036
!        Project:        TX_Fillter
!
# GHz S MA R 50.000000
! Terminal data exported
! Port[1] = Port1
! Port[2] = Port2
14                             0.973288177029601 -163.779382493284 0.00369061545316037 -176.504239291428 0.00369061545316037 -176.504239291428 0.97390319921847 -162.432658390753 
14.05                          0.972801387159072 -164.657783631345 0.00376445069350668 -176.883894610456 0.00376445069350666 -176.883894610456 0.973431458688839 -163.308739028833 
14.1                           0.97229922126016 -165.542119945647 0.00384186779737359 -177.243313257339 0.00384186779737357 -177.243313257338 0.972945206383805 -164.190604510877 
14.15                          0.971780910997185 -166.432577223625 0.00392315016620589 -177.582137167589 0.00392315016620583 -177.582137167589 0.972443736902475 -165.078427171619 
14.2                           0.971245636251619 -167.329351239389 0.00400860886855564 -177.90005436229 0.00400860886855556 -177.900054362289 0.971926298382935 -165.972388373915 
14.25                          0.970692520749586 -168.232648421149 0.00409858565001368 -178.196807121814 0.0040985856500136 -178.196807121813 0.971392088655588 -166.872679097183 
14.3                           0.970120627243748 -169.142686572845 0.0041934562929324 -178.472200937245 0.00419345629293234 -178.472200937244 0.970840251010984 -167.779500572403 
14.35                          0.969528952196144 -170.059695655257 0.00429363436864058 -178.726114247433 0.0042936343686405 -178.726114247432 0.97026986953654 -168.693064968067 
14.4                           0.96891641990118 -170.983918632466 0.00439957543045159 -178.958508954327 0.00439957543045151 -178.958508954326 0.969679963970341 -169.613596132017 
14.45                          0.968281875979402 -171.915612390209 0.00451178170221781 -179.16944169058 0.00451178170221773 -179.16944169058 0.969069484013006 -170.541330394606 
14.5                           0.967624080162793 -172.855048733448 0.00463080732464336 -179.359075791405 0.00463080732464327 -179.359075791404 0.968437303030259 -171.476517439275 
14.55                          0.96694169828082 -173.802515471316 0.00475726423023488 -179.527693897274 0.00475726423023485 -179.527693897273 0.967782211069174 -172.41942124732 
14.6                           0.966233293343014 -174.758317598601 0.00489182872788015 -179.675711085691 0.00489182872788008 -179.675711085689 0.967102907099789 -173.370321124427 
14.65                          0.965497315598259 -175.722778584036 0.00503524888988969 -179.803688399339 0.00503524888988959 -179.803688399338 0.966397990380669 -174.329512817446 
14.7                           0.964732091432581 -176.696241776926 0.00518835284827503 -179.91234660551 0.00518835284827496 -179.912346605509 0.965665950831615 -175.297309730888 
14.75                          0.963935810945751 -177.679071945082 0.0053520581234961 179.997420011109 0.00535205812349606 179.99742001111  0.964905158278763 -176.274044253794 
14.8                           0.963106514021706 -178.671656958687 0.00552738212841914 179.924530051615 0.0055273821284191 179.924530051616 0.964113850416127 -177.260069208925 
14.85                          0.962242074677929 -179.674409636585 0.00571545401341957 179.867701859436 0.00571545401341955 179.867701859437 0.96329011930275 -178.255759437723 
14.9                           0.961340183443642 179.312230226372 0.00591752804621024 179.825441109866 0.0059175280462102 179.825441109866 0.962431896185198 -179.26151353619 
14.95                          0.960398327474766 178.287793629808 0.00613499875300217 179.796029425954 0.00613499875300213 179.796029425955 0.961536934400248 179.722244241238 
15                             0.959413768063826 177.251779912241 0.00636941808713251 179.777514316537 0.00636941808713248 179.777514316538 0.960602790071195 178.695061890524 
15.05                          0.958383515143512 176.203654042275 0.00662251493866609 179.76770072042  0.00662251493866606 179.76770072042  0.959626800261833 177.656457357758 
15.1                           0.957304298311544 175.142843625723 0.00689621735531907 179.764144412358 0.00689621735531907 179.764144412357 0.958606058193175 176.605916005086 
15.15                          0.956172533819111 174.068735593542 0.00719267791331978 179.764147479389 0.00719267791331977 179.764147479389 0.957537385057219 175.542887814861 
15.2                           0.954984286862455 172.980672530564 0.0075143027588808 179.764756009179 0.0075143027588808 179.764756009179 0.956417297877001 174.466784300281 
15.25                          0.953735228393007 171.877948599388 0.00786378493967802 179.762760045134 0.00786378493967804 179.762760045134 0.955241972759563 173.376975086488 
15.3                           0.952420585511158 170.759805007327 0.0082441427646083 179.754695757335 0.0082441427646083 179.754695757335 0.954007202764202 172.27278412126  
15.35                          0.951035084325884 169.625424956886 0.00865876407339939 179.736849656137 0.00865876407339939 179.736849656137 0.952708349457541 171.153485468843 
15.4                           0.949572883939431 168.473928011776 0.00911145747061312 179.70526454043  0.00911145747061314 179.705264540429 0.951340287043122 170.018298634241 
15.45                          0.948027499943288 167.304363800744 0.00960651178767127 179.655746729738 0.00960651178767128 179.655746729738 0.949897337728537 168.866383358197 
15.5                           0.946391715476453 166.115704970522 0.010148765289718 179.583873983963 0.010148765289718 179.583873983963 0.948373196717408 167.696833815196 
15.55                          0.944657477483825 164.906839286718 0.0107436864512898 179.485003372342 0.0107436864512898 179.485003372341 0.946760844874304 166.508672138091 
15.6                           0.942815775301769 163.676560767586 0.0113974684981324 179.354278219061 0.0113974684981324 179.35427821906  0.945052446691651 165.300841183404 
15.65                          0.940856498064164 162.423559720217 0.012117140367247 179.186633131022 0.012117140367247 179.186633131021 0.943239230668601 164.072196441172 
15.7                           0.938768266633505 161.146411532071 0.0129106972921236 178.976796005518 0.0129106972921236 178.976796005519 0.941311348566658 162.82149698271  
15.75                          0.936538234776969 159.843564053271 0.0137872548982271 178.71928582204  0.0137872548982271 178.71928582204  0.939257709202564 161.54739532943  
15.8                           0.934151853074518 158.51332338765  0.0147572315234577 178.408404940086 0.0147572315234577 178.408404940086 0.93706578143365 160.248426116873 
15.85                          0.931592587498694 157.153837894569 0.0158325644938851 178.038224548248 0.0158325644938851 178.038224548249 0.934721359731198 158.922993422023 
15.9                           0.928841582659306 155.763080191723 0.0170269673277529 177.602561830364 0.0170269673277528 177.602561830364 0.932208284156084 157.569356621515 
15.95                          0.925877257254157 154.338826945633 0.0183562363590019 177.094947321638 0.0183562363590018 177.094947321637 0.929508104563476 156.185614657595 
16                             0.922674816175962 152.878636248352 0.0198386171205773 176.50858080849  0.0198386171205772 176.50858080849  0.926599676364601 154.769688614482 
16.05                          0.919205659830953 151.37982241702  0.0214952430674108 175.836273966912 0.0214952430674108 175.836273966913 0.923458672035245 153.319302560363 
16.1                           0.915436666328156 149.83942813508  0.0233506619083139 175.070377721462 0.0233506619083139 175.070377721462 0.920056988630157 151.831962706052 
16.15                          0.911329316069728 148.254194008208 0.0254334680020639 174.202692028634 0.0254334680020639 174.202692028635 0.916362026667191 150.304935095514 
16.2                           0.906838620663121 146.620525878827 0.0277770629687051 173.224355435843 0.0277770629687051 173.224355435843 0.912335809705323 148.735222315727 
16.25                          0.901911808752485 144.934460700952 0.0304205708108496 172.125711340342 0.0304205708108496 172.125711340342 0.907933906604661 147.119540155069 
16.3                           0.896486710190876 143.191632533995 0.0334099382226754 170.896147385348 0.0334099382226754 170.896147385348 0.903104109772273 145.454295846877 
16.35                          0.890489767064383 141.387241447728 0.0367992549024116 169.52390392388  0.0367992549024117 169.523903923881 0.897784812859223 143.735570658193 
16.4                           0.883833586124015 139.516030123959 0.0406523315983258 167.995847040997 0.0406523315983259 167.995847040997 0.891903021103235 141.959111357616 
16.45                          0.876413934046191 137.572276144299 0.0450445734601529 166.29720141915  0.045044573460153 166.297201419151 0.885371918584561 140.120337887201 
16.5                           0.868106068786197 135.549813086207 0.0500651796960043 164.411238663247 0.0500651796960045 164.411238663247 0.878087912880955 138.214378941578 
16.55                          0.858760305599722 133.442101753782 0.0558196816969242 162.318918107148 0.0558196816969243 162.318918107148 0.869927086541163 136.236154003687 
16.6                           0.848196751535552 131.242385952888 0.0624327907187898 159.998480519591 0.06243279071879 159.998480519591 0.860741020856658 134.180531043327 
16.65                          0.836199238061576 128.943988011021 0.0700514464122395 157.425002048198 0.0700514464122396 157.425002048198 0.85035204710484 132.042605549328 
16.7                           0.822508693482756 126.540832080196 0.0788478126597013 154.569928672732 0.0788478126597015 154.569928672733 0.838548170957162 129.81817168411  
16.75                          0.806816621779598 124.028334565641 0.0890217175098082 151.40063425843  0.0890217175098084 151.40063425843  0.825078288012541 127.504493847767 
16.8                           0.788760153787812 121.404879658717 0.100801624294216 147.880083683357 0.100801624294216 147.880083683357 0.809648994128319 125.101540844953 
16.85                          0.767921560976066 118.674214463423 0.114442586916569 143.966743918852 0.114442586916569 143.966743918852 0.791925490431197 122.613917132494 
16.9                           0.743837515678383 115.849260373784 0.130218739817932 139.614978081653 0.130218739817932 139.614978081653 0.771541040150249 120.053809398173 
16.95                          0.716027099516327 112.958035706435 0.148406761447301 134.77628292823  0.1484067614473  134.77628292823  0.748122352743145 117.445329405901 
17                             0.684052644491014 110.052553084027 0.16925577308507 129.401873074629 0.169255773085069 129.401873074629 0.721341956864989 114.830580687981 
17.05                          0.647632807010644 107.221475832819 0.192939228611902 123.447214776676 0.192939228611902 123.447214776676 0.691011659063322 112.277381606859 
17.1                           0.606828772365569 104.606413267321 0.219487356324015 116.879026318268 0.219487356324014 116.879026318268 0.657229390921557 109.887391003529 
17.15                          0.562312607604394 102.418686043806 0.24870714259075 109.684749622605 0.248707142590749 109.684749622606 0.620576457630843 107.800717915487 
17.2                           0.515684746583461 100.945731009744 0.280111897815755 101.883306054707 0.280111897815755 101.883306054708 0.582321321402624 106.188500812878 
17.25                          0.469716082231676 100.521440070923 0.31289936435567 93.5341314198379 0.312899364355671 93.5341314198381 0.544515348609607 105.220106869852 
17.3                           0.428251789189677 101.418283275282 0.346021119535842 84.7398952944045 0.346021119535842 84.7398952944045 0.509798589556531 104.994328294686 
17.35                          0.395426533136683 103.63945897022  0.378357719703655 75.6386809984299 0.378357719703655 75.63868099843   0.480771999568363 105.448799366737 
17.4                           0.374104205305156 106.718233819966 0.408954532418303 66.3850622652492 0.408954532418303 66.3850622652492 0.459055868630079 106.308813373204 
17.45                          0.364318777325539 109.791339856746 0.43722247235759 57.1251713006894 0.43722247235759 57.1251713006894 0.444543027430895 107.150200775442 
17.5                           0.363101611870121 112.021938228123 0.463016626898386 47.9744537090093 0.463016626898386 47.9744537090092 0.435402638734103 107.563654263144 
17.55                          0.365958863816129 112.981238670212 0.486574366182192 39.0052474386467 0.486574366182191 39.0052474386465 0.428832885751605 107.299629995692 
17.6                           0.368634156065336 112.669430849399 0.508364984728578 30.2459933174462 0.508364984728576 30.2459933174461 0.42199158875464 106.30199393574  
17.65                          0.36801722891582 111.322403150134 0.528924554329021 21.6890314398696 0.52892455432902 21.6890314398694 0.412595034701774 104.655716470721 
17.7                           0.362227632565348 109.244499850612 0.548725929760859 13.3022344362274 0.548725929760858 13.3022344362274 0.399101649827594 102.520830593426 
17.75                          0.350356518879829 106.736656124828 0.568099081883374 5.04070770714469 0.568099081883373 5.04070770714465 0.380655623911903 100.093570151484 
17.8                           0.332196491860963 104.092307808821 0.587195265905065 -3.14337344608637 0.587195265905063 -3.14337344608637 0.35697219554637 97.6002061600158 
17.85                          0.308079673108041 101.629716027273 0.605982931879904 -11.2933028424528 0.605982931879903 -11.2933028424527 0.328265279314942 95.3178977007123 
17.9                           0.278844050819031 99.7494047274328 0.624266423048753 -19.4426087031   0.624266423048753 -19.4426087030999 0.295257478667079 93.6207753235051 
17.95                          0.245930363172549 99.0211921906188 0.641723089175811 -27.6117872175893 0.641723089175812 -27.6117872175893 0.25929439153254 93.0566036201044 
18                             0.211637852011858 100.304737933312 0.657956454876299 -35.8068788080191 0.657956454876301 -35.8068788080192 0.222601379329157 94.4552049407797 
18.05                          0.17959224919339 104.833374288524 0.672561452412346 -44.019883407443 0.672561452412348 -44.0198834074431 0.188733416409115 98.9971062357354 
18.1                           0.155263476157725 113.841372853126 0.685193582258937 -52.2309771578237 0.685193582258939 -52.2309771578239 0.163044987951971 107.848142826682 
18.15                          0.145169517736254 126.816544444183 0.695629920063288 -60.412275119146 0.695629920063289 -60.4122751191462 0.15187074631303 120.532637879417 
18.2                           0.152551540233749 139.836447902472 0.703809251120739 -68.5325719198357 0.70380925112074 -68.532571919836 0.158361530899719 133.372615586774 
18.25                          0.173849700503651 148.88265349303  0.709842886637956 -76.56224868588  0.709842886637956 -76.5622486858803 0.179033537959712 142.474294520184 
18.3                           0.202426161995859 153.318063998945 0.713995627527435 -84.4775057469619 0.713995627527435 -84.4775057469621 0.207252090537365 147.091117194334 
18.35                          0.232980520366671 154.322810346468 0.716644317314348 -92.2633012861034 0.716644317314348 -92.2633012861036 0.237625218753668 148.304238865471 
18.4                           0.262261811832137 153.09495296484  0.718225942455698 -99.9147500275576 0.718225942455697 -99.9147500275577 0.266820649551164 147.27962515271  
18.45                          0.288425400368339 150.445004730534 0.719187012728969 -107.43710458525 0.719187012728968 -107.43710458525 0.292952682816653 144.826793864314 
18.5                           0.310465949662969 146.870336168873 0.719942254171493 -114.844681269061 0.719942254171493 -114.844681269061 0.315006526340088 141.452041213535 
18.55                          0.327878063956133 142.669190392515 0.72084590073614 -122.159165237491 0.72084590073614 -122.159165237491 0.332487586401264 137.465853838706 
18.6                           0.340461033787368 138.018299720527 0.722175058515501 -129.40767497897 0.722175058515503 -129.40767497897 0.345219236374081 133.059341121001 
18.65                          0.348204580752583 133.019197201605 0.724122552423472 -136.62085069579 0.724122552423475 -136.62085069579 0.353225239610673 128.351100741635 
18.7                           0.351222882122743 127.725118644089 0.726796192528226 -143.831113323185 0.726796192528229 -143.831113323184 0.356662654236481 123.415341752134 
18.75                          0.349720076908964 122.156400310021 0.730221927809517 -151.071153540171 0.730221927809522 -151.071153540171 0.355787305931021 118.298944992423 
18.8                           0.343977750705082 116.308750226159 0.734349293221539 -158.372663250008 0.734349293221544 -158.372663250008 0.350941410860282 113.031866492646 
18.85                          0.334358303769095 110.156604657634 0.739058471198095 -165.765311598586 0.7390584711981  -165.765311598586 0.342556230289365 107.633182191797 
18.9                           0.321319871391735 103.652519486502 0.744168915290725 -173.275982991757 0.74416891529073 -173.275982991757 0.331163926090028 102.113764490875 
18.95                          0.305439673900067 96.722859899234  0.749449663206349 179.07167790592  0.749449663206353 179.07167790592  0.31741303678981 96.4756989482492 
19                             0.287444048700427 89.2599452043356 0.754631114914472 171.257345351866 0.754631114914475 171.257345351866 0.302081802905966 90.707924917343  
19.05                          0.268245498314056 81.1117836334392 0.759417177908574 163.263644377878 0.759417177908575 163.263644377878 0.286083586112249 84.7773134209562 
19.1                           0.248989642092973 72.0739696504479 0.763495447780838 155.075299703654 0.763495447780838 155.075299703654 0.270459774429683 78.6149709010932 
19.15                          0.231114912553209 61.8967120123239 0.76654186650675 146.677853769547 0.766541866506749 146.677853769548 0.256359054754336 72.099979336745  
19.2                           0.216415170787558 50.3346414647432 0.768215656439872 138.056149509696 0.76821565643987 138.056149509696 0.245008569188557 65.0481322777898 
19.25                          0.207052513404339 37.2756526964504 0.768140968703158 129.192964632228 0.768140968703156 129.192964632229 0.237690189400669 57.2206353734346 
19.3                           0.205399510846619 22.9375462546468 0.76587434953251 120.068400995437 0.765874349532509 120.068400995438 0.235734866440375 48.370602076379  
19.35                          0.213607321130668 7.97251246236919 0.760862535740335 110.660835378251 0.760862535740336 110.660835378252 0.240524779224761 38.3305571123783 
19.4                           0.233052378838782 -6.74764700668293 0.752403794124853 100.950349606156 0.752403794124856 100.950349606157 0.253446584789937 27.1065487584383 
19.45                          0.264054349296924 -20.5656892722962 0.739637616215654 90.9254230636511 0.73963761621566 90.9254230636518 0.275714348874724 14.9120918244238 
19.5                           0.30597336752966 -33.2702584405747 0.721598423419291 80.5930202767985 0.721598423419297 80.5930202767991 0.308040380604664 2.10234805414789 
19.55                          0.357375605548081 -44.9847839048341 0.697368664835329 69.9907413756465 0.697368664835334 69.9907413756468 0.350254466505401 -10.9466467355924 
19.6                           0.416072262158405 -55.9406027500148 0.666338348253711 59.1974709490829 0.666338348253713 59.197470949083  0.401045927026383 -23.9250803478551 
19.65                          0.479168609970118 -66.3231524562764 0.628512134816386 48.336994081607  0.628512134816384 48.3369940816069 0.457977823437915 -36.605152044691 
19.7                           0.543328226398297 -76.2196726876633 0.584729064816655 37.5695019191391 0.584729064816648 37.569501919139  0.517833892928941 -48.8162561256601 
19.75                          0.605278390089977 -85.631742488841 0.536646937639394 27.0704161733722 0.536646937639383 27.0704161733723 0.577224165619499 -60.4223059052794 
19.8                           0.662368897163973 -94.5144104194851 0.48644756147148 17.0027818277502 0.486447561471467 17.0027818277506 0.633233835365867 -71.3171272934339 
19.85                          0.712933810186091 -102.815551127196 0.436382454809365 7.49346228625288 0.436382454809351 7.49346228625383 0.683864496508914 -81.430668620059 
19.9                           0.756333938983173 -110.501623010458 0.388361517535383 -1.37904778885311 0.388361517535369 -1.37904778885164 0.728142076634502 -90.7338198551316 
19.95                          0.792743874289434 -117.567208268152 0.343726616239675 -9.58396330271067 0.343726616239663 -9.58396330270864 0.765948020859283 -99.2359112010713 
20                             0.822839658907582 -124.032814567762 0.303225248454469 -17.1288895379977 0.303225248454459 -17.1288895379952 0.797727464657213 -106.975998904998 
20.05                          0.847517261369791 -129.937261686158 0.267113545232572 -24.0474473512869 0.267113545232565 -24.047447351284 0.824209439657011 -114.011915727528 
20.1                           0.867698761720472 -135.329392871243 0.235304673902075 -30.3878903614532 0.235304673902071 -30.3878903614501 0.846204102168559 -120.410397936984 
20.15                          0.884226042612474 -140.261438686543 0.207506933942505 -36.2044999709185 0.207506933942502 -36.2044999709154 0.864483756305799 -126.239799057304 
20.2                           0.897817650644945 -144.784594809527 0.183328574403893 -41.5519324500108 0.183328574403892 -41.5519324500076 0.879727541562424 -131.565498403554 
20.25                          0.90906277758992 -148.946510382394 0.162347342452624 -46.4819516200886 0.162347342452624 -46.4819516200855 0.892505508189703 -136.447454551691 
20.3                           0.918433228032171 -152.790135883619 0.144151693680026 -51.0418227876292 0.144151693680027 -51.0418227876263 0.903283255933791 -140.939221246546 
20.35                          0.926301843648074 -156.353423912552 0.128362279432527 -55.273749280477 0.128362279432529 -55.2737492804744 0.912435260571784 -145.087850759057 
20.4                           0.932961423005567 -159.669509149403 0.114640972830201 -59.2149062644453 0.114640972830202 -59.2149062644429 0.920260400843889 -148.934276844475 
20.45                          0.938641550809082 -162.767123167954 0.10269263652816 -62.8977821191312 0.102692636528162 -62.8977821191292 0.926996607888082 -152.513917261175 
20.5                           0.943522545694014 -165.671097553555 0.0922630237484983 -66.35065218258  0.0922630237484997 -66.3506521825783 0.932833458032536 -155.857343266617 
20.55                          0.947746577529913 -168.402874095478 0.0831348795630517 -69.5980856455604 0.083134879563053 -69.598085645559 0.937922478499516 -158.990933750544 
20.6                           0.951426333716642 -170.980981203386 0.0751234304440225 -72.661433510212 0.0751234304440235 -72.661433510211 0.942385351493606 -161.937474401066 
20.65                          0.954651692062774 -173.421459210699 0.0680719018630498 -75.5592733138423 0.0680719018630505 -75.5592733138416 0.946320344704345 -164.716686797487 
20.7                           0.95749482766934 -175.73823014313 0.0618473774078627 -78.3078019338298 0.0618473774078631 -78.3078019338295 0.949807311003081 -167.345685515164 
20.75                          0.96001411369189 -177.94341412116 0.0563371268256932 -80.921176082327 0.0563371268256934 -80.921176082327 0.952911562816112 -169.839367845288 
20.8                           0.962257103288669 179.952402460223 0.0514454293958404 -83.4118041433711 0.0514454293958403 -83.4118041433712 0.955686874027256 -172.210743479092 
20.85                          0.96426281539566 177.939940833719 0.0470908679227916 -85.7905946701877 0.0470908679227913 -85.7905946701881 0.958177810540135 -174.4712122225  
20.9                           0.966063493933301 176.011039725429 0.0432040458753425 -88.0671672507468 0.0432040458753421 -88.0671672507472 0.960421545907022 -176.630797502125 
20.95                          0.967685968428315 174.158495566522 0.0397256729321043 -90.2500311997496 0.0397256729321037 -90.2500311997502 0.962449282098393 -178.698342662142 
21                             0.969152712180632 172.375928116957 0.0366049649566805 -92.346737000234 0.0366049649566799 -92.3467370002347 0.964287366967748 179.318323861357 
21.05                          0.970482670078615 170.657667279967 0.0337983089743732 -94.3640047897758 0.0337983089743724 -94.3640047897766 0.965958178018401 177.412249310664 
21.1                           0.971691910187666 168.998657553211 0.0312681497200092 -96.3078335633161 0.0312681497200083 -96.3078335633168 0.967480825378732 175.577238975892 
21.15                          0.972794139836672 167.394377153747 0.0289820605411071 -98.1835941931028 0.0289820605411063 -98.1835941931035 0.968871714261453 173.807756546654 
21.2                           0.97380111694854 165.840769361315 0.0269119672674311 -99.9961088637584 0.0269119672674303 -99.996108863759 0.970144997653429 172.098839450143 
21.25                          0.974722979924526 164.334184051408 0.0250334988404194 -101.749719089868 0.0250334988404186 -101.749719089869 0.971312942795026 170.446026700327 
21.3                           0.975568513837116 162.871327744586 0.0233254429638256 -103.448344120246 0.0233254429638248 -103.448344120246 0.97238622957849 168.845297214914 
21.35                          0.976345366523478 161.449220791351 0.0217692888141284 -105.095531229681 0.0217692888141276 -105.095531229682 0.973374194882678 167.29301691276  
21.4                           0.977060225039791 160.065160552476 0.0203488420026186 -106.69449914724 0.0203488420026179 -106.694499147241 0.974285033736285 165.78589319686  
21.45                          0.977718960570292 158.716689631853 0.0190498995921574 -108.248175661922 0.0190498995921568 -108.248175661922 0.975125965816989 164.32093566784  
21.5                           0.978326748088276 157.401568380319 0.0178599751224225 -109.759230274638 0.0178599751224219 -109.759230274638 0.975903373966307 162.89542210939  
21.55                          0.978888165695513 156.11775102119  0.0167680653635827 -111.230102623587 0.0167680653635822 -111.230102623588 0.976622919992585 161.506868948188 
21.6                           0.97940727751533 154.863364856604 0.0157644519661274 -112.663027293009 0.015764451966127 -112.663027293009 0.977289641945603 160.153005523203 
21.65                          0.979887703204281 153.636692102836 0.0148405323606588 -114.060055518465 0.0148405323606584 -114.060055518464 0.977908036199523 158.831751608005 
21.7                           0.980332676519473 152.43615397601  0.0139886752333114 -115.423074221627 0.0139886752333112 -115.423074221627 0.978482127019131 157.541197719396 
21.75                          0.980745094889539 151.260296710048 0.0132020966993548 -116.753822741005 0.0132020966993546 -116.753822741005 0.97901552576459 156.279587819738 
21.8                           0.981127561554394 150.107779238716 0.0124747539517478 -118.053907569634 0.0124747539517477 -118.053907569635 0.979511481479698 155.045304081677 
21.85                          0.981482421537591 148.977362315032 0.011801253699291 -119.324815364577 0.011801253699291 -119.324815364577 0.979972924283198 153.836853434886 
21.9                           0.981811792476814 147.867898875781 0.011176773152024 -120.567924454371 0.0111767731520241 -120.567924454371 0.980402502723387 152.652855656884 
21.95                          0.982117591148667 146.778325487615 0.0105969916770751 -121.784515038117 0.0105969916770752 -121.784515038118 0.980802616048518 151.492032805367 
22                             0.982401556372648 145.707654735263 0.0100580315504517 -122.975778242515 0.0100580315504519 -122.975778242515 0.981175442178445 150.35319981916  
22.05                          0.982665268857834 144.654968432516 0.00955640648073998 -124.142824180073 0.00955640648074021 -124.142824180073 0.981522962027859 149.23525613978  
22.1                           0.982910168457981 143.619411553622 0.0090889767887111 -125.286689132112 0.00908897678871133 -125.286689132113 0.981846980721895 148.137178226598 
22.15                          0.983137569221476 142.600186797041 0.00865291029997651 -126.408341963516 0.00865291029997677 -126.408341963517 0.982149146155472 147.058012856241 
22.2                           0.983348672558178 141.5965497056   0.00824564815228636 -127.508689861986 0.00824564815228666 -127.508689861987 0.982430965274607 145.996871111939 
22.25                          0.983544578792518 140.60780427736  0.00786487483983964 -128.588583482373 0.00786487483983995 -128.588583482374 0.982693818397766 144.952922981176 
22.3                           0.983726297329079 139.633299010244 0.00750849191819322 -129.64882156625 0.00750849191819353 -129.648821566251 0.982938971845731 143.925392490906 
22.35                          0.983894755621294 138.672423330933 0.00717459487837017 -130.69015509788 0.00717459487837047 -130.690155097883 0.983167589107325 142.9135533188   
22.4                           0.984050807104549 137.724604364896 0.00686145277033374 -131.713291050031 0.00686145277033406 -131.713291050034 0.983380740734176 141.916724826938 
22.45                          0.984195238230531 136.789304009894 0.00656749021637087 -132.71889576634 0.0065674902163712 -132.718895766342 0.983579413129185 140.934268471118 
22.5                           0.984328774719388 135.866016279984 0.00629127150597981 -133.707598021186 0.00629127150598012 -133.707598021188 0.983764516369478 139.965584544829 
22.55                          0.984452087129256 134.954264891122 0.00603148650711354 -134.679991792951 0.00603148650711379 -134.679991792954 0.983936891184578 139.010109221938 
22.6                           0.984565795828459 134.053601062917 0.00578693816536075 -135.636638782198 0.005786938165361 -135.636638782201 0.984097315193624 138.067311866511 
22.65                          0.984670475443723 133.163601514157 0.00555653139390217 -136.578070702459 0.0055565313939024 -136.578070702462 0.984246508491165 137.136692581942 
22.7                           0.984766658847582 132.283866632331 0.00533926318372696 -137.504791368025 0.00533926318372718 -137.504791368027 0.984385138658966 136.217779974837 
22.75                          0.984854840739608 131.414018799657 0.00513421378636427 -138.417278600206 0.00513421378636443 -138.417278600208 0.984513825270908 135.310129111945 
22.8                           0.984935480868798 130.553700860117 0.00494053884087398 -139.315985971005 0.00494053884087412 -139.315985971007 0.984633143949338 134.413319650902 
22.85                          0.985009006938244 129.702574713752 0.00475746233355911 -140.201344400919 0.00475746233355921 -140.20134440092 0.984743630023638 133.52695412772  
22.9                           0.9850758172279  128.860320025968 0.00458427029322793 -141.073763625644 0.004584270293228 -141.073763625645 0.9848457818354  132.65065638584  
22.95                          0.985136282966737 128.026633040953 0.00442030513720274 -141.933633544754 0.0044203051372028 -141.933633544754 0.984940063729008 131.78407013325  
23                             0.985190750481633 127.201225489478 0.00426496059394001 -142.781325463933 0.00426496059394 -142.781325463933 0.98502690876166 130.926857615589 
