! Touchstone file exported from HFSS 3D Layout Design 2026.1.0
!        File:           D:/Work/SIM/ADS_AUTO_SIM/projects/RFSOC_RF/TX_Fillter.aedt
!        Generated:      02:31:05 AM Aug 31, 2026
!        Design:         TX_BAND1_MCFIL_R30_CNN014
!        Project:        TX_Fillter
!
# GHz S MA R 50.000000
! Terminal data exported
! Port[1] = Port1
! Port[2] = Port2
14                             0.971722056864443 -166.764988530472 0.00389841267312262 -174.765569718158 0.00389841267312261 -174.765569718158 0.973817688601673 -162.140149000286 
14.05                          0.971179477946251 -167.668010328214 0.00398285256422698 -175.083520742241 0.00398285256422698 -175.083520742241 0.973333927559996 -163.008870316299 
14.1                           0.970618985239405 -168.577900425566 0.00407169447195487 -175.380989094279 0.00407169447195485 -175.38098909428 0.972834811176302 -163.883435179822 
14.15                          0.970039664781075 -169.494886284549 0.00416529897183977 -175.657797208717 0.00416529897183976 -175.657797208718 0.97231956789451 -164.764023300364 
14.2                           0.969440540037242 -170.419207496684 0.00426406231769403 -175.913837622332 0.00426406231769401 -175.913837622333 0.971787373426461 -165.650823988327 
14.25                          0.968820566525411 -171.351116597644 0.00436842032915577 -176.149082754763 0.00436842032915578 -176.149082754763 0.971237346202837 -166.544036801164 
14.3                           0.968178625878408 -172.290879948918 0.00447885272989434 -176.363595353982 0.00447885272989431 -176.363595353983 0.970668542347937 -167.443872242747 
14.35                          0.967513519280772 -173.23877869309 0.0045958879919795 -176.557539558808 0.00459588799197947 -176.557539558809 0.970079950119491 -168.350552521194 
14.4                           0.966823960199603 -174.195109790101 0.00472010874952484 -176.731192507739 0.00472010874952481 -176.73119250774 0.969470483746242 -169.26431237105 
14.45                          0.96610856632044 -175.160187142717 0.00485215785356605 -176.884956398175 0.00485215785356603 -176.884956398176 0.96883897658628 -170.185399946361 
14.5                           0.965365850585688 -176.134342820392 0.00499274515048707 -177.019370872777 0.00499274515048705 -177.019370872778 0.968184173517723 -171.114077792009 
14.55                          0.964594211217833 -177.117928391838 0.00514265507845793 -177.135125581244 0.00514265507845789 -177.135125581245 0.967504722460015 -172.050623901512 
14.6                           0.963791920591837 -178.111316377821 0.00530275519066618 -177.23307273723 0.00530275519066614 -177.233072737231 0.966799164908575 -172.995332870524 
14.65                          0.962957112800197 -179.11490183718 0.00547400573105238 -177.314239462907 0.00547400573105235 -177.314239462907 0.966065925347213 -173.948517156415 
14.7                           0.962087769729563 179.870895899372 0.00565747040833452 -177.379839689603 0.0056574704083345 -177.379839689604 0.965303299381222 -174.910508455584 
14.75                          0.961181705438841 178.845631331225 0.00585432853797017 -177.431285364061 0.00585432853797015 -177.431285364061 0.964509440408662 -175.881659211668 
14.8                           0.960236548594496 177.808830707091 0.00606588875013748 -177.470196698401 0.00606588875013746 -177.470196698401 0.963682344617295 -176.862344269483 
14.85                          0.959249722678218 176.75998974054  0.00629360449574533 -177.49841120035 0.00629360449574531 -177.49841120035 0.962819834058946 -177.852962691486 
14.9                           0.958218423633938 175.698571098152 0.00653909162303135 -177.517991230851 0.00653909162303132 -177.517991230851 0.961919537510634 -178.853939755716 
14.95                          0.957139594563777 174.624001633455 0.00680414834581606 -177.531229861161 0.00680414834581604 -177.531229861161 0.960978868781102 -179.865729156763 
15                             0.956009897013887 173.535669336204 0.00709077798257216 -177.540654842361 0.00709077798257215 -177.540654842361 0.959995002060711 179.111184565855 
15.05                          0.954825678308884 172.432919962419 0.00740121491508655 -177.549030558061 0.00740121491508655 -177.549030558062 0.95896484383976 178.076283344159 
15.1                           0.953582934294632 171.315053305862 0.007737954299003 -177.559357905896 0.007737954299003 -177.559357905896 0.957885000832425 177.029012611507 
15.15                          0.952277266729751 170.181319066202 0.00810378615879373 -177.574872144397 0.00810378615879377 -177.574872144397 0.956751743237375 175.96877800984  
15.2                           0.950903834421755 169.030912262886 0.00850183462021742 -177.599038846893 0.00850183462021743 -177.599038846893 0.95556096253727 174.894941733548 
15.25                          0.949457297028232 167.862968136632 0.00893560317834997 -177.635548220149 0.00893560317835002 -177.635548220149 0.954308122882635 173.80681846344  
15.3                           0.947931750229638 166.676556472327 0.00940902707408736 -177.68830816864 0.00940902707408739 -177.688308168639 0.952988204914217 172.703670837869 
15.35                          0.946320650718886 165.470675267872 0.00992653406309253 -177.761436610967 0.00992653406309256 -177.761436610967 0.951595640643364 171.584704400771 
15.4                           0.944616729132153 164.244243663095 0.0104931151165231 -177.859253678425 0.0104931151165231 -177.859253678425 0.950124237721663 170.44906195815  
15.45                          0.942811888650555 162.996094031068 0.0111144069024535 -177.986274542518 0.0111144069024535 -177.986274542519 0.948567091075242 169.295817265416 
15.5                           0.940897086514706 161.724963121154 0.0117967882730185 -178.147203725062 0.0117967882730185 -178.147203725062 0.946916479438682 168.1239679579   
15.55                          0.938862195089926 160.429482128776 0.0125474934401813 -178.346931839079 0.0125474934401813 -178.34693183908 0.945163743776251 166.932427626021 
15.6                           0.936695838368655 159.108165551607 0.0133747450815196 -178.590535790986 0.0133747450815196 -178.590535790986 0.943299143896181 165.720016925193 
15.65                          0.934385198859844 157.759398676033 0.0142879112996914 -178.883283546426 0.0142879112996915 -178.883283546426 0.941311688710875 164.485453599218 
15.7                           0.931915788643691 156.381423522298 0.0152976911936621 -179.230644628049 0.0152976911936621 -179.230644628049 0.939188934526645 163.227341285491 
15.75                          0.929271176901487 154.972323063295 0.0164163348207321 -179.638307580144 0.0164163348207321 -179.638307580144 0.936916744401942 161.944156962503 
15.8                           0.926432664385432 153.530003523185 0.0176579045770747 179.887794288637 0.0176579045770747 179.887794288637 0.934478999918777 160.634236897381 
15.85                          0.923378892972375 152.052174562267 0.0190385865491697 179.341447476472 0.0190385865491697 179.341447476471 0.931857254573515 159.29576095775  
15.9                           0.92008537552395 150.536327170852 0.0205770622441837 178.716111636119 0.0205770622441837 178.716111636119 0.929030315291842 157.926735174629 
15.95                          0.91652392760065 148.979709138456 0.0222949533534026 178.004859986985 0.0222949533534025 178.004859986985 0.925973735161519 156.524972491786 
16                             0.912661977965526 147.379298053205 0.0242173548976539 177.200304846063 0.0242173548976539 177.200304846062 0.922659196177232 155.088071728336 
16.05                          0.908461729053372 145.731771948016 0.0263734752931102 176.294506029425 0.0263734752931101 176.294506029425 0.919053755396378 153.613394941055 
16.1                           0.903879131448538 144.033477989152 0.0287974055710698 175.278859495621 0.0287974055710697 175.278859495621 0.915118921184719 152.098043641176 
16.15                          0.898862627704897 142.280400069182 0.0315290441216931 174.143963143826 0.0315290441216931 174.143963143826 0.910809517968159 150.538834760465 
16.2                           0.893351610450407 140.468126930987 0.0346152076955628 172.879456155932 0.0346152076955627 172.879456155932 0.906072287959305 148.932277972512 
16.25                          0.887274527799345 138.591823687661 0.0381109634965829 171.473827720622 0.0381109634965828 171.473827720622 0.900844166769612 147.274557113624 
16.3                           0.880546556368611 136.646211593672 0.0420812200428579 169.914190480546 0.0420812200428578 169.914190480545 0.895050157217277 145.561520259514 
16.35                          0.873066750536908 134.625564108111 0.0466026141874977 168.186013760636 0.0466026141874976 168.186013760636 0.888600713587897 143.788685886929 
16.4                           0.864714570116952 132.523732375    0.0517657248966487 166.272811859355 0.0517657248966485 166.272811859355 0.881388540700854 141.951277092865 
16.45                          0.855345695676087 130.334221343946 0.0576776251511522 164.155783936099 0.0576776251511521 164.155783936099 0.873284715801868 140.044303012051 
16.5                           0.844787077438997 128.050350625461 0.0644647415646567 161.813405206233 0.0644647415646565 161.813405206233 0.86413407102344 138.062717844204 
16.55                          0.83283126002281 125.665554557233 0.0722759102429638 159.220975774296 0.0722759102429637 159.220975774295 0.853749857114173 136.001705525792 
16.6                           0.819230235316806 123.173908021084 0.0812853702490833 156.350145971248 0.0812853702490832 156.350145971248 0.841907894672476 133.857165370699 
16.65                          0.803689494037289 120.571014390864 0.0916951820589491 153.168459407218 0.091695182058949 153.168459407218 0.828340793571378 131.626515552945 
16.7                           0.785863730254571 117.855467834956 0.103736140709639 149.638992882694 0.103736140709639 149.638992882694 0.812733528685374 129.309992718508 
16.75                          0.765357047288299 115.031213287558 0.117665604689465 145.720233559086 0.117665604689465 145.720233559086 0.794722923757296 126.912712064403 
16.8                           0.741732853924939 112.111278794561 0.13375973348962 141.366426730326 0.13375973348962 141.366426730326 0.773905718196985 124.447860717217 
16.85                          0.714542271510103 109.123531332382 0.152296472935563 136.528755996175 0.152296472935563 136.528755996174 0.749863170096009 121.941502550934 
16.9                           0.683384819352595 106.119230250197 0.173524590164138 131.157867710037 0.173524590164138 131.157867710037 0.722214545014238 119.439486866265 
16.95                          0.64802023296876 103.184980047558 0.197614092031414 125.208365025885 0.197614092031414 125.208365025884 0.690716125824331 117.016646646053 
17                             0.608551301296088 100.457600542967 0.224586369253145 118.645832024312 0.224586369253145 118.645832024312 0.655422421695173 114.787338794642 
17.05                          0.565684624491039 98.138103496247  0.254231061039674 111.456456572929 0.254231061039674 111.456456572929 0.616912702311149 112.91351619972  
17.1                           0.521031742783182 96.4931468802769 0.286032352514483 103.658126123801 0.286032352514483 103.658126123801 0.576543979372743 111.600909746408 
17.15                          0.477318413569885 95.8186058996657 0.319145483222116 95.3099893617962 0.319145483222116 95.3099893617959 0.536610284592127 111.066327501703 
17.2                           0.438235541163847 96.3288883151861 0.352468975334247 86.515746354035  0.352468975334246 86.5157463540347 0.500192438511427 111.45773126192  
17.25                          0.407610914719195 97.9661837627541 0.38482891286834 77.4161537905022 0.384828912868339 77.416153790502  0.470483489379754 112.734886543144 
17.3                           0.387903823233484 100.24683340687  0.41522844108558 68.1699020281999 0.415228441085579 68.1699020281997 0.449653292211381 114.584951953863 
17.35                          0.378847538947307 102.369497657881 0.443060687618335 58.9279413101578 0.443060687618334 58.9279413101577 0.43784424538114 116.487247184401 
17.4                           0.377453759299567 103.596647468605 0.468191849589616 49.8102751781236 0.468191849589616 49.8102751781235 0.433077318773282 117.930700909044 
17.45                          0.379438649480975 103.559205418419 0.490894779633195 40.8927831869562 0.490894779633196 40.8927831869561 0.432160752531972 118.613200496321 
17.5                           0.380801132828232 102.253011178964 0.511689374257801 32.2060930193401 0.511689374257802 32.20609301934   0.431860095554591 118.482215165714 
17.55                          0.378607484196123 99.8676785697903 0.531168979780671 23.7433783233158 0.531168979780672 23.7433783233157 0.42963377645178 117.655523444756 
17.6                           0.371042106356539 96.6412806710907 0.549865669410521 15.4721209837247 0.549865669410522 15.4721209837246 0.42383055896418 116.328052491347 
17.65                          0.357151480498094 92.7941520993033 0.568169257758163 7.3458966475472  0.568169257758164 7.34589664754703 0.41358936379634 114.717263001804 
17.7                           0.336571088010952 88.5181185044949 0.586291504900802 -0.685806898610427 0.586291504900803 -0.685806898610597 0.398672575284754 113.046846020544 
17.75                          0.309339194762293 83.994070270144  0.604261107132746 -8.67021422433169 0.604261107132747 -8.67021422433184 0.379347805289608 111.553222968141 
17.8                           0.275806179839253 79.428095485913  0.621938793839504 -16.6460824069278 0.621938793839505 -16.646082406928 0.3563491523342  110.501631259852 
17.85                          0.236620820153285 75.1171392678349 0.639047483565423 -24.6403378799361 0.639047483565424 -24.6403378799362 0.330909401915673 110.200864472862 
17.9                           0.192786593180677 71.5950139730248 0.655215903183612 -32.6662980694825 0.655215903183612 -32.6662980694825 0.304832670910436 111.000428929599 
17.95                          0.145852762422163 70.0468188028443 0.670034061318885 -40.7234283364767 0.670034061318886 -40.7234283364768 0.280541826577694 113.238117653578 
18                             0.0986680827459465 73.816029862052  0.683115994504291 -48.7986542265428 0.683115994504291 -48.7986542265428 0.260959712977818 117.091315201859 
18.05                          0.059539020920925 94.541922489637  0.694161110716146 -56.8691468437153 0.694161110716146 -56.8691468437153 0.249001583985782 122.332019022172 
18.1                           0.0558797008187314 142.833336113252 0.703002880295276 -64.9062583360722 0.703002880295277 -64.9062583360722 0.246598999106664 128.172314701214 
18.15                          0.0909826500105822 167.355024166468 0.709634800063996 -72.8800186822588 0.709634800063998 -72.8800186822587 0.253773216242877 133.509291137291 
18.2                           0.135174160916994 172.085059056589 0.714208826332234 -80.7634566293543 0.714208826332235 -80.7634566293542 0.268637623305891 137.475161747393 
18.25                          0.178789358134118 170.509240982328 0.717008777238211 -88.5360674110143 0.717008777238213 -88.5360674110143 0.288356499853817 139.747077737365 
18.3                           0.219105421791995 166.497070156159 0.718407271902133 -96.1860012706265 0.718407271902135 -96.1860012706264 0.310166926284864 140.433215491245 
18.35                          0.254985030209699 161.339197532878 0.718817202398149 -103.710880830232 0.718817202398151 -103.710880830232 0.331890803310814 139.823676797415 
18.4                           0.285891861341761 155.560340520858 0.718647286427708 -111.117442127451 0.718647286427708 -111.117442127451 0.352014723776439 138.224633570087 
18.45                          0.311617693399627 149.398812626724 0.718267494321741 -118.420353351027 0.718267494321741 -118.420353351027 0.369584653772301 135.892627288561 
18.5                           0.332164132547498 142.964646754445 0.717986121079769 -125.64058954632 0.717986121079769 -125.64058954632 0.384065232690731 133.022795927372 
18.55                          0.347674485965304 136.301829041635 0.718037361071307 -132.803673886369 0.718037361071306 -132.803673886369 0.39521900808023 129.756807195461 
18.6                           0.358391498400313 129.416262503071 0.718576841853094 -139.937992429582 0.718576841853092 -139.937992429582 0.403017431468168 126.194888696672 
18.65                          0.364633787297126 122.289587403859 0.719682404006226 -147.073292206768 0.719682404006225 -147.073292206767 0.407580925065284 122.406474587322 
18.7                           0.366787636398612 114.886477969772 0.72135795399321 -154.239403421985 0.721357953993209 -154.239403421985 0.409141778647286 118.438065377357 
18.75                          0.365311558340965 107.158761578092 0.723538997844227 -161.46518981684 0.723538997844225 -161.46518981684 0.40802339139386 114.318219040699 
18.8                           0.360750998739894 99.0481886273435 0.726099171060242 -168.777721349438 0.72609917106024 -168.777721349438 0.404629843435869 110.059882681328 
18.85                          0.353760080712652 90.4892808822848 0.72885754108074 -176.201670617989 0.728857541080739 -176.201670617989 0.399440262000073 105.660270818069 
18.9                           0.345126191363801 81.4138621407569 0.731586594746799 176.241052125031 0.731586594746798 176.241052125032 0.393002952658496 101.098518321933 
18.95                          0.335791136044164 71.7593357635987 0.734020624537506 168.531402444539 0.734020624537506 168.531402444539 0.385925177545391 96.3315563677348 
19                             0.326859296378626 61.4830095285624 0.735863757919579 160.653029318237 0.735863757919579 160.653029318237 0.378856352130163 91.2891810087387 
19.05                          0.319579350872167 50.5836391093902 0.736796297199356 152.591847380024 0.736796297199357 152.591847380024 0.372465758739643 85.8700941015585 
19.1                           0.315284646238195 39.1271489270341 0.73647763413488 144.335440958372 0.736477634134879 144.335440958371 0.367420385711673 79.9415683859282 
19.15                          0.315284587471624 27.2657242239098 0.734544156526858 135.872483147811 0.734544156526857 135.872483147811 0.364372475604428 73.3458448045863 
19.2                           0.320720949503988 15.2330025681003 0.730601686420621 127.192465454693 0.730601686420619 127.192465454693 0.363966350614626 65.9158527016223 
19.25                          0.332430963191185 3.30376545604675 0.724214401253703 118.286134807213 0.724214401253699 118.286134807213 0.366866122506831 57.5010345694358 
19.3                           0.350866047619198 -8.27130538606798 0.714895924256028 109.147079928874 0.714895924256022 109.147079928874 0.373788734319044 48.0009769211739 
19.35                          0.37608107053926 -19.3238433373182 0.70211275506632 99.7748311535294 0.702112755066314 99.7748311535293 0.385506047442816 37.400338800086  
19.4                           0.407759338955576 -29.7902283658341 0.685313748039716 90.1795500188587 0.685313748039709 90.1795500188587 0.402770269026544 25.7939556963412 
19.45                          0.445224557502739 -39.6942479490318 0.663998610440258 80.3878132115572 0.663998610440252 80.3878132115573 0.426138369366441 13.3890964111811 
19.5                           0.487427459600292 -49.1071184890035 0.637828927652516 70.448170266543  0.637828927652511 70.4481702665433 0.455729592858122 0.477945031712552 
19.55                          0.532945753997524 -58.1060006416184 0.606764617228738 60.4343536572287 0.606764617228735 60.4343536572289 0.491016826158758 -12.612030668439 
19.6                           0.580056432670721 -66.7450142686025 0.571182670783299 50.4438254599495 0.571182670783298 50.4438254599497 0.53077116703133 -25.5697420503944 
19.65                          0.626910397343025 -75.0437382297627 0.531920823072277 40.5903661733393 0.531920823072279 40.5903661733393 0.57321830678596 -38.1359660653538 
19.7                           0.671777791548224 -82.9911407670936 0.490205964952179 30.9916343568424 0.490205964952182 30.9916343568422 0.616359733295136 -50.1177321087963 
19.75                          0.713282179799793 -90.5586491814684 0.447475999794735 21.7549683396297 0.447475999794738 21.754968339629  0.65833371089947 -61.3876014543829 
19.8                           0.750541517651617 -97.715032404963 0.40515504913007 12.9656013640772 0.405155049130072 12.9656013640762 0.697688073635169 -71.8756653221004 
19.85                          0.783182359166495 -104.437658836684 0.364458949006715 4.68025885186179 0.364458949006715 4.68025885186046 0.733498954331508 -81.558938137695 
19.9                           0.811251831187965 -110.717993120626 0.326282367935081 -3.07330131371289 0.32628236793508 -3.07330131371448 0.765346418131891 -90.4501135332325 
19.95                          0.835082008493919 -116.562010078904 0.291175141664931 -10.2922926802354 0.291175141664928 -10.2922926802371 0.793204024834414 -98.5867228233801 
20                             0.855156720612706 -121.987516313393 0.259383282640444 -16.9927248539303 0.259383282640441 -16.9927248539322 0.817303548695083 -106.021561212449 
20.05                          0.872008631420667 -127.020341119775 0.230920775022475 -23.2030023633668 0.23092077502247 -23.2030023633687 0.838015439375457 -112.814992610474 
20.1                           0.886153168900688 -131.690696041539 0.205645179386511 -28.9584581305127 0.205645179386506 -28.9584581305145 0.855761482568724 -119.029330494813 
20.15                          0.89805362655052 -136.03030175387 0.18332205159841 -34.2972469903133 0.183322051598405 -34.297246990315 0.870959814051023 -124.72512251087 
20.2                           0.908107859495384 -140.07040277756 0.163673089736476 -39.257559464778 0.163673089736471 -39.2575594647795 0.883995226917648 -129.958962651317 
20.25                          0.916647803206651 -143.840551933408 0.146408713386021 -43.8759076855613 0.146408713386016 -43.8759076855626 0.895206475731352 -134.782409475309 
20.3                           0.923945459994264 -147.367970854527 0.131248173651194 -48.1861919865657 0.131248173651189 -48.1861919865668 0.904883723939388 -139.241638676631 
20.35                          0.930221379590378 -150.677300801228 0.117930684910443 -52.2192923553161 0.117930684910439 -52.2192923553169 0.913271350990857 -143.37754385381 
20.4                           0.935653436511326 -153.790596732097 0.106220571911177 -56.0029891982227 0.106220571911174 -56.0029891982232 0.920573131162608 -147.22608451035 
20.45                          0.940384848742788 -156.727459994783 0.0959086848191917 -59.5620760614808 0.095908684819189 -59.5620760614812 0.926958081669031 -150.81874979004 
20.5                           0.944531041716107 -159.505240430191 0.0868116463090404 -62.9185734862007 0.0868116463090383 -62.9185734862009 0.932566101294104 -154.183057209849 
20.55                          0.948185306040788 -162.139264790807 0.0787699554243541 -66.0919868953572 0.0787699554243525 -66.0919868953574 0.937513007740836 -157.343040131656 
20.6                           0.951423355768368 -164.643066213819 0.0716455874014959 -69.0995743648292 0.0716455874014947 -69.0995743648292 0.941894849779453 -160.319699882528 
20.65                          0.954306950802868 -167.028601047756 0.0653194687849474 -71.9566050717035 0.0653194687849467 -71.9566050717035 0.945791505926399 -163.131412017936 
20.7                           0.956886753194434 -169.306446496817 0.0596890393925678 -74.6765985849044 0.0596890393925674 -74.6765985849044 0.949269641837493 -165.794284139905 
20.75                          0.959204570787575 -171.485976800368 0.0546660082497494 -77.2715408355453 0.0546660082497494 -77.2715408355453 0.952385118708806 -168.322467010363 
20.8                           0.96129511784659 -173.575518061172 0.0501743479122651 -79.7520758987915 0.0501743479122653 -79.7520758987916 0.955184944956971 -170.728422836063 
20.85                          0.963187397989465 -175.582483085678 0.0461485355456726 -82.1276745259814 0.0461485355456731 -82.1276745259817 0.957708854485052 -173.023155447811 
20.9                           0.964905793058558 -177.513488164067 0.0425320296331382 -84.4067812662205 0.0425320296331386 -84.4067812662209 0.959990582827212 -175.216407218396 
20.95                          0.966470923392875 -179.374453887569 0.0392759617002273 -86.5969423806288 0.039275961700228 -86.5969423806293 0.962058900315679 -177.316827304686 
21                             0.967900330320172 178.829307945442 0.0363380188309394 -88.7049168107684 0.0363380188309401 -88.7049168107692 0.963938450414765 -179.332115363662 
21.05                          0.969209020138764 177.093019437306 0.0336814924327663 -90.7367723569306 0.0336814924327671 -90.7367723569315 0.965650431961966 178.730855603864 
21.1                           0.970409899878005 175.412372015486 0.0312744701264125 -92.6979690366509 0.0312744701264133 -92.697969036652 0.967213156275359 176.865934120759 
21.15                          0.971514128199808 173.783470686107 0.0290891498592779 -94.5934313785206 0.0290891498592785 -94.593431378522 0.968642503777155 175.0676001087   
21.2                           0.972531399485973 172.202785830686 0.0271012578357199 -96.4276111888164 0.0271012578357205 -96.427611188818 0.969952299730498 173.330887475723 
21.25                          0.973470175082145 170.667111443921 0.0252895543267654 -98.2045421233115 0.025289554326766 -98.2045421233132 0.971154624670483 171.651317476938 
21.3                           0.974337872548825 169.173528873246 0.0236354137168002 -99.9278872107034 0.0236354137168008 -99.9278872107052 0.972260071932054 170.024841214494 
21.35                          0.975141021377291 167.719375262297 0.0221224671989249 -101.600980309743 0.0221224671989254 -101.600980309744 0.973277962167051 168.44778990211  
21.4                           0.97588539179006 166.302216021853 0.0207362983262706 -103.226862339214 0.020736298326271 -103.226862339216 0.97421652276087 166.916831738031 
21.45                          0.976576101829221 164.919820755109 0.0194641831716666 -104.808312996976 0.0194641831716669 -104.808312996977 0.975083038493295 165.428934413782 
21.5                           0.977217706841294 163.570142151597 0.0182948681635054 -106.347878579281 0.0182948681635056 -106.347878579283 0.975883978549015 163.981332439706 
21.55                          0.977814274617912 162.251297437878 0.0172183797774746 -107.84789642238 0.0172183797774749 -107.847896422382 0.976625104000587 162.571498596726 
21.6                           0.978369448790157 160.961552035258 0.0162258611989242 -109.310516412813 0.0162258611989244 -109.310516412815 0.977311559105115 161.197118931133 
21.65                          0.978886502556911 159.699305127117 0.0153094318545669 -110.737719948865 0.0153094318545671 -110.737719948866 0.977947949132667 159.856070798947 
21.7                           0.979368384421188 158.463076882417 0.0144620663681025 -112.131336681527 0.0144620663681026 -112.131336681528 0.97853840694565 158.546403541494 
21.75                          0.979817757287704 157.251497119089 0.0136774900425217 -113.493059317592 0.0136774900425217 -113.493059317593 0.979086650147976 157.266321436745 
21.8                           0.980237032020829 156.06329522219  0.0129500884298263 -114.824456728704 0.0129500884298263 -114.824456728705 0.979596030300182 156.014168623725 
21.85                          0.980628396359742 154.897291158166 0.012274828931582 -116.126985577255 0.012274828931582 -116.126985577255 0.980069575435839 154.788415741659 
21.9                           0.98099383992583 153.752387448835 0.0116471926936718 -117.402000642024 0.0116471926936718 -117.402000642024 0.980510026902869 153.587648062861 
21.95                          0.98133517592748 152.627561987628 0.0110631153263583 -118.650764002516 0.0110631153263584 -118.650764002515 0.980919871381036 152.410554929852 
22                             0.98165406006257 151.521861596693 0.0105189352050689 -119.874453220445 0.0105189352050689 -119.874453220444 0.981301368785956 151.255920333865 
22.05                          0.981952007034061 150.434396237084 0.0100113482954784 -121.074168639233 0.0100113482954785 -121.074168639232 0.981656576654447 150.122614494435 
22.1                           0.982230405025008 149.364333795944 0.00953736860454599 -122.25093990715 0.00953736860454603 -122.250939907148 0.981987371510924 149.009586318929 
22.15                          0.982490528422833 148.310895384511 0.00909429349216525 -123.4057318166  0.00909429349216532 -123.405731816598 0.982295467636001 147.91585663721  
22.2                           0.98273354903642 147.273351089303 0.00867967319019724 -124.539449540597 0.00867967319019739 -124.539449540594 0.982582433593422 146.840512120511 
22.25                          0.982960546011411 146.251016126165 0.00829128397029358 -125.65294333753 0.00829128397029371 -125.652943337527 0.982849706817282 145.7826998055   
22.3                           0.983172514617565 145.243247353119 0.0079271044819617 -126.747012786599 0.00792710448196186 -126.747012786596 0.983098606516437 144.741622154695 
22.35                          0.983370374055834 144.249440103411 0.00758529485013979 -127.822410608675 0.00758529485013992 -127.822410608672 0.983330345115215 143.71653259316  
22.4                           0.983554974411009 143.269025304825 0.00726417817910314 -128.879846120671 0.0072641781791033 -128.879846120668 0.983546038417867 142.706731468901 
22.45                          0.983727102857528 142.301466855368 0.00696222415846499 -129.91998836558 0.00696222415846521 -129.919988365576 0.983746714657566 141.711562390918 
22.5                           0.983887489210751 141.346259228993 0.00667803450871728 -130.943468955232 0.00667803450871744 -130.943468955228 0.983933322568182 140.730408904438 
22.55                          0.984036810903104 140.402925288043 0.00641033003932703 -131.950884658209 0.0064103300393272 -131.950884658206 0.984106738598099 139.762691467739 
22.6                           0.984175697453604 139.471014281796 0.00615793912280944 -132.942799761416 0.00615793912280965 -132.942799761412 0.984267773369082 138.807864699186 
22.65                          0.984304734490061 138.550100012794 0.00591978741423286 -133.919748230229 0.00591978741423306 -133.919748230225 0.984417177469488 137.865414866746 
22.7                           0.984424467375391 137.639779154704 0.00569488866794506 -134.882235689127 0.00569488866794526 -134.882235689123 0.984555646659354 136.934857595473 
22.75                          0.984535404482804 136.739669707217 0.00548233652250067 -135.830741241929 0.00548233652250084 -135.830741241927 0.984683826554835 136.015735771213 
22.8                           0.984638020158898 135.849409575065 0.00528129714128638 -136.76571914844 0.00528129714128655 -136.765719148438 0.984802316850852 135.107617621232 
22.85                          0.984732757408783 134.968655259629 0.00509100261058214 -137.687600372203 0.00509100261058229 -137.687600372201 0.984911675133415 134.210094954602 
22.9                           0.984820030333147 134.097080652806 0.00491074500909585 -138.596794012259 0.00491074500909596 -138.596794012258 0.985012420326682 133.322781547053 
22.95                          0.984900226343542 133.234375923884 0.00473987107364785 -139.493688630216 0.00473987107364792 -139.493688630216 0.985105035814309 132.445311656642 
23                             0.984973708179005 132.380246491121 0.00457777739490018 -140.378653482571 0.0045777773949002 -140.378653482571 0.985189972269876 131.577338658052 
