! Touchstone file exported from HFSS 3D Layout Design 2026.1.0
!        File:           D:/Work/SIM/ADS_AUTO_SIM/projects/RFSOC_RF/TX_Fillter.aedt
!        Generated:      12:54:07 AM Aug 31, 2026
!        Design:         TX_BAND1_MCFIL_R16_CNN023
!        Project:        TX_Fillter
!
# GHz S MA R 50.000000
! Terminal data exported
! Port[1] = Port1
! Port[2] = Port2
14                             0.97082471198827 -169.408349752072 0.00409410266870472 -176.190162634929 0.00409410266870472 -176.190162634929 0.972934114758814 -164.279956004298 
14.05                          0.97027121953212 -170.312172559634 0.00418175691492602 -176.561682687429 0.00418175691492601 -176.561682687429 0.972426581945884 -165.163574236976 
14.1                           0.969699959803239 -171.222813247722 0.00427380769325613 -176.915098189813 0.00427380769325609 -176.915098189813 0.971902909922029 -166.053514175087 
14.15                          0.969110057965161 -172.140494232542 0.00437059966485796 -177.250260364164 0.00437059966485788 -177.250260364163 0.97136230275801 -166.949976202302 
14.2                           0.968500581383034 -173.065449316623 0.00447251036452878 -177.567078321937 0.0044725103645287 -177.567078321938 0.97080391180872 -167.853171163896 
14.25                          0.967870534823108 -173.997924425964 0.00457995368084836 -177.86552692517 0.00457995368084824 -177.865526925169 0.970226831339448 -168.763321050097 
14.3                           0.96721885516958 -174.938178405919 0.0046933837308654 -178.145655201854 0.00469338373086527 -178.145655201854 0.969630093714115 -169.680659733801 
14.35                          0.966544405601615 -175.886483881452 0.00481329917693176 -178.407595290348 0.00481329917693163 -178.407595290347 0.969012664093841 -170.605433767834 
14.4                           0.965845969165504 -176.843128188013 0.00494024803961787 -178.65157187249 0.00494024803961773 -178.65157187249 0.968373434587207 -171.537903247512 
14.45                          0.965122241667893 -177.80841438002 0.00507483306795678 -178.877912038133 0.00507483306795664 -178.877912038133 0.967711217785455 -172.478342744881 
14.5                           0.964371823805543 -178.782662324685 0.00521771773674737 -179.087055505086 0.00521771773674724 -179.087055505085 0.967024739606491 -173.427042321761 
14.55                          0.963593212434906 -179.766209889901 0.00536963295052477 -179.279565098561 0.00536963295052463 -179.279565098561 0.966312631360698 -174.384308629533 
14.6                           0.962784790870699 179.240585764155 0.00553138454534746 -179.456137373637 0.00553138454534733 -179.456137373636 0.965573420938915 -175.35046610452 
14.65                          0.961944818086142 178.237346778801 0.00570386169307478 -179.617613243812 0.00570386169307465 -179.617613243811 0.964805523008226 -176.325858268893 
14.7                           0.961071416668267 177.223673063845 0.00588804632871034 -179.764988459486 0.00588804632871024 -179.764988459485 0.964007228084026 -177.310849148178 
14.75                          0.960162559359153 176.19914062411  0.00608502374012559 -179.899423763352 0.00608502374012549 -179.899423763351 0.963176690326707 -178.305824817822 
14.8                           0.959216053987404 175.163299730085 0.00629599448161981 179.977745463376 0.00629599448161971 179.977745463377 0.96231191388772 -179.311195092783 
14.85                          0.958229526562984 174.115672915369 0.00652228779898195 179.865000257613 0.00652228779898189 179.865000257613 0.961410737601995 179.672604624138 
14.9                           0.957200402271665 173.055752781326 0.00676537678480193 179.760630028314 0.00676537678480187 179.760630028314 0.960470817790968 178.645111317553 
14.95                          0.956125884061688 171.982999586864 0.00702689551968918 179.662725594065 0.00702689551968913 179.662725594065 0.959489608901736 177.60583213838  
15                             0.955002928463458 170.896838598315 0.00730865849894664 179.569173472754 0.00730865849894659 179.569173472754 0.95846434166194 176.554241963869 
15.05                          0.953828218221397 169.796657171076 0.00761268269648931 179.477651562437 0.00761268269648928 179.477651562438 0.957391998375362 175.489780713346 
15.1                           0.952598131243458 168.681801530891 0.0079412126800419 179.385626311205 0.0079412126800419 179.385626311205 0.956269284918101 174.411850390901 
15.15                          0.951308705285627 167.551573218252 0.00829674926588344 179.290351420289 0.00829674926588347 179.29035142029  0.9550925989173  173.319811822446 
15.2                           0.949955597682837 166.405225154436 0.00868208229002472 179.188868059283 0.00868208229002477 179.188868059283 0.953857993500916 172.212981050244 
15.25                          0.948534039310171 165.241957281968 0.00910032817860401 179.078006496191 0.00910032817860408 179.078006496192 0.952561135894639 171.090625343052 
15.3                           0.947038781804061 164.060911725742 0.00955497312698742 178.954388960065 0.00955497312698748 178.954388960065 0.951197260006303 169.951958774408 
15.35                          0.945464036886394 162.86116741359  0.0100499228488424 178.814433462438 0.0100499228488425 178.814433462438 0.949761111973903 168.79613731522  
15.4                           0.943803406407239 161.641734086552 0.0105895600385442 178.654358208684 0.0105895600385443 178.654358208684 0.948246887453802 167.622253379599 
15.45                          0.942049801444905 160.401545619461 0.0111788109090548 178.470186134769 0.0111788109090549 178.470186134769 0.94664815918275 166.429329754789 
15.5                           0.940195348463044 159.139452561529 0.0118232224307002 178.257749011671 0.0118232224307003 178.257749011671 0.944957793050431 165.216312836988 
15.55                          0.938231280108647 157.85421379446  0.0125290522135969 178.012690471573 0.012529052213597 178.012690471573 0.943167850555438 163.982065084845 
15.6                           0.936147807722767 156.544487192047 0.0133033733595129 177.73046722858  0.013303373359513 177.73046722858  0.941269475070429 162.725356591562 
15.65                          0.933933972003967 155.208819150517 0.0141541970718528 177.406347692874 0.0141541970718528 177.406347692874 0.939252758791085 161.444855664895 
15.7                           0.931577467482326 153.845632843213 0.0150906163724004 177.035407110306 0.0150906163724005 177.035407110305 0.937106586562476 160.13911829241  
15.75                          0.92906443549146 152.453215037186 0.0161229749510487 176.612518297282 0.0161229749510489 176.612518297282 0.934818451932899 158.806576357712 
15.8                           0.926379219119372 151.029701293889 0.017263065994452 176.132336979836 0.0172630659944521 176.132336979836 0.932374239738298 157.445524463092 
15.85                          0.923504072115999 149.573059363215 0.0185243668299586 175.589280680821 0.0185243668299587 175.589280680821 0.92975796821902 156.054105207063 
15.9                           0.920418811861246 148.081070572461 0.0199223164148348 174.9775000239   0.0199223164148349 174.977500023899 0.926951482051604 154.630292764358 
15.95                          0.917100404159679 146.551309014112 0.0214746441332883 174.290841230132 0.0214746441332884 174.290841230132 0.923934085664036 153.171874625848 
16                             0.913522464714744 144.98111835608  0.0232017600714536 173.522798464794 0.0232017600714537 173.522798464793 0.920682103700175 151.676431383635 
16.05                          0.909654658513069 143.36758614686  0.0251272189555184 172.666454541203 0.0251272189555185 172.666454541203 0.917168352398438 150.141314503437 
16.1                           0.905461973866359 141.707515584516 0.0272782722793875 171.714408298839 0.0272782722793876 171.714408298839 0.913361501829347 148.563622129644 
16.15                          0.900903842352892 139.997394891188 0.0296865258044832 170.658686741804 0.0296865258044832 170.658686741804 0.909225304270983 146.94017314473  
16.2                           0.895933069224142 138.233364728977 0.0323887225148356 169.490639753643 0.0323887225148356 169.490639753643 0.904717658385431 145.267479995255 
16.25                          0.890494530907306 136.411184579043 0.0354276740751733 168.200814908277 0.0354276740751733 168.200814908278 0.89978947225393 143.541721265148 
16.3                           0.884523587111302 134.526199793285 0.0388533664933494 166.778809604586 0.0388533664933494 166.778809604586 0.894383280851983 141.758715721403 
16.35                          0.877944145140397 132.573312289271 0.0427242673203235 165.213097523273 0.0427242673203235 165.213097523273 0.888431565643142 139.913900729321 
16.4                           0.870666304416785 130.546959862948 0.047108861053209 163.490826347359 0.0471088610532092 163.490826347359 0.881854716721554 138.002319767538 
16.45                          0.862583502265669 128.44111226135  0.0520874342214271 161.597583990765 0.0520874342214273 161.597583990765 0.874558573604693 136.018626626628 
16.5                           0.853569082413548 126.249297146542 0.057754118186039 159.517131562962 0.057754118186039 159.517131562962 0.866431483783846 133.95711829902  
16.55                          0.843472224254866 123.964676916035 0.0642191697919584 157.231103491189 0.0642191697919585 157.231103491189 0.857340836697997 131.811815396555 
16.6                           0.832113219890184 121.580209604533 0.0716114177636015 154.718679481945 0.0716114177636017 154.718679481945 0.847129079687005 129.576619411157 
16.65                          0.819278195701656 119.088946185613 0.0800807107028516 151.956240680695 0.0800807107028517 151.956240680695 0.835609327490373 127.245592075848 
16.7                           0.804713594451168 116.484546105197 0.0898000478103887 148.917035537692 0.0898000478103888 148.917035537692 0.822560881523122 124.813426003509 
16.75                          0.788121142466609 113.762137937768 0.100966824292622 145.570902477637 0.100966824292622 145.570902477637 0.807725349937374 122.276210877567 
16.8                           0.769154748598455 110.919719466963 0.113802241377124 141.884130435451 0.113802241377125 141.884130435451 0.790804711506926 119.63264906902  
16.85                          0.747421993760944 107.960388970942 0.128547382284159 137.819589049186 0.128547382284159 137.819589049186 0.771463742171007 116.885940134193 
16.9                           0.722494783113518 104.895832290772 0.14545374494339 133.337330696568 0.14545374494339 133.337330696568 0.749340882523251 114.046629490286 
16.95                          0.693936500273394 101.751651268705 0.164765267893799 128.395953073194 0.164765267893799 128.395953073194 0.724073936125359 111.136777217204 
17                             0.661356455968767 98.5752640432105 0.186688457965191 122.955093440812 0.186688457965191 122.955093440812 0.69534965139399 108.195776910826 
17.05                          0.624505502043041 95.4470978975566 0.211347937540494 116.97945063074  0.211347937540494 116.97945063074  0.662988004946916 105.287876134669 
17.1                           0.583426480158371 92.4952757951013 0.238727921928944 110.444594473043 0.238727921928943 110.444594473042 0.627069761950845 102.510589631236 
17.15                          0.538663893777164 89.91215593124   0.268607284450867 103.344375761756 0.268607284450866 103.344375761756 0.588103890154689 100.001216208009 
17.2                           0.491510078981245 87.9662671536698 0.30050698034888 95.6988786486731 0.30050698034888 95.6988786486731 0.547202333733162 97.9350104775694 
17.25                          0.444211245795261 86.9928046093238 0.333679377442007 87.5606813871313 0.333679377442007 87.5606813871313 0.506180982678635 96.50364121496   
17.3                           0.399974826408415 87.3293621998996 0.367169180175688 79.0163092735607 0.367169180175688 79.0163092735607 0.467454566548397 95.860561638597  
17.35                          0.362539455228093 89.1571553005383 0.399954036251603 70.1801943821187 0.399954036251603 70.1801943821187 0.43359541404683 96.0322813506277 
17.4                           0.335120376200405 92.2702794940139 0.431131930999653 61.1808666640462 0.431131930999654 61.1808666640462 0.406567974567444 96.8332154086772 
17.45                          0.318988174372199 95.9678703293665 0.460087516997215 52.1426699752357 0.460087516997216 52.1426699752356 0.38694459528605 97.8638053868011 
17.5                           0.312671147942264 99.3132923010043 0.486572251709546 43.1687086465735 0.486572251709547 43.1687086465733 0.373607976357164 98.638817700497  
17.55                          0.312634854648561 101.610415126399 0.510676730213751 34.3301041547123 0.510676730213751 34.3301041547121 0.36418616233227 98.7698718163659 
17.6                           0.31486969494783 102.638489074991 0.532724614377368 25.6634852082542 0.532724614377368 25.6634852082539 0.355899125292228 98.0683493286452 
17.65                          0.316115682111207 102.542912173931 0.553140892938   17.175294981056  0.553140892938   17.1752949810558 0.346277403365965 96.5295353785366 
17.7                           0.314265969721439 101.631784243674 0.572337701904981 8.84984767698011 0.57233770190498 8.84984767697987 0.333498408259847 94.2607641785877 
17.75                          0.308261570015213 100.24838801871  0.590637413861979 0.658247143354174 0.590637413861978 0.658247143354022 0.316415232794724 91.4189321639493 
17.8                           0.297853300345749 98.7293887955368 0.608233621320643 -7.4336494301343 0.608233621320642 -7.4336494301344 0.294450150531411 88.1805365756885 
17.85                          0.283413386723904 97.4097239773698 0.625182110482748 -15.4589842503161 0.625182110482747 -15.4589842503162 0.267473195233351 84.7425260283998 
17.9                           0.265841743152506 96.6429703707174 0.641413150344316 -23.4454778118836 0.641413150344316 -23.4454778118836 0.235717342926693 81.352089442538  
17.95                          0.24655386411158 96.8143833800218 0.656758594488933 -31.4126813618984 0.656758594488933 -31.4126813618983 0.199745817474836 78.3813458342794 
18                             0.227506130661128 98.3161479335087 0.670989152654618 -39.3707126273659 0.670989152654619 -39.3707126273658 0.16049307483764 76.5149881969921 
18.05                          0.211161269423455 101.434127535688 0.683857546450524 -47.3203127896419 0.683857546450526 -47.3203127896418 0.119493851925017 77.3077862695408 
18.1                           0.200205427553353 106.107719173116 0.695142412508498 -55.2540597062603 0.695142412508501 -55.2540597062602 0.079920100165571 85.1857199485449 
18.15                          0.196828991700625 111.680503654171 0.704686843899241 -63.1585077758557 0.704686843899245 -63.1585077758557 0.051827999679056 113.212351917245 
18.2                           0.201787799256679 116.998458161856 0.712425567079838 -71.0169231127985 0.712425567079842 -71.0169231127985 0.0582039158384026 157.192558686045 
18.25                          0.214038926233812 120.976262174434 0.718396586874845 -78.8121993269376 0.718396586874849 -78.8121993269376 0.0911367654454562 176.319181623626 
18.3                           0.231361103309742 123.08444997415  0.722736387032534 -86.52952751383  0.722736387032537 -86.5295275138301 0.130029900310939 -179.218301875258 
18.35                          0.251317174839786 123.334671887802 0.725661318644245 -94.1584749512647 0.725661318644249 -94.1584749512648 0.168546778167088 -179.900685954485 
18.4                           0.271853003095379 122.004701818017 0.727440341919127 -101.694278185113 0.72744034191913 -101.694278185113 0.204655920546078 177.284183501036 
18.45                          0.291464394876338 119.421405003165 0.728365055764435 -109.138326807694 0.728365055764436 -109.138326807694 0.237460180320387 173.44113521548  
18.5                           0.309148418146931 115.866091951877 0.728722051536052 -116.497953108891 0.728722051536052 -116.497953108891 0.26652195229342 169.051715678675 
18.55                          0.324297879732869 111.5527822269   0.728770774520765 -123.785721041458 0.728770774520765 -123.785721041458 0.291661046058088 164.350493231842 
18.6                           0.3366022620279  106.634644485178 0.728728106167645 -131.018424651632 0.728728106167643 -131.018424651632 0.312866390052992 159.457425835964 
18.65                          0.345970922842461 101.217371884787 0.728759368762949 -138.215979384383 0.728759368762949 -138.215979384382 0.330244674736603 154.431944262944 
18.7                           0.352478419496092 95.3720566704661 0.728974602266856 -145.400343052791 0.728974602266856 -145.400343052791 0.34398592333852 149.297568385674 
18.75                          0.356327901439363 89.1457947276731 0.72942868467857 -152.59455577835 0.729428684678571 -152.59455577835 0.354339600828316 144.053806948972 
18.8                           0.357828085868314 82.570143158315  0.730123948719098 -159.821950398253 0.730123948719099 -159.821950398253 0.361598426250679 138.681839055141 
18.85                          0.357379657292551 75.6680229555545 0.731014171130132 -167.105559368975 0.731014171130135 -167.105559368974 0.36608811128924 133.146777726496 
18.9                           0.35546732871476 68.4596414851221 0.732009017322142 -174.46772837317 0.732009017322145 -174.46772837317 0.368161840254892 127.397873604225 
18.95                          0.352654192515559 60.9678096015631 0.732978129129788 178.070064899984 0.732978129129791 178.070064899984 0.36819903933488 121.367464522822 
19                             0.349575473545318 53.2227065731783 0.73375403370305 170.487202548247 0.733754033703053 170.487202548248 0.366609028621086 114.969349396687 
19.05                          0.346929511980688 45.2656963403832 0.734132978520214 162.763767560972 0.734132978520214 162.763767560972 0.363841458262222 108.097415739992 
19.1                           0.345464803105475 37.1512606809325 0.733872775207028 154.880309692705 0.733872775207026 154.880309692705 0.360406654998473 100.625766676723 
19.15                          0.345962993084151 28.9456796730365 0.732686940299096 146.817664415398 0.732686940299091 146.817664415398 0.356909273980193 92.4123162347015 
19.2                           0.349218211203062 20.721155558425  0.730235090662367 138.557020271255 0.730235090662359 138.557020271255 0.354096229351194 83.3088192846076 
19.25                          0.356011987246593 12.5451209127628 0.726110958415294 130.080501680611 0.726110958415283 130.080501680611 0.352912029140693 73.1811342016364 
19.3                           0.367079648768241 4.46663924423359 0.719831768450045 121.372588545188 0.719831768450032 121.372588545189 0.354538723757319 61.9426814835554 
19.35                          0.383059788547991 -3.49562516932741 0.710836060190437 112.422688555859 0.710836060190423 112.422688555859 0.360375707595686 49.5986206936136 
19.4                           0.404417299035975 -11.3580825248028 0.698500653752684 103.229045339444 0.698500653752671 103.229045339445 0.371902066164454 36.2861638763522 
19.45                          0.431338129623775 -19.165386385377 0.682189388190982 93.8038231156431 0.682189388190972 93.803823115644  0.390392376603334 22.2839285161746 
19.5                           0.463612478742108 -26.9726271009778 0.66134289768412 84.1786105785821 0.661342897684113 84.178610578583  0.41654347736142 7.96885410528568 
19.55                          0.500546169272546 -34.8225102647858 0.635606029598492 74.4088321374509 0.635606029598488 74.4088321374516 0.450165234719277 -6.26704191470425 
19.6                           0.540952215527698 -42.7262600989468 0.604967266528412 64.575002465258  0.604967266528412 64.5750024652582 0.490094427452562 -20.0948258100188 
19.65                          0.583259916361641 -50.6553039078182 0.569861786267781 54.77898302052   0.569861786267782 54.7789830205195 0.5343833661159  -33.2843930533226 
19.7                           0.625734269546751 -58.5458117721715 0.531184976636026 45.1347899881476 0.531184976636025 45.1347899881464 0.580684991386165 -45.6982681943956 
19.75                          0.666744801445475 -66.3128612801178 0.49019058493589 35.7556940526677 0.490190584935885 35.7556940526659 0.62669072803352 -57.2674748816895 
19.8                           0.704995687076027 -73.86799373451  0.448298180526517 26.7411169786268 0.448298180526506 26.7411169786243 0.670485665805058 -67.9692227803048 
19.85                          0.739649435893191 -81.1341611042934 0.406875702474948 18.1669491063571 0.406875702474931 18.1669491063542 0.710741416996671 -77.8123707479608 
19.9                           0.770329325394808 -88.054646659745 0.3670664620495  10.0813010530212 0.367066462049478 10.0813010530184 0.746739477517287 -86.8285233013139 
19.95                          0.797033956105606 -94.5956221534858 0.329698615904573 2.50549429195939 0.329698615904546 2.50549429195678 0.778273880784566 -95.0654994692496 
20                             0.820015587707622 -100.744050706114 0.295275406977828 -4.56142664364597 0.2952754069778  -4.56142664364812 0.805500995337083 -102.581565950865 
20.05                          0.839664327821846 -106.503223279358 0.264019842001245 -11.1367337463031 0.264019842001216 -11.1367337463045 0.828791271704005 -109.440263660873 
20.1                           0.856419683068356 -111.887783260204 0.235943073463744 -17.248202839029 0.235943073463717 -17.2482028390296 0.848612072871677 -115.70615131087 
20.15                          0.870713559639005 -116.919324414521 0.210913691501534 -22.9293098519194 0.210913691501509 -22.9293098519191 0.86544875071266 -121.441691681103 
20.2                           0.882939414605871 -121.622986711713 0.188715897191222 -28.2156929524933 0.188715897191199 -28.215692952492 0.879758802583482 -126.705260958108 
20.25                          0.893439528144045 -126.025067136685 0.169092837015001 -33.1427827927825 0.169092837014981 -33.1427827927805 0.891949836203415 -131.550090084717 
20.3                           0.902503190929369 -130.151477150516 0.151776053962653 -37.744358692266 0.151776053962637 -37.7443586922634 0.902372561058658 -136.023887573524 
20.35                          0.910370586655066 -134.02683165558 0.13650387437783 -42.05177065052  0.136503874377817 -42.0517706505169 0.911322188450267 -140.16890968125 
20.4                           0.917239065937657 -137.67397438576 0.123031800877325 -46.093606220925 0.123031800877315 -46.0936062209216 0.91904388057567 -144.022293094762 
20.45                          0.923269940085093 -141.113787133862 0.111137527593453 -49.8956357692645 0.111137527593445 -49.895635769261 0.925739653751158 -147.616519225817 
20.5                           0.928594855240087 -144.36517325081 0.100622552969006 -53.4809199044669 0.100622552969   -53.4809199044636 0.93157533452614 -150.979924913087 
20.55                          0.93332135712719 -147.445141169809 0.0913117734415024 -56.870002371979 0.091311773441499 -56.870002371976 0.936686901362093 -154.13720831352 
20.6                           0.937537553299064 -150.368939844268 0.0830519757364798 -60.0811401286761 0.0830519757364778 -60.0811401286736 0.941185961994153 -157.109901999486 
20.65                          0.941315923777208 -153.150216152396 0.0757098096677236 -63.1305416411228 0.0757098096677226 -63.1305416411211 0.945164335678252 -159.916800176699 
20.7                           0.944716389437228 -155.801176414686 0.069169594255538 -66.032597043538 0.0691695942555378 -66.0325970435371 0.948697812542829 -162.574335948008 
20.75                          0.947788761442925 -158.332741961014 0.0633311599053435 -68.8000917172477 0.0633311599053437 -68.8000917172479 0.95184920140859 -165.096909649536 
20.8                           0.950574687993308 -160.754693559833 0.0581078343310108 -71.4443996716188 0.058107834331011 -71.4443996716199 0.954670783777297 -167.497171914726 
20.85                          0.953109199309063 -163.075802484328 0.0534246216159107 -73.9756559200731 0.0534246216159109 -73.9756559200751 0.957206282781411 -169.786266254325 
20.9                           0.955421934571775 -165.303947726971 0.0492165893561999 -76.4029085984252 0.0492165893562001 -76.4029085984283 0.959492441168943 -171.974036209445 
20.95                          0.957538118395768 -167.446219841365 0.0454274594616393 -78.7342523543043 0.0454274594616392 -78.7342523543084 0.961560286641992 -174.069201936827 
21                             0.959479340490485 -169.509012385228 0.0420083881311271 -80.9769448582509 0.0420083881311266 -80.9769448582556 0.963436148267161 -176.079510660241 
21.05                          0.961264180691284 -171.498102150176 0.0389169160605681 -83.1375083456148 0.0389169160605673 -83.1375083456203 0.965142475063609 -178.011864909456 
21.1                           0.962908712323   -173.418719411366 0.0361160687347361 -85.2218180147898 0.036116068734735 -85.2218180147956 0.966698497402512 -179.872431946505 
21.15                          0.964426909588593 -175.275609386704 0.0335735872474411 -87.2351789548377 0.0335735872474397 -87.2351789548439 0.968120763363316 178.333262711621 
21.2                           0.965830978994323 -177.073086005924 0.0312612716003966 -89.1823930972613 0.0312612716003949 -89.1823930972676 0.969423575413835 176.60025520576  
21.25                          0.967131630411694 -178.815078980992 0.029154420325083 -91.0678175068266 0.0291544203250812 -91.067817506833 0.970619347418681 174.924074600478 
21.3                           0.968338299961763 179.494824943694 0.0272313522520413 -92.8954151576781 0.0272313522520392 -92.8954151576842 0.971718897761496 173.300683752127 
21.35                          0.96945933426714 177.853345791484 0.0254729981541975 -94.6687991893003 0.0254729981541955 -94.668799189306 0.972731691056942 171.726428309429 
21.4                           0.970502143574383 176.257478534384 0.0238625517337561 -96.3912715038546 0.023862551733754 -96.3912715038599 0.97366603833526 170.19799261401  
21.45                          0.971473329667042 174.704465074921 0.0223851709732989 -98.0658564514677 0.0223851709732969 -98.0658564514725 0.974529263549955 168.7123614669   
21.5                           0.972378793260517 173.191769528504 0.0210277222261058 -99.6953302514423 0.0210277222261038 -99.6953302514462 0.975327842664604 167.266786893051 
21.55                          0.973223824612617 171.717056375003 0.0197785605882472 -101.282246712887 0.0197785605882454 -101.28224671289 0.976067520321255 165.858759174296 
21.6                           0.974013180335356 170.27817110814  0.0186273410926871 -102.828959745708 0.0186273410926856 -102.828959745711 0.976753408105075 164.485981536591 
21.65                          0.974751148806497 168.873123062839 0.0175648561130968 -104.337643090204 0.0175648561130957 -104.337643090205 0.977390067639243 163.146347973515 
21.7                           0.975441606116771 167.500070144966 0.0165828950820193 -105.810307638915 0.0165828950820183 -105.810307638916 0.977981581125253 161.837923768263 
21.75                          0.976088064122858 166.157305225784 0.0156741232329233 -107.248816676539 0.0156741232329227 -107.248816676539 0.978531611451509 160.558928343295 
21.8                           0.976693711885461 164.843243995912 0.0148319765852274 -108.654899321462 0.014831976585227 -108.654899321462 0.979043453600253 159.307720122875 
21.85                          0.977261451539814 163.556414101346 0.0140505708201673 -110.030162415049 0.0140505708201672 -110.030162415049 0.9795200787681  158.082783140626 
21.9                           0.977793929459934 162.295445407855 0.0133246220561133 -111.376101071626 0.0133246220561134 -111.376101071625 0.979964172362469 156.882715163613 
21.95                          0.978293563428193 161.059061260432 0.0126493778353939 -112.694108072626 0.0126493778353943 -112.694108072625 0.980378166831985 155.7062171376   
22                             0.978762566400633 159.846070621932 0.0120205568900532 -113.985482262385 0.0120205568900539 -113.985482262384 0.980764270123605 154.552083786033 
22.05                          0.979202967360034 158.655360990002 0.011434296468978 -115.251436080172 0.0114342964689789 -115.251436080171 0.981124490424778 153.419195218887 
22.1                           0.979616629668473 157.4858920043   0.0108871061900046 -116.493102343079 0.0108871061900056 -116.493102343078 0.981460657739287 152.306509427483 
22.15                          0.980005267265292 156.336689667088 0.0103758275334055 -117.711540377095 0.0103758275334067 -117.711540377095 0.981774442755642 151.213055558306 
22.2                           0.980370459002268 155.206841109852 0.00989759822215588 -118.907741578775 0.00989759822215716 -118.907741578774 0.982067373393103 150.137927873296 
22.25                          0.980713661363034 154.095489846853 0.00944982084340881 -120.08263447723 0.00944982084341015 -120.082634477231 0.982340849349558 149.080280316333 
22.3                           0.981036219776694 153.001831463699 0.00903013515789095 -121.237089355439 0.00903013515789233 -121.23708935544 0.982596154925179 148.039321616161 
22.35                          0.981339378704666 151.925109695197 0.00863639362213954 -122.37192248079 0.00863639362214092 -122.371922480792 0.982834470353944 147.014310864974 
22.4                           0.981624290653943 150.864612852157 0.00826663971488973 -123.487899987303 0.00826663971489112 -123.487899987305 0.983056881840338 146.004553519609 
22.45                          0.981892024248283 149.819670561493 0.00791908871536438 -124.58574144564 0.00791908871536577 -124.585741445642 0.98326439046944 145.009397778922 
22.5                           0.982143571470595 148.789650788074 0.00759211062928994 -125.666123151908 0.00759211062929129 -125.666123151911 0.983457920134231 144.02823129666  
22.55                          0.982379854174319 147.773957110334 0.00728421499947212 -126.729681161944 0.00728421499947339 -126.729681161947 0.983638324603446 143.060478194074 
22.6                           0.982601729948582 146.772026224784 0.00699403737282222 -127.777014094256 0.00699403737282338 -127.777014094259 0.983806393836016 142.105596340816 
22.65                          0.982809997410705 145.7833256573   0.00672032722574075 -128.808685721938 0.0067203272257418 -128.808685721941 0.983962859633507 141.163074876367 
22.7                           0.98300540099022 144.807351661488 0.00646193717552084 -129.82522737141 0.00646193717552178 -129.825227371414 0.984108400709581 140.23243194747  
22.75                          0.983188635260359 143.84362728651  0.00621781332757222 -130.827140143908 0.00621781332757302 -130.827140143912 0.984243647244929 139.313212639885 
22.8                           0.983360348866066 142.891700598658 0.00598698662733276 -131.814896973925 0.0059869866273334 -131.814896973928 0.984369184987143 138.404987085201 
22.85                          0.983521148091515 141.951143042572 0.00576856510218667 -132.788944537426 0.00576856510218716 -132.788944537429 0.984485558947306 137.507348725623 
22.9                           0.983671600104993 141.021547929491 0.00556172689293108 -133.749705021457 0.00556172689293141 -133.749705021459 0.984593276738461 136.619912721512 
22.95                          0.983812235914477 140.102529041172 0.00536571398664951 -134.697577765711 0.00536571398664967 -134.697577765713 0.984692811595472 135.742314488133 
23                             0.983943553063368 139.193719339299 0.0051798265735383 -135.632940785743 0.00517982657353829 -135.632940785743 0.98478460511091 134.874208349486 
