! Touchstone file exported from HFSS 3D Layout Design 2026.1.0
!        File:           D:/Work/ADS/HFSS_VERDICT/hfss_sma_connector_cpw.aedt
!        Generated:      07:31:09 PM Aug  5, 2026
!        Design:         SINGLE_END_SMA_CPW_30MM
!        Project:        hfss_sma_connector_cpw
!
! Variables:
!        $sma_Base_D = 6.25mm
!        $sma_Base_L = 8mm
!        $sma_Feet_L = 4mm
!        $sma_Feet_W = 1mm
!        $sma_Front_L = 1.5mm
!        $sma_Front_W = 6.5mm
!        $sma_Hole_D = 1.25mm
!        $sma_PTFE_D = 4.2mm
!        $sma_Pin_D = 0.95mm
!        $sma_Pin_P = 1.7mm
!
# GHz S MA R 50.000000
! Terminal data exported
! Port[1] = Port1
! Port[2] = S1_1_Pin_T1
0.5                            0.0837524031690399 -132.819870448475 0.98637150405313 -42.256758416826 0.98637150405313 -42.2567584168261 0.0841067495359676 -133.532719129655 
0.6                            0.0969760660143213 -141.312800911724 0.983563136305508 -50.5906727757902 0.983563136305509 -50.5906727757903 0.0972985790009958 -142.021055110953 
0.7                            0.108572184441048 -149.75811671863 0.980835619291672 -58.898208473895 0.980835619291673 -58.8982084738951 0.108830980993015 -150.418560401513 
0.8                            0.118410014116481 -158.18252198117 0.978236684338188 -67.1824285105092 0.978236684338188 -67.1824285105092 0.118556300269014 -158.716145406633 
0.9                            0.126385533636096 -166.608918054762 0.975815047951297 -75.4463551003391 0.975815047951297 -75.4463551003391 0.126371887126242 -166.905530266319 
1                              0.132423075347037 -175.059063452308 0.973615266496785 -83.6934357328308 0.973615266496784 -83.6934357328308 0.13221431661135 -174.978029775249 
1.1                            0.136476504857078 176.444323000256 0.971672028489492 -91.9276241579214 0.971672028489492 -91.9276241579214 0.1360547112746  177.077057918839 
1.2                            0.138529806591946 167.875703391539 0.970005998179338 -100.153251908164 0.970005998179337 -100.153251908164 0.137895366471235 169.27444713393  
1.3                            0.138597385389513 159.204793594466 0.968621579676231 -108.374801442383 0.96862157967623 -108.374801442383 0.137767962332703 161.635355605183 
1.4                            0.136724490014715 150.394194916121 0.967506427230931 -116.596646662645 0.967506427230931 -116.596646662645 0.135733532623317 154.190716956537 
1.5                            0.132988145742089 141.396093953118 0.966632396451573 -124.822799938827 0.966632396451573 -124.822799938827 0.131884255296391 146.985505211169 
1.6                            0.12749898831708 132.147313235017 0.965957627879487 -133.05668952197 0.965957627879487 -133.05668952197 0.126347132964667 140.084814997895 
1.7                            0.120404522517735 122.561576027286 0.965429480526092 -141.300982168559 0.965429480526092 -141.300982168559 0.119289831942887 133.582730341718 
1.8                            0.111894714661122 112.517104273175 0.964988056345454 -149.557459987589 0.964988056345455 -149.557459987589 0.110929468327976 127.61556935384  
1.9                            0.102211700168924 101.836420067082 0.96457006880687 -157.826956324294 0.96457006880687 -157.826956324294 0.101546152280112 122.381682030162 
2                              0.0916671779851179 90.2534338892802 0.964112811445356 -166.109351989575 0.964112811445356 -166.109351989575 0.0915048241273537 118.169749894742 
2.1                            0.0806744634862271 77.3618340151577 0.963557982054639 -174.403629848698 0.963557982054639 -174.403629848698 0.0812910881372734 115.392926866384 
2.2                            0.0698073886604607 62.5462970834727 0.962855123503568 177.292017476539 0.962855123503567 177.292017476539 0.0715664123640213 114.605231485729 
2.3                            0.0598992511154357 44.9479878986673 0.961964460922567 168.980035194402 0.961964460922567 168.980035194402 0.0632316513729485 116.411598231775 
2.4                            0.0521538583833415 23.6999535341128 0.960858952421773 160.663320435747 0.960858952421772 160.663320435747 0.0574194901833631 121.074883974731 
2.5                            0.0480521016317785 -1.07594166172226 0.95952542746155 152.345016217583 0.95952542746155 152.345016217583 0.0552177275538682 127.772639078948 
2.6                            0.0486353755978244 -26.9828559319474 0.957964759535879 144.028299809708 0.95796475953588 144.028299809708 0.0570624683487697 134.397442686727 
2.7                            0.0535840550395335 -50.5860679259697 0.956191099846789 135.716180010636 0.956191099846789 135.716180010636 0.0623902152724087 138.878590058626 
2.8                            0.0615037084085118 -70.3192507669291 0.954230275753821 127.411316576277 0.954230275753821 127.411316576277 0.0700562914198175 140.451482724305 
2.9                            0.0709529705467213 -86.5700976633182 0.952117521761984 119.115872686847 0.952117521761984 119.115872686846 0.0789424874541336 139.404004489591 
3                              0.080898614278726 -100.265978724913 0.949894753956858 110.831408184176 0.94989475395686 110.831408184176 0.0882045028022134 136.339430817672 
3.1                            0.0906755755661262 -112.186271185263 0.947607617426826 102.558817754786 0.947607617426827 102.558817754786 0.097258608254459 131.801436672325 
3.2                            0.0998582477502816 -122.865848055444 0.945302531020437 94.2983146768355 0.945302531020435 94.2983146768354 0.105707542165645 126.192657352011 
3.3                            0.108169215160125 -132.654240453783 0.943023929048329 86.0494575330448 0.943023929048329 86.0494575330447 0.113279794886651 119.793524082972 
3.4                            0.115426719359127 -141.780066393262 0.940811861600097 77.8112146509386 0.940811861600095 77.8112146509385 0.1197907040764  112.796837749431 
3.5                            0.121515259659317 -150.395558369917 0.938700070725381 69.5820590803521 0.938700070725379 69.582059080352  0.125119034643142 105.335999652432 
3.6                            0.126368557899579 -158.60440322534 0.936714614528561 61.3600856669493 0.936714614528561 61.3600856669492 0.129192808000581 97.504609581336  
3.7                            0.129959040994781 -166.478835349819 0.934873069146065 53.1431411728657 0.934873069146065 53.1431411728657 0.131980311756547 89.3694283433547 
3.8                            0.132290813498867 -174.070252914476 0.933184301578032 44.9289583469418 0.933184301578032 44.9289583469417 0.133483876161153 80.9788743113481 
3.9                            0.133394529237108 178.584014506446 0.931648774854664 36.7152852773309 0.931648774854664 36.7152852773308 0.133735023426586 72.3686453969938 
4                              0.133323287692873 171.456226375051 0.930259320608073 28.5000022101198 0.930259320608074 28.5000022101197 0.132790207027382 63.5655264748917 
4.1                            0.13214904550149 164.525110330502 0.929002292264402 20.2812192520842 0.929002292264404 20.2812192520843 0.130726735783986 54.5900743939412 
4.2                            0.129959231309774 157.773535334782 0.927858994714044 12.05734996361   0.927858994714047 12.0573499636099 0.127638719033223 45.4586383099427 
4.3                            0.126853374171324 151.186625336206 0.926807274150811 3.82715774269307 0.926807274150813 3.82715774269323 0.123633022338723 36.1850280078626 
4.4                            0.122939645160681 144.750083600407 0.925823146135098 -4.41022598221713 0.925823146135101 -4.4102259822171 0.118825311940547 26.7820547367118 
4.5                            0.118331288737045 138.44857066193  0.924882342397901 -12.6553105307078 0.924882342397904 -12.6553105307078 0.113336305815908 17.2631179623061 
4.6                            0.113142992077546 132.264020607692 0.923961668625826 -20.90827839858  0.923961668625828 -20.9082783985802 0.107288354016105 7.64398664305878 
4.7                            0.107487308597042 126.1738006392   0.923040086579849 -29.1690362256966 0.923040086579851 -29.1690362256967 0.100802456392262 -2.05507908409784 
4.8                            0.101471315192592 120.148619864004 0.922099463066162 -37.437277923682 0.922099463066164 -37.4372779236821 0.0939958085474472 -11.8066996296116 
4.9                            0.0951937402520602 114.150070795449 0.921124962644059 -45.7125529878154 0.921124962644062 -45.7125529878154 0.0869799633697264 -21.5730255921854 
5                              0.0887428516039563 108.127629517453 0.920105096529451 -53.9943331653763 0.920105096529452 -53.9943331653765 0.0798597213824624 -31.3013598027118 
5.1                            0.0821954444695211 102.014827460905 0.91903147251869 -62.2820715091889 0.919031472518691 -62.282071509189 0.0727329334999806 -40.9182990110169 
5.2                            0.0756173304555691 95.7241092265625 0.91789831594417 -70.5752492734181 0.917898315944172 -70.5752492734181 0.0656915316362212 -50.3217253902495 
5.3                            0.0690658249782761 89.139572312007  0.916701846915106 -78.8734078959054 0.916701846915106 -78.8734078959054 0.0588243188383179 -59.3697215353426 
5.4                            0.0625949123999152 82.1063354493781 0.9154396032918  -87.1761652087361 0.915439603291799 -87.1761652087361 0.0522223794504269 -67.8653993247291 
5.5                            0.0562641225334342 74.4148323677825 0.914109792608067 -95.4832167861458 0.914109792608064 -95.4832167861458 0.0459884114617224 -75.5375638831814 
5.6                            0.0501527896262052 65.7785690751989 0.912710741524794 -103.794324782316 0.912710741524793 -103.794324782316 0.0402516318612445 -82.0218128937184 
5.7                            0.0443822568959537 55.8074539707845 0.911240491267549 -112.10929760685 0.911240491267548 -112.10929760685 0.0351890787518262 -86.8624165460445 
5.8                            0.0391487660848889 43.9940476991647 0.90969656503576 -120.427964285282 0.909696565035758 -120.427964285282 0.0310483871644659 -89.5944757268433 
5.9                            0.0347645060116104 29.7759801607943 0.908075911475029 -128.750147377515 0.908075911475031 -128.750147377515 0.0281488358907147 -90.0147044982254 
6                              0.0316800356948557 12.819174152052  0.906375009270865 -137.075637952706 0.906375009270864 -137.075637952706 0.0268107055417067 -88.6478593940116 
6.1                            0.0304097405236582 -6.39238400792079 0.904590103273907 -145.404175450369 0.904590103273906 -145.404175450369 0.0271938790967114 -86.9323380717428 
6.2                            0.0312935844442908 -26.2028840496199 0.902717533049996 -153.735434411753 0.902717533049996 -153.735434411753 0.0291748806439023 -86.5122854676607 
6.3                            0.034265653422517 -44.6211653571996 0.900754110435336 -162.069019156172 0.900754110435337 -162.069019156172 0.0324184285269221 -88.28323699859  
6.4                            0.0389210430708877 -60.592970659075 0.898697503115581 -170.404466602025 0.898697503115583 -170.404466602025 0.0365527422223204 -92.2745032236018 
6.5                            0.0447740771912275 -74.1373641492291 0.896546585619881 -178.741256668175 0.896546585619881 -178.741256668175 0.0412754396200088 -98.097553895925 
6.6                            0.0514194353782767 -85.741901010808 0.894301726390789 172.921170909252 0.89430172639079 172.921170909252 0.0463698394824178 -105.303481014157 
6.7                            0.0585583061125797 -95.9275142627354 0.891964988631029 164.583394918676 0.89196498863103 164.583394918676 0.0516854474095222 -113.519047195456 
6.8                            0.0659734495403975 -105.107289245698 0.889540232328475 156.245987958582 0.889540232328474 156.245987958582 0.0571159182295055 -122.466022115944 
6.9                            0.0735015498192301 -113.579087017043 0.887033114218049 147.909490477692 0.88703311421805 147.909490477692 0.0625833765593263 -131.944127822442 
7                              0.0810141659643591 -121.552093507317 0.884450990630013 139.574385248562 0.884450990630012 139.574385248562 0.0680288354108375 -141.809311174901 
7.1                            0.0884063049488688 -129.173702440547 0.881802734603042 131.24107370067  0.881802734603041 131.24107370067  0.0734067460969399 -151.955952389672 
7.2                            0.0955898778427692 -136.549712463953 0.879098482967859 122.90985520858  0.879098482967858 122.90985520858  0.0786820011763159 -162.303967880183 
7.3                            0.102489961878648 -143.758251144889 0.876349331245489 114.580910066078 0.876349331245492 114.580910066078 0.0838282383296577 -172.789888409041 
7.4                            0.109042594937031 -150.859138389379 0.873566994293397 106.254286518563 0.873566994293396 106.254286518563 0.0888266968457763 176.639165536734 
7.5                            0.115193385697635 -157.900178391547 0.87076344899258 97.9298919075461 0.870763448992585 97.9298919075463 0.0936651569138751 166.029463712215 
7.6                            0.12089656275842 -164.921431740059 0.867950572342023 89.6074877285236 0.867950572342024 89.6074877285236 0.0983366955561456 155.423215179986 
7.7                            0.126114286020086 -171.958164234628 0.865139784617601 81.2866882335016 0.865139784617603 81.2866882335016 0.102838157886286 144.860124061523 
7.8                            0.130816159965362 -179.0429250486  0.86234170327332 72.9669621294467 0.862341703273318 72.9669621294469 0.10716838345859 134.378272698982 
7.9                            0.13497895593612 173.79295253687  0.859565809488392 64.6476369333933 0.859565809488391 64.6476369333934 0.111326345264316 124.014576489553 
8                              0.138586589681052 166.518238387418 0.856820126105528 56.3279056362562 0.856820126105529 56.3279056362562 0.115309447638146 113.805000670029 
8.1                            0.141630423181028 159.100960893008 0.854110903494408 48.0068354876863 0.854110903494407 48.0068354876864 0.119112283317615 103.784684113656 
8.2                            0.144109972376949 151.507760610093 0.851442308858701 39.6833789266657 0.851442308858701 39.6833789266656 0.122726166679043 93.9880693243353 
8.3                            0.146034107147489 143.70341297447  0.848816114856937 31.3563869273475 0.848816114856938 31.3563869273475 0.126139739668809 84.4490857558734 
8.4                            0.147422825195659 135.650529960103 0.846231385232078 23.0246252853543 0.846231385232077 23.0246252853541 0.129340888120955 75.2013734654978 
8.5                            0.14830966173087 127.309494457262 0.843684158488989 14.6867946133353 0.84368415848899 14.6867946133353 0.132320103659984 66.2784675674056 
8.6                            0.148744751166654 118.63873507199  0.841167135516214 6.34155502186861 0.841167135516213 6.34155502186869 0.135075270227956 57.7137963287877 
8.7                            0.148798468444926 109.59551541471  0.838669383353819 -2.01244339292015 0.838669383353819 -2.01244339292024 0.137617634659033 49.5402869070436 
8.8                            0.148565422761113 100.137485914097 0.83617607492283 -10.3765230773201 0.83617607492283 -10.37652307732  0.139978438488972 41.7893385774818 
8.9                            0.148168329908186 90.2253068966795 0.833668293208108 -18.751933446989 0.83366829320811 -18.751933446989 0.142215368248617 34.488937466831  
9                              0.147760937165766 79.8266490911083 0.831122937728283 -27.1397963037914 0.831122937728284 -27.1397963037913 0.144417684111933 27.6607802101819 
9.1                            0.147528745175805 68.9217216600877 0.828512780527708 -35.5410417149777 0.828512780527707 -35.5410417149777 0.146708709902545 21.3164778005495 
9.2                            0.147685887155809 57.5100503885778 0.825806727515904 -43.9563344056443 0.825806727515904 -43.9563344056445 0.149244433613245 15.4532366486701 
9.3                            0.1484664542813  45.6174592323211 0.822970347583687 -52.3859915029739 0.822970347583689 -52.3859915029738 0.152207389281987 10.0498170246142 
9.4                            0.1501091849815  33.3012383831644 0.819966735070768 -60.8298934605893 0.819966735070769 -60.8298934605891 0.155795810274113 5.0639107715869  
9.5                            0.152836060170149 20.650836460583  0.816757769172894 -69.2873911471241 0.816757769172895 -69.287391147124 0.160209152132715 0.43213154458813 
9.6                            0.156827745961716 7.78190472463214 0.813305825103088 -77.7572133272221 0.813305825103086 -77.757213327222 0.165632163831694 -3.92664147870555 
9.7                            0.162200951324978 -5.17639401668434 0.809575975007906 -86.2373799664151 0.809575975007905 -86.2373799664151 0.172220269049886 -8.10477898701433 
9.8                            0.168993132385288 -18.0979527780235 0.805538691474776 -94.7251277673438 0.805538691474771 -94.7251277673439 0.180088707260075 -12.1975855132918 
9.9                            0.177157848271431 -30.8753458502161 0.80117303422761 -103.216854853963 0.801173034227607 -103.216854853963 0.189306660080877 -16.2951254047025 
10                             0.186570415525847 -43.43018435516  0.796470264780645 -111.708091287076 0.796470264780645 -111.708091287076 0.199895927356847 -20.4760041011269 
