! Touchstone file exported from HFSS 3D Layout Design 2026.1.0
!        File:           D:/Work/SIM/ADS_AUTO_SIM/projects/RFSOC_RF/TX_Fillter.aedt
!        Generated:      11:41:58 PM Aug 30, 2026
!        Design:         TX_BAND1_MCFIL_R10_CNN042
!        Project:        TX_Fillter
!
# GHz S MA R 50.000000
! Terminal data exported
! Port[1] = Port1
! Port[2] = Port2
14                             0.967053033948055 -179.397039941463 0.00490831737087255 175.99137280833  0.00490831737087256 175.99137280833  0.967698479812679 -177.906855176831 
14.05                          0.966404995612516 179.618333119642 0.00502278081719385 175.60094983825  0.00502278081719386 175.60094983825  0.96706446933896 -178.865542096028 
14.1                           0.965735701240013 178.625522521879 0.00514334295085473 175.226468676397 0.00514334295085474 175.226468676397 0.966409572261024 -179.832090039499 
14.15                          0.965044094102218 177.624250945283 0.0052704883717796 174.867786138424 0.00527048837177964 174.867786138424 0.965732748039165 179.19323388359  
14.2                           0.964329047191235 176.614226758709 0.00540474766283135 174.524683053661 0.00540474766283138 174.524683053661 0.965032886693315 178.210148851329 
14.25                          0.963589357351762 175.595143092421 0.00554670220641327 174.196856229107 0.00554670220641331 174.196856229107 0.964308802972013 177.218359437908 
14.3                           0.962823738819958 174.566676836845 0.00569698954198136 173.883910092635 0.00569698954198138 173.883910092635 0.963559229927746 176.217554650993 
14.35                          0.962030816098175 173.528487560425 0.0058563093302271 173.585348079353 0.00585630933022715 173.585348079353 0.962782811827324 175.207406890761 
14.4                           0.961209116084986 172.480216338753 0.00602542999874061 173.300563839674 0.00602542999874062 173.300563839674 0.961978096316006 174.187570822925 
14.45                          0.960357059368604 171.421484486244 0.0062051961544803 173.028832362506 0.00620519615448033 173.028832362506 0.96114352574264 173.157682157217 
14.5                           0.959472950578681 170.351892180641 0.00639653686063573 172.769301121388 0.00639653686063579 172.769301121388 0.960277427539733 172.117356321816 
14.55                          0.958554967676247 169.271016969516 0.0066004748897965 172.520981364696 0.00660047488979656 172.520981364696 0.959378003536861 171.066187023096 
14.6                           0.957601150043792 168.178412146644 0.00681813708212333 172.282739682355 0.00681813708212333 172.282739682355 0.958443318067798 170.00374467879  
14.65                          0.956609385216745 167.073604984693 0.00705076595691681 172.053289989777 0.00705076595691682 172.053289989777 0.95747128471057 168.929574711268 
14.7                           0.955577394073407 165.95609480907  0.007299732749145 171.831186073978 0.007299732749145 171.831186073979 0.956459651474935 167.843195685979 
14.75                          0.95450271427185 164.825350895855 0.00756655206977375 171.614814845973 0.00756655206977377 171.614814845973 0.955405984222726 166.744097278285 
14.8                           0.95338268168888 163.680810174729 0.007852898420919 171.40239043635  0.00785289842091901 171.40239043635  0.954307648072262 165.631738049821 
14.85                          0.952214409576614 162.521874715346 0.00816062483482731 171.191949256712 0.0081606248348273 171.191949256712 0.953161786497664 164.505543013114 
14.9                           0.950994765105568 161.347908972936 0.00849178395058391 170.98134612739  0.00849178395058394 170.98134612739  0.951965297786085 163.36490096051  
14.95                          0.949720342907735 160.158236765805 0.00884865189555082 170.768251541163 0.00884865189555083 170.768251541163 0.950714808459129 162.209161530343 
15                             0.94838743516732 158.952137953917 0.00923375540140496 170.550150093486 0.00923375540140497 170.550150093486 0.94940664319719 161.037631979777 
15.05                          0.946991997728287 157.7288447837   0.00964990265913873 170.32434006214  0.00964990265913876 170.32434006214  0.948036790724859 159.849573629702 
15.1                           0.945529611594014 156.487537859719 0.0101002185057315 170.087934064062 0.0101002185057315 170.087934064061 0.946600865019055 158.64419794252  
15.15                          0.943995439081814 155.227341698646 0.0105881846400797 169.837860655514 0.0105881846400797 169.837860655514 0.945094061085781 157.420662188417 
15.2                           0.942384173759743 153.947319815111 0.0111176856904146 169.570866675282 0.0111176856904146 169.570866675282 0.943511104412001 156.178064649791 
15.25                          0.940689983129904 152.646469282374 0.0116930621037239 169.283520061096 0.011693062103724 169.283520061096 0.941846193030885 154.915439306772 
15.3                           0.938906442825098 151.32371470325  0.0123191710043428 168.972212798983 0.0123191710043429 168.972212798983 0.940092930934953 153.631749939145 
15.35                          0.937026460846227 149.977901518316 0.013001456379546 168.633163595811 0.013001456379546 168.633163595811 0.938244251324287 152.325883571425 
15.4                           0.935042190076725 148.607788569042 0.0137460302015283 168.262419798577 0.0137460302015284 168.262419798577 0.93629232787579 150.996643178219 
15.45                          0.932944926955161 147.212039823125 0.0145597663958373 167.8558580215   0.0145597663958374 167.8558580215   0.934228471851703 149.642739556374 
15.5                           0.930724993752932 145.789215158034 0.0154504099260147 167.4091828843   0.0154504099260148 167.4091828843   0.932043012415396 148.262782258782 
15.55                          0.928371601371773 144.337760086737 0.0164267036947082 166.917923212177 0.0164267036947082 166.917923212177 0.929725156969826 146.855269472203 
15.6                           0.92587268892191 142.855994297162 0.0174985364767625 166.377424998894 0.0174985364767625 166.377424998894 0.927262827654389 145.418576708439 
15.65                          0.923214735536984 141.342098864707 0.0186771157160472 165.782840387087 0.0186771157160472 165.782840387087 0.924642469298018 143.950944165238 
15.7                           0.920382538889771 139.794101986195 0.0199751697536613 165.129111871471 0.0199751697536613 165.12911187147  0.921848823092057 142.450462601377 
15.75                          0.917358953648737 138.209863075716 0.0214071849314049 164.410950877332 0.0214071849314049 164.410950877332 0.918864658968024 140.915057561259 
15.8                           0.914124581604716 136.587055060604 0.0229896840531306 163.622809804071 0.0229896840531306 163.622809804071 0.91567045808472 139.342471780645 
15.85                          0.910657403334046 134.923144723691 0.0247415539095278 162.758846546866 0.0247415539095278 162.758846546866 0.912244034875845 137.730245611203 
15.9                           0.906932338971818 133.21537096258  0.0266844309972162 161.812880414163 0.0266844309972162 161.812880414163 0.908560085699889 136.075695323893 
15.95                          0.902920722858954 131.460720888455 0.0288431561993623 160.778338240566 0.0288431561993623 160.778338240566 0.904589648172773 134.375889200321 
16                             0.898589673405696 129.6559037817   0.0312463110312839 159.648189351728 0.0312463110312839 159.648189351728 0.900299451646405 132.627621412809 
16.05                          0.893901335393248 127.797323083754 0.0339268500423814 158.414867870738 0.0339268500423814 158.414867870738 0.895651134920817 130.827383852627 
16.1                           0.888811967053709 125.881046871559 0.036922845990883 157.070180670738 0.0369228459908829 157.070180670738 0.890600302065858 128.971336329191 
16.15                          0.883270838637452 123.90277768984  0.0402783662424336 155.605199091599 0.0402783662424335 155.605199091599 0.885095381170489 127.05527598882  
16.2                           0.877218902962056 121.857823294931 0.0440445000693547 154.010132380146 0.0440445000693547 154.010132380145 0.879076244073008 125.074607478591 
16.25                          0.870587192104762 119.741070925924 0.0482805564131644 152.274180739129 0.0482805564131643 152.274180739129 0.872472538091626 123.024316445214 
16.3                           0.863294888979631 117.546969369901 0.0530554489808092 150.385365975235 0.0530554489808092 150.385365975235 0.86520167446953 120.898950619984 
16.35                          0.855247020070229 115.269525641184 0.0584492782303105 148.330338179779 0.0584492782303105 148.330338179779 0.857166414687205 118.692615319554 
16.4                           0.846331719881016 112.902327027015 0.0645551045593279 146.09415791631  0.0645551045593279 146.09415791631  0.848251998787827 116.398994179522 
16.45                          0.836417035580788 110.438605285421 0.0714808786135454 143.660055440359 0.0714808786135454 143.660055440359 0.838322776317317 114.011412079891 
16.5                           0.825347283792809 107.871368994589 0.0793514450216731 141.009172183641 0.0793514450216731 141.009172183641 0.827218342523263 111.522966643886 
16.55                          0.812939060796788 105.193644032946 0.0883104530229974 138.120296080496 0.0883104530229975 138.120296080496 0.814749270751638 108.926769063848 
16.6                           0.798977175816492 102.398883176436 0.0985218743181539 134.969612739431 0.0985218743181539 134.969612739431 0.800692700654495 106.216356746169 
16.65                          0.783211077051816 99.4816368953072 0.110170622676689 131.530510968796 0.110170622676689 131.530510968796 0.784788345045102 103.38637271932  
16.7                           0.765352849753855 96.4386223750554 0.12346146623793 127.773506284291 0.12346146623793 127.773506284291 0.766735997260693 100.433654208993 
16.75                          0.745078690415097 93.270390246469  0.138615003648683 123.66638240033  0.138615003648683 123.66638240033  0.746196466911082 97.3589399270825 
16.8                           0.722037018505037 89.9838695945467 0.155858951791079 119.174699768642 0.155858951791079 119.174699768642 0.722799172244091 94.1694954285553 
16.85                          0.695868146213023 86.5961637772973 0.175412460129678 114.262879080935 0.175412460129678 114.262879080935 0.696161457528091 90.8830640728883 
16.9                           0.666242552897915 83.140041637099  0.197460888243008 108.896123029341 0.197460888243008 108.896123029341 0.665926975254913 87.5336530552112 
16.95                          0.632926650224917 79.6715377004528 0.222119005411175 103.043458419858 0.222119005411175 103.043458419857 0.631832560036021 84.1796865578934 
17                             0.595884798495345 76.2797498402011 0.249382779937777 96.6821001740914 0.249382779937776 96.6821001740913 0.593813299060584 80.9148229979157 
17.05                          0.555421021329396 73.0979103753408 0.279074815337755 89.8030680730985 0.279074815337754 89.8030680730985 0.552150808930116 77.880849196263  
17.1                           0.512348668027877 70.3123895233495 0.310796273286463 82.417446397153  0.310796273286462 82.417446397153  0.507655365406309 75.2797442342941 
17.15                          0.468146787502891 68.1614362334449 0.343906541113306 74.56190053769   0.343906541113306 74.5619005376901 0.461843730981395 73.3768824892764 
17.2                           0.425018626089127 66.9077394249071 0.377554821214275 66.3013483139965 0.377554821214274 66.3013483139966 0.417029862491685 72.4779758580466 
17.25                          0.385724219141424 66.7626430802835 0.410777143699794 57.7266186341011 0.410777143699794 57.7266186341012 0.376193270200739 72.8513741928289 
17.3                           0.353059967113001 67.7535655820329 0.44264565407946 48.9460867425922 0.44264565407946 48.9460867425924 0.342465838912276 74.5747424130772 
17.35                          0.328998141611759 69.5897780083669 0.472426348383774 40.0725429430719 0.472426348383774 40.072542943072  0.318191079942298 77.3567640027956 
17.4                           0.31384002547845 71.6662855259003 0.499689350845499 31.2087731664961 0.499689350845499 31.2087731664962 0.303898068349072 80.510872640755  
17.45                          0.305998921517838 73.2885925746198 0.524335513576043 22.4359966632468 0.524335513576043 22.4359966632468 0.29794672812264 83.2211331865044 
17.5                           0.302663769371106 73.9613566957339 0.546542156871533 13.8079208294994 0.546542156871533 13.8079208294994 0.297254388765492 84.9138014061774 
17.55                          0.300834703687932 73.5053457313058 0.566661852144627 5.3507469168629  0.566661852144627 5.3507469168629  0.298518397292551 85.4068730763105 
17.6                           0.298057963442837 71.9836868166274 0.585114881699076 -2.9324785293312 0.585114881699076 -2.93247852933123 0.299077004323985 84.8089014430901 
17.65                          0.292666778627575 69.5744522334464 0.602303176878977 -11.0554405948878 0.602303176878977 -11.0554405948878 0.29717021988025 83.3570160535108 
17.7                           0.28370902163578 66.4822969875237 0.618555727466368 -19.0419568240678 0.618555727466368 -19.0419568240678 0.291839308118304 81.3126128550141 
17.75                          0.270774026292444 62.9009179686871 0.634102959364893 -26.9203150687052 0.634102959364892 -26.9203150687052 0.282724428428099 78.9219091496989 
17.8                           0.253831236670845 59.0083601811265 0.649072531181996 -34.7189685601506 0.649072531181995 -34.7189685601506 0.269887640008674 76.414238935608  
17.85                          0.233114678133232 54.9800329874812 0.663498936303955 -42.463585342141 0.663498936303954 -42.4635853421409 0.253695214547933 74.0173776805621 
17.9                           0.209052609219089 51.014505229898  0.677341162476471 -50.1752677209348 0.67734116247647 -50.1752677209347 0.234756071114853 71.9803377428075 
17.95                          0.182234329022212 47.3782438178942 0.690504547059494 -57.8697208574351 0.690504547059494 -57.8697208574351 0.213905715927562 70.6000343666667 
18                             0.153413990386438 44.4930176081498 0.702864162500168 -65.5571721927642 0.702864162500168 -65.5571721927642 0.19222794737842 70.2474385628078 
18.05                          0.123578062949992 43.1329857321195 0.714287589741585 -73.2428731605801 0.714287589741585 -73.2428731605801 0.171107297393013 71.3768023957571 
18.1                           0.0941876839501554 44.9214383311083 0.724655108120868 -80.9280304468361 0.724655108120868 -80.9280304468361 0.152285255485893 74.4673082519884 
18.15                          0.0680023340897661 53.5525523486812 0.733875506641635 -88.6110153452128 0.733875506641635 -88.6110153452128 0.137817775898288 79.7943149026727 
18.2                           0.0514032604464394 75.3533802353934 0.741896144370995 -96.2886965038503 0.741896144370994 -96.2886965038503 0.12970532567338 86.982524409715  
18.25                          0.0535604046713991 104.840743383642 0.748706609580813 -103.957745653282 0.748706609580813 -103.957745653282 0.129067786412542 94.7190791831226 
18.3                           0.0714547342633552 122.133435543413 0.754336219978305 -111.615785685513 0.754336219978305 -111.615785685513 0.135437861960075 101.311433008839 
18.35                          0.0951529984720396 127.787033683512 0.758846440900088 -119.262286370814 0.758846440900088 -119.262286370814 0.147056386318537 105.696443843032 
18.4                           0.11982610108346 127.727012857664 0.762319858267433 -126.899158893715 0.762319858267432 -126.899158893715 0.161856247984254 107.717101703648 
18.45                          0.143708205403971 124.842179680559 0.764847516027825 -134.531046574561 0.764847516027824 -134.531046574561 0.178153032017578 107.713205230264 
18.5                           0.166124672745065 120.385275409333 0.7665162346548  -142.165346511584 0.7665162346548  -142.165346511584 0.194812694780767 106.125901370423 
18.55                          0.186857148814864 114.940947764519 0.767397088802948 -149.812019853159 0.767397088802948 -149.812019853159 0.211171692701545 103.329591918238 
18.6                           0.205932977879594 108.803141196362 0.767535694749606 -157.483255755223 0.767535694749606 -157.483255755223 0.226915504351752 99.5992620675581 
18.65                          0.223541788905128 102.126865171866 0.766944476849649 -165.193047895588 0.76694447684965 -165.193047895588 0.241980755577574 95.1238508031967 
18.7                           0.239995163711   94.9957370293382 0.765596733175676 -172.95672635442 0.765596733175677 -172.95672635442 0.256486565372154 90.0277620885039 
18.75                          0.255702415492419 87.4556426825119 0.763422143643779 179.209534623865 0.763422143643781 179.209534623865 0.270687035762807 84.3896549730952 
18.8                           0.271151899013344 79.533634015084  0.7603033718132  171.289238093672 0.760303371813202 171.289238093672 0.284936637263826 78.2570318058524 
18.85                          0.286892316085204 71.2498104458238 0.756073610296454 163.266146824848 0.756073610296455 163.266146824848 0.299662225900687 71.657537769476  
18.9                           0.303510134771985 62.6253444177023 0.750515319292988 155.124983363198 0.750515319292989 155.124983363197 0.315336964240412 64.6080682975171 
18.95                          0.321600066376391 53.6877783038667 0.743361013486013 146.852323351587 0.743361013486013 146.852323351587 0.332452347954126 57.1223831835604 
19                             0.341726590540559 44.4738554395634 0.734297731156165 138.437763064306 0.734297731156165 138.437763064306 0.351485265475843 49.2174581935053 
19.05                          0.364376293936736 35.0299907851962 0.722977636614078 129.875422289895 0.722977636614078 129.875422289895 0.372858085639819 40.9184558524158 
19.1                           0.389903445361743 25.4107912021342 0.709037747758454 121.165784356536 0.709037747758453 121.165784356536 0.396891721469178 32.2620634120383 
19.15                          0.418474571599058 15.6764841344798 0.692131497892187 112.31776442664  0.692131497892185 112.31776442664  0.423754782023798 23.2980451754144 
19.2                           0.450021251710137 5.8903215995481  0.67197303888647 103.350737382491 0.671973038886468 103.350737382491 0.453416047696198 14.0890955526956 
19.25                          0.484212883254417 -3.88324884437034 0.648391380236605 94.2960798167477 0.648391380236603 94.2960798167479 0.485611417397437 4.70928613309186 
19.3                           0.520461229942459 -13.5795179376751 0.621386008212023 85.1976597675034 0.621386008212022 85.1976597675035 0.519838079124544 -4.75856036837938 
19.35                          0.557964402795715 -23.1340882386405 0.591170415936646 76.1107436733655 0.591170415936645 76.1107436733657 0.555385646055901 -14.2263450386283 
19.4                           0.595788914504908 -32.4838813073998 0.558188204959617 67.0990589737897 0.558188204959617 67.0990589737899 0.591405452900257 -23.6048836302826 
19.45                          0.632976683441484 -41.569092861185 0.523090949523758 58.2302285309581 0.523090949523758 58.2302285309583 0.627007238981545 -32.8085959889737 
19.5                           0.668654414661206 -50.33600045955  0.486677749323522 49.5703147222037 0.486677749323522 49.5703147222039 0.661362264099421 -41.7602283512149 
19.55                          0.702121031281441 -58.739977126916 0.449809036710014 41.1785334693153 0.449809036710014 41.1785334693154 0.6937890868353  -50.3949210754674 
19.6                           0.732896409744748 -66.7478763881935 0.413315389494743 33.1031510031579 0.413315389494743 33.103151003158  0.723804706548982 -58.6629455188344 
19.65                          0.760727794389988 -74.3391758582362 0.37792180498997 25.3791834725182 0.37792180498997 25.3791834725182 0.751136081887921 -66.5307235024706 
19.7                           0.785562354368722 -81.5057097669004 0.344200178719205 18.027983134816  0.344200178719204 18.027983134816  0.775698850920029 -73.9801692595849 
19.75                          0.807500583039779 -88.2502321235079 0.312552421414993 11.0583513121811 0.312552421414992 11.0583513121811 0.797556561157037 -81.0067522694254 
19.8                           0.82674496809671 -94.5842734511922 0.283218577949434 4.46860133246914 0.283218577949432 4.46860133246911 0.816873985202959 -87.616844031381 
19.85                          0.84355406352177 -100.525769741648 0.256300672965407 -1.75100031612527 0.256300672965405 -1.7510003161253 0.833874358919659 -93.8248819998746 
19.9                           0.858206892632326 -106.096827774897 0.231793265685706 -7.61584729957989 0.231793265685704 -7.61584729957984 0.848805578002429 -99.6507382347865 
19.95                          0.870978529288639 -111.321836619343 0.209614056663001 -13.1449174798328 0.209614056662999 -13.1449174798328 0.861916506308173 -105.117507236144 
20                             0.882125360329978 -116.226001612454 0.189630686104796 -18.3591131024197 0.189630686104794 -18.3591131024196 0.87344224692706 -110.249784045634 
20.05                          0.891877653758916 -120.834287911088 0.171682146592032 -23.2800209070737 0.17168214659203 -23.2800209070735 0.883596301142477 -115.072410253027 
20.1                           0.900437082254326 -125.170714301363 0.155594715091601 -27.9290412150283 0.155594715091599 -27.929041215028 0.892567486305689 -119.609618139528 
20.15                          0.907977285812072 -129.257922474496 0.141193081124437 -32.3268143290942 0.141193081124435 -32.3268143290938 0.900519840637386 -123.884488342803 
20.2                           0.914646085905047 -133.116949590014 0.128307629181205 -36.4928721255526 0.128307629181204 -36.4928721255522 0.907594210534779 -127.918640374788 
20.25                          0.920568432305289 -136.767142920368 0.116778833256067 -40.4454520465322 0.116778833256066 -40.4454520465317 0.913910642356482 -131.732087801445 
20.3                           0.925849521596716 -140.226168652641 0.106459590278931 -44.2014232371248 0.106459590278929 -44.2014232371244 0.919571031989493 -135.343204596653 
20.35                          0.930577774837165 -143.510079374166 0.0972161481129311 -47.7762868093881 0.0972161481129301 -47.7762868093876 0.92466171887886 -138.768762863699 
20.4                           0.934827522193467 -146.633415118375 0.0889281193281854 -51.184222646908 0.0889281193281845 -51.1842226469074 0.929255864078761 -142.024013479465 
20.45                          0.938661339297246 -149.609320852251 0.0814879334058579 -54.4381633973099 0.0814879334058575 -54.4381633973095 0.933415545905164 -145.122790027741 
20.5                           0.942132034555401 -152.449669182183 0.0747999717462048 -57.5498824819227 0.0747999717462042 -57.5498824819223 0.937193560907553 -148.07762291185 
20.55                          0.945284314352699 -155.165181240002 0.0687795493198471 -60.5300874305579 0.0687795493198467 -60.5300874305575 0.940634946505636 -150.899855203878 
20.6                           0.948156164765985 -157.765541593002 0.0633518490177041 -63.3885130062411 0.0633518490177037 -63.3885130062408 0.943778254763719 -153.599755035641 
20.65                          0.950779991055879 -160.259504952043 0.0584508744618791 -66.134010759111 0.0584508744618789 -66.1340107591109 0.946656610972544 -156.186621542059 
20.7                           0.95318355414113 -162.654993708165 0.0540184596373144 -68.7746331146198 0.0540184596373143 -68.7746331146197 0.949298590098114 -158.66888282958 
20.75                          0.955390739059594 -164.959186118453 0.0500033555190061 -71.3177110677046 0.0500033555190061 -71.3177110677047 0.951728941219144 -161.054185385662 
20.8                           0.957422185527467 -167.17859543716 0.0463604021231146 -73.7699251755233 0.0463604021231147 -73.7699251755234 0.953969186236919 -163.349474933699 
20.85                          0.959295805891979 -169.319140554345 0.0430497870736667 -76.1373699268445 0.0430497870736668 -76.1373699268448 0.956038115180826 -165.56106908759 
20.9                           0.961027211397099 -171.386208835143 0.0400363874057302 -78.4256117937951 0.0400363874057302 -78.4256117937956 0.957952196738978 -167.694722352249 
20.95                          0.962630063884954 -173.384711898176 0.0372891889127065 -80.639741395112 0.0372891889127065 -80.6397413951126 0.959725919382259 -169.755684106593 
21                             0.964116366853882 -175.319135064969 0.0347807761969035 -82.7844202561148 0.0347807761969036 -82.7844202561156 0.961372075665369 -171.748750231512 
21.05                          0.965496707144055 -177.193581175562 0.0324868862292386 -84.8639226641919 0.0324868862292387 -84.863922664193 0.962901999960658 -173.678309032283 
21.1                           0.966780456355455 -179.01180941316 0.0303860183519278 -86.8821731063612 0.0303860183519278 -86.8821731063624 0.964325767962054 -175.548382069505 
21.15                          0.967975939346915 179.222730278438 0.0284590940606318 -88.8427797484126 0.0284590940606319 -88.8427797484138 0.965652364729833 -177.362660465617 
21.2                           0.969090575748928 177.506866661097 0.0266891604459595 -90.7490643804568 0.0266891604459595 -90.7490643804581 0.966889826775571 -179.12453720239 
21.25                          0.970130999284837 175.837680086866 0.0250611317738195 -92.6040892159478 0.0250611317738196 -92.6040892159492 0.9680453626585  179.162864127438 
21.3                           0.971103158781884 174.212478389519 0.0235615642879757 -94.4106808932523 0.0235615642879757 -94.4106808932537 0.969125455734801 177.496663701364 
21.35                          0.972012404021233 172.628775421297 0.0221784598959139 -96.1714519923116 0.022178459895914 -96.1714519923131 0.970135952032188 175.874202614966 
21.4                           0.97286355898859 171.084271917451 0.02090109493447 -97.8888203447934 0.02090109493447 -97.8888203447949 0.971082135682337 174.293022472939 
21.45                          0.973660984615115 169.57683841068  0.019719870697114 -99.5650263848196 0.019719870697114 -99.565026384821 0.971968793907701 172.750847138432 
21.5                           0.974408632718694 168.104499952371 0.0186261828384501 -101.202148759032 0.0186261828384501 -101.202148759033 0.972800273206613 171.245566390163 
21.55                          0.975110092549552 166.665422428137 0.0176123071547327 -102.802118389358 0.0176123071547326 -102.80211838936 0.973580528094642 169.775221267265 
21.6                           0.975768631096843 165.257900281875 0.0166712995752397 -104.366731159235 0.0166712995752397 -104.366731159236 0.974313163527814 168.337990908677 
21.65                          0.976387228112398 163.880345485878 0.0157969084923016 -105.897659374013 0.0157969084923016 -105.897659374014 0.975001471943973 166.932180717471 
21.7                           0.976968606644881 162.531277614842 0.0149834978121046 -107.396462128578 0.0149834978121047 -107.396462128579 0.975648465703798 165.556211701187 
21.75                          0.97751525974485 161.209314899234 0.014225979328493 -108.864594699638 0.014225979328493 -108.864594699638 0.976256905586085 164.20861085732  
21.8                           0.978029473892533 159.913166148886 0.013519753212063 -110.303417066412 0.0135197532120631 -110.303417066412 0.976829325887569 162.888002488891 
21.85                          0.978513349611095 158.641623450977 0.0128606555707409 -111.714201651437 0.0128606555707409 -111.714201651437 0.977368056591419 161.593100348873 
21.9                           0.97896881965474 157.393555558217 0.0122449121792139 -113.098140362592 0.0122449121792139 -113.098140362592 0.977875242997223 160.322700524243 
21.95                          0.979397665100455 156.167901893112 0.0116690975961473 -114.456351008183 0.0116690975961474 -114.456351008183 0.978352863146055 159.075674981003 
22                             0.979801529621925 154.963667103024 0.0111300989927549 -115.789883148739 0.011130098992755 -115.789883148738 0.978802743324835 157.850965700697 
22.05                          0.980181932182458 153.779916108389 0.0106250841063768 -117.099723442025 0.010625084106377 -117.099723442023 0.979226571892879 156.647579346995 
22.1                           0.980540278348828 152.615769593159 0.0101514728102995 -118.386800531451 0.0101514728102997 -118.386800531449 0.979625911638886 155.464582407982 
22.15                          0.980877870398863 151.470399892394 0.00970691185789287 -119.6519895225  0.00970691185789316 -119.651989522498 0.980002210847475 154.301096765945 
22.2                           0.98119591637105 150.34302723703  0.00928925241677402 -120.896116086925 0.00928925241677429 -120.896116086923 0.980356813229679 153.156295651865 
22.25                          0.981495538183794 149.23291632036  0.00889653005843057 -122.119960230135 0.00889653005843088 -122.119960230132 0.980690966851015 152.029399946587 
22.3                           0.981777778934564 148.13937315468  0.00852694691168328 -123.324259753384 0.00852694691168363 -123.324259753381 0.981005832172953 150.919674794824 
22.35                          0.982043609474302 147.061742190019 0.00817885572548589 -124.509713439027 0.00817885572548626 -124.509713439023 0.981302489308519 149.826426501807 
22.4                           0.982293934339952 145.999403669911 0.0078507456186849 -125.676983984094 0.00785074561868533 -125.676983984091 0.981581944579862 148.748999685664 
22.45                          0.982529597117186 144.951771201857 0.00754122932218333 -126.826700704845 0.00754122932218377 -126.826700704841 0.981845136454503 147.686774661459 
22.5                           0.98275138529627 143.918289522459 0.00724903174308376 -127.959462032562 0.00724903174308425 -127.959462032557 0.982092940927519 146.639165035346 
22.55                          0.982960034676093 142.898432439354 0.00697297970133295 -129.075837818826 0.00697297970133346 -129.075837818822 0.98232617640865 145.605615489555 
22.6                           0.98315623336465 141.891700933856 0.00671199270759972 -130.17637146662 0.00671199270760021 -130.176371466615 0.982545608166303 144.585599740867 
22.65                          0.983340625418393 140.897621409907 0.00646507466696286 -131.26158190197 0.00646507466696333 -131.261581901966 0.982751952374203 143.578618657048 
22.7                           0.98351381415784 139.915744076373 0.00623130640679166 -132.331965399401 0.0062313064067921 -132.331965399397 0.982945879801204 142.584198517226 
22.75                          0.983676365192434 138.945641451003 0.00600983893924507 -133.387997273097 0.00600983893924549 -133.387997273093 0.983128019180045 141.601889403618 
22.8                           0.983828809183847 137.986906975532 0.00579988737933433 -134.430133444572 0.00579988737933474 -134.430133444569 0.983298960286856 140.631263713225 
22.85                          0.983971644373596 137.039153732433 0.0056007254486913 -135.458811896538 0.00560072544869164 -135.458811896535 0.983459256759643 139.671914779248 
22.9                           0.984105338897972 136.102013254732 0.00541168050323802 -136.474454021753 0.00541168050323826 -136.474454021751 0.983609428680897 138.723455592938 
22.95                          0.984230332910715 135.175134421111 0.00523212903001264 -137.477465874781 0.0052321290300128 -137.47746587478 0.983749964946745 137.785517617479 
23                             0.984347040531672 134.25818242928  0.00506149256460134 -138.468239333834 0.00506149256460135 -138.468239333834 0.983881325442679 136.857749686301 
