! Touchstone file exported from HFSS 3D Layout Design 2026.1.0
!        File:           D:/Work/ADS/HFSS_VERDICT/hfss_sma_connector_cpw.aedt
!        Generated:      06:46:11 PM Aug  5, 2026
!        Design:         SINGLE_END_SMA_CPW_30MM
!        Project:        hfss_sma_connector_cpw
!
! Variables:
!        $sma_Base_D = 6.25mm
!        $sma_Base_L = 8mm
!        $sma_Feet_L = 4mm
!        $sma_Feet_W = 1mm
!        $sma_Front_L = 1.5mm
!        $sma_Front_W = 6.5mm
!        $sma_Hole_D = 1.25mm
!        $sma_PTFE_D = 4.2mm
!        $sma_Pin_D = 0.95mm
!        $sma_Pin_P = 1.7mm
!
# GHz S MA R 50.000000
! Terminal data exported
! Port[1] = Port1
! Port[2] = S1_1_Pin_T1
0.5                            0.0819105528029374 -138.323180605097 0.986346365576258 -42.3148077088105 0.986346365576258 -42.3148077088105 0.0824616312459482 -128.058426558245 
0.6                            0.0953796758925719 -148.068403823559 0.983548397489469 -50.6660550997977 0.983548397489472 -50.6660550997977 0.0958931247236496 -135.393719538767 
0.7                            0.107511783484952 -157.835068108196 0.980778110779276 -58.9938766204396 0.980778110779279 -58.9938766204397 0.10792553909106 -142.527744722978 
0.8                            0.118208828490476 -167.663709140641 0.978078867534642 -67.3004615974367 0.978078867534644 -67.3004615974368 0.118475306934465 -149.453890216384 
0.9                            0.127397826565327 -177.593143699303 0.975496897816486 -75.588336409439 0.975496897816487 -75.5883364094391 0.127488091513484 -156.159262148637 
1                              0.135033403536718 172.337121202582 0.97307325318262 -83.8605746798965 0.97307325318262 -83.8605746798966 0.134938801598581 -162.624105170663 
1.1                            0.141101031368523 162.084960236422 0.970838589908069 -92.1207291779419 0.970838589908069 -92.1207291779419 0.140834704897938 -168.821298793623 
1.2                            0.145620592630926 151.604056058118 0.968810299708812 -100.372663576676 0.968810299708811 -100.372663576676 0.145220268338501 -174.716198528047 
1.3                            0.148650400182096 140.842689582061 0.966991244315547 -108.620354734778 0.966991244315547 -108.620354734778 0.148182661249606 179.733122699363 
1.4                            0.150291931284023 129.74302130094  0.965369579723432 -116.86769176791 0.965369579723431 -116.86769176791 0.14985731578271 174.575069977828 
1.5                            0.150695423183882 118.241185023221 0.963919386428377 -125.118282056606 0.963919386428376 -125.118282056606 0.15043321076009 169.862732743362 
1.6                            0.150066138731209 106.268814670764 0.962601969909222 -133.375269860025 0.962601969909222 -133.375269860025 0.150157407823517 165.650335264083 
1.7                            0.148670470698775 93.7570185033127 0.961367769414472 -141.641173041008 0.961367769414472 -141.641173041008 0.149337688032602 161.986862039632 
1.8                            0.146839984631926 80.6441833218305 0.960158834119558 -149.91774442211 0.960158834119558 -149.91774442211 0.148340910044331 158.90579659044  
1.9                            0.144969954179889 66.8889590396494 0.958911811469662 -158.205865157601 0.958911811469661 -158.205865157601 0.147583249908791 156.410744282523 
2                              0.143507275391465 52.4885827489545 0.957561355800583 -166.505477648862 0.957561355800583 -166.505477648863 0.147507734768455 154.458966340971 
2.1                            0.142922125069308 37.4994636940354 0.956043816546945 -174.815564692696 0.956043816546946 -174.815564692696 0.148546155678511 152.948446489991 
2.2                            0.143660674873206 22.0519232777165 0.954301014623433 176.865820355243 0.954301014623432 176.865820355243 0.151068081628824 151.71698029031  
2.3                            0.146084372132866 6.34758821314706 0.952283873513002 168.541470539716 0.952283873513002 168.541470539716 0.155328197702565 150.559888319888 
2.4                            0.150412192619125 -9.36781406858868 0.949955648661403 160.214891238182 0.949955648661402 160.214891238182 0.161428997427624 149.264222766925 
2.5                            0.156687250943668 -24.8500319701605 0.947294503461404 151.890121032063 0.947294503461404 151.890121032063 0.169312438988766 147.646838465949 
2.6                            0.164780680201058 -39.9010846205835 0.944295216755765 143.571517477928 0.944295216755764 143.571517477928 0.178781852080152 145.580924119296 
2.7                            0.174428129570019 -54.3947370815159 0.940969873817566 135.263521036734 0.940969873817566 135.263521036734 0.189543017045348 143.003361911954 
2.8                            0.185281377635469 -68.2776088018733 0.937347482213377 126.970412502661 0.937347482213377 126.970412502661 0.201249261014088 139.906031107121 
2.9                            0.196957350308833 -81.5538391317065 0.933472552732125 118.696079803657 0.933472552732125 118.696079803657 0.213539575964477 136.319549094484 
3                              0.209074911795339 -94.2647289446235 0.929402778287402 110.443808943847 0.929402778287403 110.443808943847 0.226065509603502 132.296894280945 
3.1                            0.221277934616325 -106.47105247459 0.92520601626869 102.216111323125 0.92520601626869 102.216111323125 0.238507434528647 127.900695077725 
3.2                            0.233247419253196 -118.240770661874 0.920956822605823 94.0145961312036 0.920956822605822 94.0145961312036 0.250582810658363 123.194934143768 
3.3                            0.244706334252336 -129.64181151494 0.916732795539317 85.8398925300079 0.916732795539317 85.8398925300079 0.262049205269192 118.240316074251 
3.4                            0.255420182858047 -140.738511163989 0.912610966871884 77.6916224713045 0.912610966871882 77.6916224713045 0.272704251220872 113.092171689911 
3.5                            0.265195329009162 -151.590323928486 0.908664436287226 69.5684217028676 0.908664436287224 69.5684217028676 0.282384044486488 107.799917286106 
3.6                            0.273876336067585 -162.251779649913 0.904959390550137 61.4680040797931 0.904959390550136 61.4680040797932 0.290960933144528 102.407368249493 
3.7                            0.281343065004542 -172.773042174994 0.90155259434248 53.3872628086581 0.901552594342478 53.3872628086582 0.298341260592236 96.9534594445977 
3.8                            0.287507979557776 176.79930115471  0.898489391429441 45.3224016335735 0.89848939142944 45.3224016335736 0.304463365234828 91.4731074140403 
3.9                            0.292313933204741 166.421414789719 0.895802219051846 37.2690890294906 0.895802219051846 37.2690890294906 0.309295972277079 85.9980670594948 
4                              0.295732607636013 156.051451694402 0.893509616986407 29.2226289453259 0.893509616986406 29.222628945326  0.312837013731048 80.5577048690719 
4.1                            0.297763698700091 145.648898308905 0.891615704954035 21.1781422780422 0.891615704954035 21.178142278042  0.31511285966687 75.1796470451281 
4.2                            0.298434882608619 135.17405565446  0.890110105321869 13.1307538338541 0.890110105321869 13.130753833854  0.316177918039966 69.8902746190857 
4.3                            0.297802529415665 124.587685535214 0.8889682984033  5.07577987966232 0.888968298403301 5.07577987966209 0.31611454203717 64.7150355395217 
4.4                            0.295953052232089 113.850865925575 0.888152410535933 -2.9910885835972 0.888152410535934 -2.99108858359738 0.315033151235957 59.6785303889029 
4.5                            0.293004679526521 102.925125735935 0.887612445782977 -11.0736119936532 0.887612445782977 -11.0736119936533 0.313072404699002 54.804308283073  
4.6                            0.289109304330408 91.7729632989679 0.887287976105317 -19.1748435704181 0.887287976105317 -19.1748435704184 0.310399143605229 50.114289179154  
4.7                            0.284453890238659 80.3588891128002 0.887110298461674 -27.2969922212355 0.887110298461675 -27.2969922212357 0.307207643099341 45.6277193312207 
4.8                            0.279260699669585 68.6511580269944 0.88700504806598 -35.4413139613535 0.887005048065979 -35.4413139613537 0.303717495924717 41.3595855610541 
4.9                            0.273785374914896 56.6243426632653 0.886895224449811 -43.6080390066733 0.886895224449809 -43.6080390066736 0.300169250479837 37.3184848321482 
5                              0.268311707138864 44.2628060263097 0.886704543093423 -51.7963412789206 0.886704543093423 -51.7963412789207 0.296816850392933 33.5040905606604 
5.1                            0.263141895880178 31.5649062202789 0.886360975198217 -60.0043558095932 0.886360975198217 -60.0043558095933 0.293916124523088 29.9045790234183 
5.2                            0.258581424496977 18.5473819367018 0.885800289461527 -68.229247325868 0.885800289461525 -68.2292473258681 0.291709207220535 26.4946334896541 
5.3                            0.25491856594634 5.24888063765256 0.884969372109947 -76.4673301954556 0.884969372109945 -76.4673301954555 0.290405872624797 23.2348165349365 
5.4                            0.252400062965029 -8.26879000877799 0.883829084642887 -84.7142361356785 0.883829084642887 -84.7142361356784 0.290164141100193 20.0730301926196 
5.5                            0.251206404778198 -21.9230392399785 0.882356430148003 -92.9651220759422 0.882356430148004 -92.965122075942 0.291073648015242 16.9483523920243 
5.6                            0.251431565192327 -35.6170532114806 0.880545841505195 -101.214906849543 0.880545841505192 -101.214906849543 0.293145490328337 13.7968104674356 
5.7                            0.253072069931749 -49.2496800918039 0.878409475067488 -109.458522551661 0.878409475067488 -109.45852255166 0.296311169093931 10.5579272407433 
5.8                            0.256028311854418 -62.7264134976149 0.87597648222493 -117.691164906315 0.875976482224931 -117.691164906315 0.300431052244866 7.1805424935724  
5.9                            0.260117736656211 -75.9687559785838 0.873291325049914 -125.908527094958 0.873291325049912 -125.908527094957 0.305310359833135 3.62667608605118 
6                              0.265096399417996 -88.9199594170018 0.87041128617821 -134.107003195714 0.870411286178208 -134.107003195713 0.310719037385051 -0.127089658314156 
6.1                            0.270683844388392 -101.546586616711 0.867403384613047 -142.283850375931 0.867403384613041 -142.283850375931 0.31641158066831 -4.09045463980828 
6.2                            0.276586644668425 -113.836665989733 0.864340940665131 -150.437302781927 0.864340940665126 -150.437302781927 0.322143756739547 -8.26171676525565 
6.3                            0.28251757209022 -125.79585691803 0.861300033451135 -158.566634103985 0.861300033451129 -158.566634103985 0.327684631629814 -12.6306837213879 
6.4                            0.288209238521574 -137.442993613825 0.858356067774907 -166.6721695249  0.858356067774899 -166.6721695249  0.332823740102667 -17.1814721759643 
6.5                            0.293422465583094 -148.805948316223 0.855580622312694 -174.755250785195 0.855580622312687 -174.755250785195 0.33737424213609 -21.894767603049 
6.6                            0.297950400259807 -159.918276427185 0.85303869787676 177.181839797952 0.853038697876748 177.181839797951 0.341173411318663 -26.7493819848279 
6.7                            0.301619621225299 -170.816751790619 0.850786432487745 169.135989365667 0.850786432487739 169.135989365667 0.344081877353348 -31.723132709008 
6.8                            0.304289393127293 178.460296156009 0.848869306105491 161.103391283584 0.848869306105484 161.103391283584 0.34598284170997 -36.7931694465943 
6.9                            0.305850005514451 167.874006694963 0.847320826236398 153.079701593101 0.847320826236397 153.079701593101 0.34678212972878 -41.9359175321093 
7                              0.306220888943253 157.385541327463 0.846161667439864 145.060208730011 0.846161667439864 145.060208730011 0.346409522008708 -47.1268107675591 
7.1                            0.305348982657193 146.956307379992 0.845399231840661 137.040010830896 0.84539923184067 137.040010830897 0.344821378580049 -52.339971599337 
7.2                            0.303207649592885 136.547958380048 0.845027601363531 129.014195598874 0.84502760136355 129.014195598875 0.342004174328671 -57.5479721444222 
7.3                            0.29979629173489 126.122247945766 0.845027861889476 120.978018132729 0.845027861889505 120.978018132729 0.337978249793467 -62.7217795842148 
7.4                            0.295140702541517 115.640793373847 0.845368790913853 112.927072277541 0.845368790913897 112.927072277541 0.332800900647493 -67.8309554968981 
7.5                            0.289294093428389 105.064796063446 0.846007909683935 104.85745094259  0.846007909683991 104.857450942589 0.32656792873413 -72.8441426372814 
7.6                            0.282338639854549 94.3547700658187 0.846892904767697 96.7658905321285 0.846892904767764 96.7658905321277 0.319412975033936 -77.7298383274642 
7.7                            0.274387302738104 83.4703497916595 0.847963419887598 88.6498942814126 0.847963419887672 88.6498942814113 0.311504317335618 -82.4574265484404 
7.8                            0.265585586433607 72.3702864445172 0.849153205118068 80.5078290595925 0.849153205118148 80.5078290595906 0.303039254841835 -86.9984263269109 
7.9                            0.256112787559749 61.0128027830763 0.850392587211414 72.3389902853985 0.850392587211493 72.3389902853962 0.294236597303155 -91.3279141942179 
8                              0.246182159245064 49.3565557200662 0.851611193780358 64.1436301787407 0.851611193780436 64.1436301787381 0.285328014197477 -95.4260896174305 
8.1                            0.236039252794576 37.3625419086539 0.852740829227178 55.9229457656871 0.852740829227244 55.9229457656844 0.276549016435477 -99.2799637617201 
8.2                            0.225957506080393 24.9973321748127 0.853718367307839 47.6790248968418 0.853718367307895 47.6790248968391 0.268130148001998 -102.885147669123 
8.3                            0.2162299700459  12.2379520481426 0.85448850066475 39.4147509371003 0.854488500664788 39.414750937098  0.260288633570131 -106.247678583789 
8.4                            0.207156035924572 -0.921594609181495 0.855006177873872 31.1336695111254 0.85500617787389 31.1336695111242 0.253220375593642 -109.385741255911 
8.5                            0.199022408944   -14.4628655363946 0.855238568035931 22.8398234021527 0.855238568035931 22.8398234021528 0.247091940774316 -112.331018922041 
8.6                            0.192078712014776 -28.3363556906126 0.855166422978282 14.5375639984606 0.855166422978265 14.5375639984621 0.242032116291209 -115.129276496942 
8.7                            0.186510163598761 -42.4584967652723 0.854784754970637 6.23134917415003 0.854784754970607 6.231349174153   0.238122799917267 -117.839695746314 
8.8                            0.182412293813424 -56.7151566221024 0.854102806849825 -2.07446210797899 0.854102806849789 -2.07446210797475 0.235389407054059 -120.532523168478 
8.9                            0.179774273271847 -70.9728260041028 0.853143352241552 -10.3758089892329 0.853143352241518 -10.3758089892275 0.233791570153722 -123.284807838121 
9                              0.178476467190578 -85.0954587036178 0.851941416044249 -18.6691141435306 0.851941416044224 -18.6691141435252 0.233215579127882 -126.174382188235 
9.1                            0.178303876919049 -98.9620224089392 0.850542540777765 -26.9514506368185 0.850542540777751 -26.9514506368143 0.233470665622284 -129.272672476268 
9.2                            0.178972020544476 -112.479387196907 0.849000737198004 -35.2206885772056 0.849000737198001 -35.2206885772037 0.234291744778809 -132.637274870036 
9.3                            0.180158448674545 -125.58758023102 0.847376246099619 -43.475623005884 0.847376246099623 -43.4756230058863 0.235351353406062 -136.305395871162 
9.4                            0.181533055283512 -138.257829509117 0.845733204596653 -51.7160870323352 0.845733204596655 -51.7160870323424 0.236282812026806 -140.289219576942 
9.5                            0.182782805733719 -150.486058034784 0.844137259236832 -59.9430558552789 0.844137259236817 -59.9430558552917 0.236714548803543 -144.574068514153 
9.6                            0.183629475537484 -162.284857615135 0.84265310620582 -68.1587477683177 0.842653106205776 -68.1587477683353 0.236311936801023 -149.119880825337 
9.7                            0.183841021249298 -173.676117985874 0.841341871674601 -76.3667273688087 0.84134187167452 -76.3667273688297 0.234818907667088 -153.866002224325 
9.8                            0.183237964772859 175.314635888967 0.840258178154123 -84.5720138833902 0.840258178154012 -84.5720138834108 0.23208922042168 -158.738606787931 
9.9                            0.181696060220748 164.661984795211 0.839446679624472 -92.7811937206929 0.839446679624375 -92.7811937207073 0.228098781273347 -163.659398690678 
10                             0.179146067657922 154.342667242954 0.838937793110439 -101.002530937805 0.838937793110438 -101.002530937805 0.222936034361889 -168.553911583258 
