! markimicrowave.com
! Date: Sat Aug 29 2026 19:53:11 GMT+0800 (中国标准时间)
# Hz S DB R 50.00
!Frequency        S11 dB       S11 Deg       S21 dB      S21 Deg      S12 dB      S12 Deg      S22 dB       S22 Deg      
2962019109.42852    -0.00000    174.54352    -73.98012    84.54352    -73.98012    84.54352    -0.00000    174.54352
2967453985.71161    -0.00000    174.53330    -73.96359    84.53330    -73.96359    84.53330    -0.00000    174.53330
2972898834.20592    -0.00000    174.52306    -73.94707    84.52306    -73.94707    84.52306    -0.00000    174.52306
2978353673.20904    -0.00000    174.51280    -73.93054    84.51280    -73.93054    84.51280    -0.00000    174.51280
2983818521.05207    -0.00000    174.50253    -73.91400    84.50253    -73.91400    84.50253    -0.00000    174.50253
2989293396.09980    -0.00000    174.49223    -73.89747    84.49223    -73.89747    84.49223    -0.00000    174.49223
2994778316.75069    -0.00000    174.48191    -73.88093    84.48191    -73.88093    84.48191    -0.00000    174.48191
3000273301.43699    -0.00000    174.47157    -73.86439    84.47157    -73.86439    84.47157    -0.00000    174.47157
3005778368.62473    -0.00000    174.46121    -73.84785    84.46121    -73.84785    84.46121    -0.00000    174.46121
3011293536.81384    -0.00000    174.45083    -73.83131    84.45083    -73.83131    84.45083    -0.00000    174.45083
3016818824.53820    -0.00000    174.44043    -73.81476    84.44043    -73.81476    84.44043    -0.00000    174.44043
3022354250.36570    -0.00000    174.43001    -73.79821    84.43001    -73.79821    84.43001    -0.00000    174.43001
3027899832.89828    -0.00000    174.41957    -73.78166    84.41957    -73.78166    84.41957    -0.00000    174.41957
3033455590.77203    -0.00000    174.40911    -73.76510    84.40911    -73.76510    84.40911    -0.00000    174.40911
3039021542.65722    -0.00000    174.39863    -73.74855    84.39863    -73.74855    84.39863    -0.00000    174.39863
3044597707.25839    -0.00000    174.38813    -73.73199    84.38813    -73.73199    84.38813    -0.00000    174.38813
3050184103.31439    -0.00000    174.37761    -73.71543    84.37761    -73.71543    84.37761    -0.00000    174.37761
3055780749.59848    -0.00000    174.36707    -73.69886    84.36707    -73.69886    84.36707    -0.00000    174.36707
3061387664.91832    -0.00000    174.35650    -73.68230    84.35650    -73.68230    84.35650    -0.00000    174.35650
3067004868.11611    -0.00000    174.34592    -73.66573    84.34592    -73.66573    84.34592    -0.00000    174.34592
3072632378.06863    -0.00000    174.33532    -73.64915    84.33532    -73.64915    84.33532    -0.00000    174.33532
3078270213.68726    -0.00000    174.32469    -73.63258    84.32469    -73.63258    84.32469    -0.00000    174.32469
3083918393.91813    -0.00000    174.31405    -73.61600    84.31405    -73.61600    84.31405    -0.00000    174.31405
3089576937.74208    -0.00000    174.30338    -73.59942    84.30338    -73.59942    84.30338    -0.00000    174.30338
3095245864.17482    -0.00000    174.29269    -73.58284    84.29269    -73.58284    84.29269    -0.00000    174.29269
3100925192.26693    -0.00000    174.28198    -73.56626    84.28198    -73.56626    84.28198    -0.00000    174.28198
3106614941.10394    -0.00000    174.27125    -73.54967    84.27125    -73.54967    84.27125    -0.00000    174.27125
3112315129.80643    -0.00000    174.26050    -73.53308    84.26050    -73.53308    84.26050    -0.00000    174.26050
3118025777.53002    -0.00000    174.24973    -73.51649    84.24973    -73.51649    84.24973    -0.00000    174.24973
3123746903.46551    -0.00000    174.23894    -73.49989    84.23894    -73.49989    84.23894    -0.00000    174.23894
3129478526.83889    -0.00000    174.22812    -73.48329    84.22812    -73.48329    84.22812    -0.00000    174.22812
3135220666.91146    -0.00000    174.21729    -73.46669    84.21729    -73.46669    84.21729    -0.00000    174.21729
3140973342.97983    -0.00000    174.20643    -73.45009    84.20643    -73.45009    84.20643    -0.00000    174.20643
3146736574.37602    -0.00000    174.19555    -73.43348    84.19555    -73.43348    84.19555    -0.00000    174.19555
3152510380.46754    -0.00000    174.18465    -73.41687    84.18465    -73.41687    84.18465    -0.00000    174.18465
3158294780.65741    -0.00000    174.17373    -73.40026    84.17373    -73.40026    84.17373    -0.00000    174.17373
3164089794.38430    -0.00000    174.16279    -73.38365    84.16279    -73.38365    84.16279    -0.00000    174.16279
3169895441.12247    -0.00000    174.15182    -73.36703    84.15182    -73.36703    84.15182    -0.00000    174.15182
3175711740.38198    -0.00000    174.14084    -73.35041    84.14084    -73.35041    84.14084    -0.00000    174.14084
3181538711.70866    -0.00000    174.12983    -73.33379    84.12983    -73.33379    84.12983    -0.00000    174.12983
3187376374.68422    -0.00000    174.11880    -73.31717    84.11880    -73.31717    84.11880    -0.00000    174.11880
3193224748.92628    -0.00000    174.10775    -73.30054    84.10775    -73.30054    84.10775    -0.00000    174.10775
3199083854.08845    -0.00000    174.09668    -73.28391    84.09668    -73.28391    84.09668    -0.00000    174.09668
3204953709.86044    -0.00000    174.08559    -73.26727    84.08559    -73.26727    84.08559    -0.00000    174.08559
3210834335.96804    -0.00000    174.07447    -73.25064    84.07447    -73.25064    84.07447    -0.00000    174.07447
3216725752.17326    -0.00000    174.06333    -73.23400    84.06333    -73.23400    84.06333    -0.00000    174.06333
3222627978.27439    -0.00000    174.05217    -73.21736    84.05217    -73.21736    84.05217    -0.00000    174.05217
3228541034.10600    -0.00000    174.04099    -73.20071    84.04099    -73.20071    84.04099    -0.00000    174.04099
3234464939.53909    -0.00000    174.02979    -73.18406    84.02979    -73.18406    84.02979    -0.00000    174.02979
3240399714.48109    -0.00000    174.01856    -73.16741    84.01856    -73.16741    84.01856    -0.00000    174.01856
3246345378.87600    -0.00000    174.00731    -73.15076    84.00731    -73.15076    84.00731    -0.00000    174.00731
3252301952.70438    -0.00000    173.99604    -73.13410    83.99604    -73.13410    83.99604    -0.00000    173.99604
3258269455.98346    -0.00000    173.98475    -73.11744    83.98475    -73.11744    83.98475    -0.00000    173.98475
3264247908.76719    -0.00000    173.97343    -73.10078    83.97343    -73.10078    83.97343    -0.00000    173.97343
3270237331.14634    -0.00000    173.96210    -73.08412    83.96210    -73.08412    83.96210    -0.00000    173.96210
3276237743.24854    -0.00000    173.95074    -73.06745    83.95074    -73.06745    83.95074    -0.00000    173.95074
3282249165.23831    -0.00000    173.93936    -73.05078    83.93936    -73.05078    83.93936    -0.00000    173.93936
3288271617.31722    -0.00000    173.92795    -73.03410    83.92795    -73.03410    83.92795    -0.00000    173.92795
3294305119.72388    -0.00000    173.91652    -73.01743    83.91652    -73.01743    83.91652    -0.00000    173.91652
3300349692.73404    -0.00000    173.90507    -73.00075    83.90507    -73.00075    83.90507    -0.00000    173.90507
3306405356.66068    -0.00000    173.89360    -72.98406    83.89360    -72.98406    83.89360    -0.00000    173.89360
3312472131.85399    -0.00000    173.88211    -72.96738    83.88211    -72.96738    83.88211    -0.00000    173.88211
3318550038.70155    -0.00000    173.87059    -72.95069    83.87059    -72.95069    83.87059    -0.00000    173.87059
3324639097.62834    -0.00000    173.85905    -72.93400    83.85905    -72.93400    83.85905    -0.00000    173.85905
3330739329.09680    -0.00000    173.84748    -72.91730    83.84748    -72.91730    83.84748    -0.00000    173.84748
3336850753.60695    -0.00000    173.83590    -72.90060    83.83590    -72.90060    83.83590    -0.00000    173.83590
3342973391.69637    -0.00000    173.82429    -72.88390    83.82429    -72.88390    83.82429    -0.00000    173.82429
3349107263.94038    -0.00000    173.81266    -72.86720    83.81266    -72.86720    83.81266    -0.00000    173.81266
3355252390.95200    -0.00000    173.80100    -72.85049    83.80100    -72.85049    83.80100    -0.00000    173.80100
3361408793.38213    -0.00000    173.78932    -72.83378    83.78932    -72.83378    83.78932    -0.00000    173.78932
3367576491.91952    -0.00000    173.77762    -72.81706    83.77762    -72.81706    83.77762    -0.00000    173.77762
3373755507.29088    -0.00000    173.76589    -72.80035    83.76589    -72.80035    83.76589    -0.00000    173.76589
3379945860.26097    -0.00000    173.75415    -72.78363    83.75415    -72.78363    83.75415    -0.00000    173.75415
3386147571.63264    -0.00000    173.74237    -72.76690    83.74237    -72.76690    83.74237    -0.00000    173.74237
3392360662.24694    -0.00000    173.73058    -72.75017    83.73058    -72.75017    83.73058    -0.00000    173.73058
3398585152.98308    -0.00000    173.71876    -72.73345    83.71876    -72.73345    83.71876    -0.00000    173.71876
3404821064.75867    -0.00000    173.70692    -72.71671    83.70692    -72.71671    83.70692    -0.00000    173.70692
3411068418.52966    -0.00000    173.69505    -72.69998    83.69505    -72.69998    83.69505    -0.00000    173.69505
3417327235.29044    -0.00000    173.68316    -72.68324    83.68316    -72.68324    83.68316    -0.00000    173.68316
3423597536.07397    -0.00000    173.67125    -72.66649    83.67125    -72.66649    83.67125    -0.00000    173.67125
3429879341.95173    -0.00000    173.65931    -72.64975    83.65931    -72.64975    83.65931    -0.00000    173.65931
3436172674.03392    -0.00000    173.64735    -72.63300    83.64735    -72.63300    83.64735    -0.00000    173.64735
3442477553.46946    -0.00000    173.63537    -72.61624    83.63537    -72.61624    83.63537    -0.00000    173.63537
3448794001.44606    -0.00000    173.62336    -72.59949    83.62336    -72.59949    83.62336    -0.00000    173.62336
3455122039.19034    -0.00000    173.61133    -72.58273    83.61133    -72.58273    83.61133    -0.00000    173.61133
3461461687.96783    -0.00000    173.59927    -72.56597    83.59927    -72.56597    83.59927    -0.00000    173.59927
3467812969.08309    -0.00000    173.58719    -72.54920    83.58719    -72.54920    83.58719    -0.00000    173.58719
3474175903.87978    -0.00000    173.57509    -72.53243    83.57509    -72.53243    83.57509    -0.00000    173.57509
3480550513.74073    -0.00000    173.56296    -72.51566    83.56296    -72.51566    83.56296    -0.00000    173.56296
3486936820.08799    -0.00000    173.55081    -72.49888    83.55081    -72.49888    83.55081    -0.00000    173.55081
3493334844.38291    -0.00000    173.53863    -72.48210    83.53863    -72.48210    83.53863    -0.00000    173.53863
3499744608.12622    -0.00000    173.52643    -72.46532    83.52643    -72.46532    83.52643    -0.00000    173.52643
3506166132.85813    -0.00000    173.51420    -72.44853    83.51420    -72.44853    83.51420    -0.00000    173.51420
3512599440.15833    -0.00000    173.50195    -72.43174    83.50195    -72.43174    83.50195    -0.00000    173.50195
3519044551.64616    -0.00000    173.48968    -72.41495    83.48968    -72.41495    83.48968    -0.00000    173.48968
3525501488.98056    -0.00000    173.47738    -72.39815    83.47738    -72.39815    83.47738    -0.00000    173.47738
3531970273.86026    -0.00000    173.46506    -72.38135    83.46506    -72.38135    83.46506    -0.00000    173.46506
3538450928.02379    -0.00000    173.45271    -72.36454    83.45271    -72.36454    83.45271    -0.00000    173.45271
3544943473.24959    -0.00000    173.44034    -72.34773    83.44034    -72.34773    83.44034    -0.00000    173.44034
3551447931.35599    -0.00000    173.42794    -72.33092    83.42794    -72.33092    83.42794    -0.00000    173.42794
3557964324.20144    -0.00000    173.41552    -72.31411    83.41552    -72.31411    83.41552    -0.00000    173.41552
3564492673.68444    -0.00000    173.40307    -72.29729    83.40307    -72.29729    83.40307    -0.00000    173.40307
3571033001.74369    -0.00000    173.39060    -72.28047    83.39060    -72.28047    83.39060    -0.00000    173.39060
3577585330.35817    -0.00000    173.37810    -72.26364    83.37810    -72.26364    83.37810    -0.00000    173.37810
3584149681.54713    -0.00000    173.36558    -72.24681    83.36558    -72.24681    83.36558    -0.00000    173.36558
3590726077.37026    -0.00000    173.35303    -72.22998    83.35303    -72.22998    83.35303    -0.00000    173.35303
3597314539.92773    -0.00000    173.34045    -72.21314    83.34045    -72.21314    83.34045    -0.00000    173.34045
3603915091.36024    -0.00000    173.32786    -72.19630    83.32786    -72.19630    83.32786    -0.00000    173.32786
3610527753.84914    -0.00000    173.31523    -72.17946    83.31523    -72.17946    83.31523    -0.00000    173.31523
3617152549.61645    -0.00000    173.30258    -72.16261    83.30258    -72.16261    83.30258    -0.00000    173.30258
3623789500.92498    -0.00000    173.28991    -72.14576    83.28991    -72.14576    83.28991    -0.00000    173.28991
3630438630.07840    -0.00000    173.27721    -72.12890    83.27721    -72.12890    83.27721    -0.00000    173.27721
3637099959.42128    -0.00000    173.26448    -72.11204    83.26448    -72.11204    83.26448    -0.00000    173.26448
3643773511.33923    -0.00000    173.25173    -72.09518    83.25173    -72.09518    83.25173    -0.00000    173.25173
3650459308.25887    -0.00000    173.23896    -72.07831    83.23896    -72.07831    83.23896    -0.00000    173.23896
3657157372.64801    -0.00000    173.22615    -72.06144    83.22615    -72.06144    83.22615    -0.00000    173.22615
3663867727.01570    -0.00000    173.21333    -72.04457    83.21333    -72.04457    83.21333    -0.00000    173.21333
3670590393.91227    -0.00000    173.20047    -72.02769    83.20047    -72.02769    83.20047    -0.00000    173.20047
3677325395.92941    -0.00000    173.18759    -72.01080    83.18759    -72.01080    83.18759    -0.00000    173.18759
3684072755.70029    -0.00000    173.17469    -71.99392    83.17469    -71.99392    83.17469    -0.00000    173.17469
3690832495.89960    -0.00000    173.16175    -71.97703    83.16175    -71.97703    83.16175    -0.00000    173.16175
3697604639.24364    -0.00000    173.14880    -71.96013    83.14880    -71.96013    83.14880    -0.00000    173.14880
3704389208.49038    -0.00000    173.13581    -71.94323    83.13581    -71.94323    83.13581    -0.00000    173.13581
3711186226.43955    -0.00000    173.12280    -71.92633    83.12280    -71.92633    83.12280    -0.00000    173.12280
3717995715.93271    -0.00000    173.10977    -71.90943    83.10977    -71.90943    83.10977    -0.00000    173.10977
3724817699.85335    -0.00000    173.09670    -71.89252    83.09670    -71.89252    83.09670    -0.00000    173.09670
3731652201.12693    -0.00000    173.08361    -71.87560    83.08361    -71.87560    83.08361    -0.00000    173.08361
3738499242.72100    -0.00000    173.07050    -71.85868    83.07050    -71.85868    83.07050    -0.00000    173.07050
3745358847.64520    -0.00000    173.05735    -71.84176    83.05735    -71.84176    83.05735    -0.00000    173.05735
3752231038.95143    -0.00000    173.04419    -71.82484    83.04419    -71.82484    83.04419    -0.00000    173.04419
3759115839.73390    -0.00000    173.03099    -71.80790    83.03099    -71.80790    83.03099    -0.00000    173.03099
3766013273.12915    -0.00000    173.01777    -71.79097    83.01777    -71.79097    83.01777    -0.00000    173.01777
3772923362.31622    -0.00000    173.00452    -71.77403    83.00452    -71.77403    83.00452    -0.00000    173.00452
3779846130.51663    -0.00000    172.99124    -71.75709    82.99124    -71.75709    82.99124    -0.00000    172.99124
3786781600.99455    -0.00000    172.97794    -71.74014    82.97794    -71.74014    82.97794    -0.00000    172.97794
3793729797.05682    -0.00000    172.96461    -71.72319    82.96461    -71.72319    82.96461    -0.00000    172.96461
3800690742.05304    -0.00000    172.95125    -71.70624    82.95125    -71.70624    82.95125    -0.00000    172.95125
3807664459.37566    -0.00000    172.93787    -71.68928    82.93787    -71.68928    82.93787    -0.00000    172.93787
3814650972.46004    -0.00000    172.92446    -71.67231    82.92446    -71.67231    82.92446    -0.00000    172.92446
3821650304.78457    -0.00000    172.91102    -71.65534    82.91102    -71.65534    82.91102    -0.00000    172.91102
3828662479.87068    -0.00000    172.89755    -71.63837    82.89755    -71.63837    82.89755    -0.00000    172.89755
3835687521.28301    -0.00000    172.88406    -71.62139    82.88406    -71.62139    82.88406    -0.00000    172.88406
3842725452.62937    -0.00000    172.87054    -71.60441    82.87054    -71.60441    82.87054    -0.00000    172.87054
3849776297.56094    -0.00000    172.85699    -71.58743    82.85699    -71.58743    82.85699    -0.00000    172.85699
3856840079.77227    -0.00000    172.84341    -71.57044    82.84341    -71.57044    82.84341    -0.00000    172.84341
3863916823.00140    -0.00000    172.82981    -71.55344    82.82981    -71.55344    82.82981    -0.00000    172.82981
3871006551.02995    -0.00000    172.81618    -71.53645    82.81618    -71.53645    82.81618    -0.00000    172.81618
3878109287.68310    -0.00000    172.80252    -71.51944    82.80252    -71.51944    82.80252    -0.00000    172.80252
3885225056.82981    -0.00000    172.78883    -71.50244    82.78883    -71.50244    82.78883    -0.00000    172.78883
3892353882.38283    -0.00000    172.77512    -71.48542    82.77512    -71.48542    82.77512    -0.00000    172.77512
3899495788.29877    -0.00000    172.76137    -71.46841    82.76137    -71.46841    82.76137    -0.00000    172.76137
3906650798.57822    -0.00000    172.74760    -71.45139    82.74760    -71.45139    82.74760    -0.00000    172.74760
3913818937.26575    -0.00000    172.73380    -71.43436    82.73380    -71.43436    82.73380    -0.00000    172.73380
3921000228.45011    -0.00000    172.71998    -71.41733    82.71998    -71.41733    82.71998    -0.00000    172.71998
3928194696.26423    -0.00000    172.70612    -71.40030    82.70612    -71.40030    82.70612    -0.00000    172.70612
3935402364.88531    -0.00000    172.69224    -71.38326    82.69224    -71.38326    82.69224    -0.00000    172.69224
3942623258.53495    -0.00000    172.67833    -71.36621    82.67833    -71.36621    82.67833    -0.00000    172.67833
3949857401.47911    -0.00000    172.66439    -71.34917    82.66439    -71.34917    82.66439    -0.00000    172.66439
3957104818.02837    -0.00000    172.65042    -71.33211    82.65042    -71.33211    82.65042    -0.00000    172.65042
3964365532.53785    -0.00000    172.63642    -71.31505    82.63642    -71.31505    82.63642    -0.00000    172.63642
3971639569.40741    -0.00000    172.62239    -71.29799    82.62239    -71.29799    82.62239    -0.00000    172.62239
3978926953.08162    -0.00000    172.60834    -71.28093    82.60834    -71.28093    82.60834    -0.00000    172.60834
3986227708.04995    -0.00000    172.59425    -71.26385    82.59425    -71.26385    82.59425    -0.00000    172.59425
3993541858.84679    -0.00000    172.58014    -71.24678    82.58014    -71.24678    82.58014    -0.00000    172.58014
4000869430.05154    -0.00000    172.56600    -71.22970    82.56600    -71.22970    82.56600    -0.00000    172.56600
4008210446.28872    -0.00000    172.55183    -71.21261    82.55183    -71.21261    82.55183    -0.00000    172.55183
4015564932.22800    -0.00000    172.53763    -71.19552    82.53763    -71.19552    82.53763    -0.00000    172.53763
4022932912.58434    -0.00000    172.52340    -71.17842    82.52340    -71.17842    82.52340    -0.00000    172.52340
4030314412.11804    -0.00000    172.50914    -71.16132    82.50914    -71.16132    82.50914    -0.00000    172.50914
4037709455.63483    -0.00000    172.49485    -71.14422    82.49485    -71.14422    82.49485    -0.00000    172.49485
4045118067.98599    -0.00000    172.48053    -71.12711    82.48053    -71.12711    82.48053    -0.00000    172.48053
4052540274.06833    -0.00000    172.46619    -71.10999    82.46619    -71.10999    82.46619    -0.00000    172.46619
4059976098.82438    -0.00000    172.45181    -71.09287    82.45181    -71.09287    82.45181    -0.00000    172.45181
4067425567.24245    -0.00000    172.43740    -71.07575    82.43740    -71.07575    82.43740    -0.00000    172.43740
4074888704.35668    -0.00000    172.42297    -71.05862    82.42297    -71.05862    82.42297    -0.00000    172.42297
4082365535.24716    -0.00000    172.40850    -71.04148    82.40850    -71.04148    82.40850    -0.00000    172.40850
4089856085.03997    -0.00000    172.39401    -71.02434    82.39401    -71.02434    82.39401    -0.00000    172.39401
4097360378.90731    -0.00000    172.37948    -71.00719    82.37948    -71.00719    82.37948    -0.00000    172.37948
4104878442.06757    -0.00000    172.36493    -70.99004    82.36493    -70.99004    82.36493    -0.00000    172.36493
4112410299.78543    -0.00000    172.35034    -70.97289    82.35034    -70.97289    82.35034    -0.00000    172.35034
4119955977.37187    -0.00000    172.33573    -70.95573    82.33573    -70.95573    82.33573    -0.00000    172.33573
4127515500.18437    -0.00000    172.32108    -70.93856    82.32108    -70.93856    82.32108    -0.00000    172.32108
4135088893.62692    -0.00000    172.30641    -70.92139    82.30641    -70.92139    82.30641    -0.00000    172.30641
4142676183.15010    -0.00000    172.29170    -70.90421    82.29170    -70.90421    82.29170    -0.00000    172.29170
4150277394.25123    -0.00000    172.27696    -70.88703    82.27696    -70.88703    82.27696    -0.00000    172.27696
4157892552.47437    -0.00000    172.26220    -70.86985    82.26220    -70.86985    82.26220    -0.00000    172.26220
4165521683.41048    -0.00000    172.24740    -70.85265    82.24740    -70.85265    82.24740    -0.00000    172.24740
4173164812.69745    -0.00000    172.23257    -70.83546    82.23257    -70.83546    82.23257    -0.00000    172.23257
4180821966.02025    -0.00000    172.21771    -70.81825    82.21771    -70.81825    82.21771    -0.00000    172.21771
4188493169.11096    -0.00000    172.20282    -70.80105    82.20282    -70.80105    82.20282    -0.00000    172.20282
4196178447.74884    -0.00000    172.18790    -70.78383    82.18790    -70.78383    82.18790    -0.00000    172.18790
4203877827.76049    -0.00000    172.17295    -70.76661    82.17295    -70.76661    82.17295    -0.00000    172.17295
4211591335.01990    -0.00000    172.15796    -70.74939    82.15796    -70.74939    82.15796    -0.00000    172.15796
4219318995.44853    -0.00000    172.14295    -70.73216    82.14295    -70.73216    82.14295    -0.00000    172.14295
4227060835.01540    -0.00000    172.12790    -70.71492    82.12790    -70.71492    82.12790    -0.00000    172.12790
4234816879.73714    -0.00000    172.11283    -70.69768    82.11283    -70.69768    82.11283    -0.00000    172.11283
4242587155.67819    -0.00000    172.09772    -70.68044    82.09772    -70.68044    82.09772    -0.00000    172.09772
4250371688.95076    -0.00000    172.08258    -70.66319    82.08258    -70.66319    82.08258    -0.00000    172.08258
4258170505.71499    -0.00000    172.06741    -70.64593    82.06741    -70.64593    82.06741    -0.00000    172.06741
4265983632.17904    -0.00000    172.05220    -70.62867    82.05220    -70.62867    82.05220    -0.00000    172.05220
4273811094.59911    -0.00000    172.03697    -70.61140    82.03697    -70.61140    82.03697    -0.00000    172.03697
4281652919.27961    -0.00000    172.02170    -70.59412    82.02170    -70.59412    82.02170    -0.00000    172.02170
4289509132.57322    -0.00000    172.00640    -70.57684    82.00640    -70.57684    82.00640    -0.00000    172.00640
4297379760.88097    -0.00000    171.99107    -70.55956    81.99107    -70.55956    81.99107    -0.00000    171.99107
4305264830.65229    -0.00000    171.97571    -70.54227    81.97571    -70.54227    81.97571    -0.00000    171.97571
4313164368.38520    -0.00000    171.96032    -70.52497    81.96032    -70.52497    81.96032    -0.00000    171.96032
4321078400.62631    -0.00000    171.94489    -70.50766    81.94489    -70.50766    81.94489    -0.00000    171.94489
4329006953.97094    -0.00000    171.92943    -70.49036    81.92943    -70.49036    81.92943    -0.00000    171.92943
4336950055.06324    -0.00000    171.91394    -70.47304    81.91394    -70.47304    81.91394    -0.00000    171.91394
4344907730.59618    -0.00000    171.89841    -70.45572    81.89841    -70.45572    81.89841    -0.00000    171.89841
4352880007.31177    -0.00000    171.88286    -70.43839    81.88286    -70.43839    81.88286    -0.00000    171.88286
4360866912.00106    -0.00000    171.86727    -70.42106    81.86727    -70.42106    81.86727    -0.00000    171.86727
4368868471.50427    -0.00000    171.85165    -70.40372    81.85165    -70.40372    81.85165    -0.00000    171.85165
4376884712.71088    -0.00000    171.83599    -70.38638    81.83599    -70.38638    81.83599    -0.00000    171.83599
4384915662.55965    -0.00000    171.82030    -70.36903    81.82030    -70.36903    81.82030    -0.00000    171.82030
4392961348.03883    -0.00000    171.80458    -70.35167    81.80458    -70.35167    81.80458    -0.00000    171.80458
4401021796.18617    -0.00000    171.78883    -70.33431    81.78883    -70.33431    81.78883    -0.00000    171.78883
4409097034.08903    -0.00000    171.77304    -70.31694    81.77304    -70.31694    81.77304    -0.00000    171.77304
4417187088.88448    -0.00000    171.75722    -70.29956    81.75722    -70.29956    81.75722    -0.00000    171.75722
4425291987.75935    -0.00000    171.74137    -70.28218    81.74137    -70.28218    81.74137    -0.00000    171.74137
4433411757.95038    -0.00000    171.72548    -70.26480    81.72548    -70.26480    81.72548    -0.00000    171.72548
4441546426.74430    -0.00000    171.70956    -70.24740    81.70956    -70.24740    81.70956    -0.00000    171.70956
4449696021.47789    -0.00000    171.69361    -70.23000    81.69361    -70.23000    81.69361    -0.00000    171.69361
4457860569.53806    -0.00000    171.67762    -70.21260    81.67762    -70.21260    81.67762    -0.00000    171.67762
4466040098.36203    -0.00000    171.66160    -70.19518    81.66160    -70.19518    81.66160    -0.00000    171.66160
4474234635.43731    -0.00000    171.64554    -70.17777    81.64554    -70.17777    81.64554    -0.00000    171.64554
4482444208.30188    -0.00000    171.62946    -70.16034    81.62946    -70.16034    81.62946    -0.00000    171.62946
4490668844.54426    -0.00000    171.61333    -70.14291    81.61333    -70.14291    81.61333    -0.00000    171.61333
4498908571.80352    -0.00000    171.59717    -70.12547    81.59717    -70.12547    81.59717    -0.00000    171.59717
4507163417.76952    -0.00000    171.58098    -70.10803    81.58098    -70.10803    81.58098    -0.00000    171.58098
4515433410.18289    -0.00000    171.56476    -70.09058    81.56476    -70.09058    81.56476    -0.00000    171.56476
4523718576.83518    -0.00000    171.54850    -70.07312    81.54850    -70.07312    81.54850    -0.00000    171.54850
4532018945.56892    -0.00000    171.53220    -70.05565    81.53220    -70.05565    81.53220    -0.00000    171.53220
4540334544.27772    -0.00000    171.51587    -70.03818    81.51587    -70.03818    81.51587    -0.00000    171.51587
4548665400.90637    -0.00000    171.49951    -70.02071    81.49951    -70.02071    81.49951    -0.00000    171.49951
4557011543.45096    -0.00000    171.48311    -70.00322    81.48311    -70.00322    81.48311    -0.00000    171.48311
4565372999.95893    -0.00000    171.46667    -69.98573    81.46667    -69.98573    81.46667    -0.00000    171.46667
4573749798.52920    -0.00000    171.45021    -69.96823    81.45021    -69.96823    81.45021    -0.00000    171.45021
4582141967.31221    -0.00000    171.43370    -69.95073    81.43370    -69.95073    81.43370    -0.00000    171.43370
4590549534.51007    -0.00000    171.41716    -69.93322    81.41716    -69.93322    81.41716    -0.00000    171.41716
4598972528.37667    -0.00000    171.40059    -69.91570    81.40059    -69.91570    81.40059    -0.00000    171.40059
4607410977.21771    -0.00000    171.38398    -69.89818    81.38398    -69.89818    81.38398    -0.00000    171.38398
4615864909.39080    -0.00000    171.36733    -69.88064    81.36733    -69.88064    81.36733    -0.00000    171.36733
4624334353.30564    -0.00000    171.35065    -69.86311    81.35065    -69.86311    81.35065    -0.00000    171.35065
4632819337.42403    -0.00000    171.33394    -69.84556    81.33394    -69.84556    81.33394    -0.00000    171.33394
4641319890.25998    -0.00000    171.31718    -69.82801    81.31718    -69.82801    81.31718    -0.00000    171.31718
4649836040.37986    -0.00000    171.30040    -69.81045    81.30040    -69.81045    81.30040    -0.00000    171.30040
4658367816.40240    -0.00000    171.28357    -69.79288    81.28357    -69.79288    81.28357    -0.00000    171.28357
4666915246.99887    -0.00000    171.26671    -69.77531    81.26671    -69.77531    81.26671    -0.00000    171.26671
4675478360.89316    -0.00000    171.24982    -69.75773    81.24982    -69.75773    81.24982    -0.00000    171.24982
4684057186.86185    -0.00000    171.23288    -69.74014    81.23288    -69.74014    81.23288    -0.00000    171.23288
4692651753.73433    -0.00000    171.21592    -69.72254    81.21592    -69.72254    81.21592    -0.00000    171.21592
4701262090.39285    -0.00000    171.19891    -69.70494    81.19891    -69.70494    81.19891    -0.00000    171.19891
4709888225.77271    -0.00000    171.18187    -69.68733    81.18187    -69.68733    81.18187    -0.00000    171.18187
4718530188.86227    -0.00000    171.16479    -69.66971    81.16479    -69.66971    81.16479    -0.00000    171.16479
4727188008.70309    -0.00000    171.14768    -69.65209    81.14768    -69.65209    81.14768    -0.00000    171.14768
4735861714.39002    -0.00000    171.13053    -69.63446    81.13053    -69.63446    81.13053    -0.00000    171.13053
4744551335.07126    -0.00000    171.11334    -69.61682    81.11334    -69.61682    81.11334    -0.00000    171.11334
4753256899.94854    -0.00000    171.09611    -69.59917    81.09611    -69.59917    81.09611    -0.00000    171.09611
4761978438.27715    -0.00000    171.07885    -69.58152    81.07885    -69.58152    81.07885    -0.00000    171.07885
4770715979.36608    -0.00000    171.06155    -69.56386    81.06155    -69.56386    81.06155    -0.00000    171.06155
4779469552.57804    -0.00000    171.04421    -69.54619    81.04421    -69.54619    81.04421    -0.00000    171.04421
4788239187.32967    -0.00000    171.02684    -69.52851    81.02684    -69.52851    81.02684    -0.00000    171.02684
4797024913.09158    -0.00000    171.00942    -69.51083    81.00942    -69.51083    81.00942    -0.00000    171.00942
4805826759.38844    -0.00000    170.99197    -69.49313    80.99197    -69.49313    80.99197    -0.00000    170.99197
4814644755.79911    -0.00000    170.97449    -69.47543    80.97449    -69.47543    80.97449    -0.00000    170.97449
4823478931.95669    -0.00000    170.95696    -69.45773    80.95696    -69.45773    80.95696    -0.00000    170.95696
4832329317.54867    -0.00000    170.93940    -69.44001    80.93940    -69.44001    80.93940    -0.00000    170.93940
4841195942.31703    -0.00000    170.92179    -69.42229    80.92179    -69.42229    80.92179    -0.00000    170.92179
4850078836.05831    -0.00000    170.90415    -69.40456    80.90415    -69.40456    80.90415    -0.00000    170.90415
4858978028.62372    -0.00000    170.88648    -69.38682    80.88648    -69.38682    80.88648    -0.00000    170.88648
4867893549.91923    -0.00000    170.86876    -69.36907    80.86876    -69.36907    80.86876    -0.00000    170.86876
4876825429.90571    -0.00000    170.85100    -69.35131    80.85100    -69.35131    80.85100    -0.00000    170.85100
4885773698.59897    -0.00000    170.83321    -69.33355    80.83321    -69.33355    80.83321    -0.00000    170.83321
4894738386.06994    -0.00000    170.81538    -69.31578    80.81538    -69.31578    80.81538    -0.00000    170.81538
4903719522.44470    -0.00000    170.79751    -69.29800    80.79751    -69.29800    80.79751    -0.00000    170.79751
4912717137.90458    -0.00000    170.77960    -69.28021    80.77960    -69.28021    80.77960    -0.00000    170.77960
4921731262.68633    -0.00000    170.76165    -69.26242    80.76165    -69.26242    80.76165    -0.00000    170.76165
4930761927.08217    -0.00000    170.74366    -69.24461    80.74366    -69.24461    80.74366    -0.00000    170.74366
4939809161.43989    -0.00000    170.72563    -69.22680    80.72563    -69.22680    80.72563    -0.00000    170.72563
4948872996.16300    -0.00000    170.70756    -69.20898    80.70756    -69.20898    80.70756    -0.00000    170.70756
4957953461.71072    -0.00000    170.68946    -69.19115    80.68946    -69.19115    80.68946    -0.00000    170.68946
4967050588.59823    -0.00000    170.67131    -69.17331    80.67131    -69.17331    80.67131    -0.00000    170.67131
4976164407.39668    -0.00000    170.65312    -69.15547    80.65312    -69.15547    80.65312    -0.00000    170.65312
4985294948.73333    -0.00000    170.63490    -69.13761    80.63490    -69.13761    80.63490    -0.00000    170.63490
4994442243.29156    -0.00000    170.61663    -69.11975    80.61663    -69.11975    80.61663    -0.00000    170.61663
5003606321.81115    -0.00000    170.59832    -69.10188    80.59832    -69.10188    80.59832    -0.00000    170.59832
5012787215.08823    -0.00000    170.57998    -69.08400    80.57998    -69.08400    80.57998    -0.00000    170.57998
5021984953.97544    -0.00000    170.56159    -69.06611    80.56159    -69.06611    80.56159    -0.00000    170.56159
5031199569.38206    -0.00000    170.54316    -69.04821    80.54316    -69.04821    80.54316    -0.00000    170.54316
5040431092.27402    -0.00000    170.52470    -69.03031    80.52470    -69.03031    80.52470    -0.00000    170.52470
5049679553.67413    -0.00000    170.50619    -69.01239    80.50619    -69.01239    80.50619    -0.00000    170.50619
5058944984.66210    -0.00000    170.48764    -68.99447    80.48764    -68.99447    80.48764    -0.00000    170.48764
5068227416.37467    -0.00000    170.46905    -68.97653    80.46905    -68.97653    80.46905    -0.00000    170.46905
5077526880.00572    -0.00000    170.45042    -68.95859    80.45042    -68.95859    80.45042    -0.00000    170.45042
5086843406.80632    -0.00000    170.43175    -68.94064    80.43175    -68.94064    80.43175    -0.00000    170.43175
5096177028.08494    -0.00000    170.41303    -68.92268    80.41303    -68.92268    80.41303    -0.00000    170.41303
5105527775.20747    -0.00000    170.39428    -68.90471    80.39428    -68.90471    80.39428    -0.00000    170.39428
5114895679.59735    -0.00000    170.37548    -68.88673    80.37548    -68.88673    80.37548    -0.00000    170.37548
5124280772.73570    -0.00000    170.35664    -68.86875    80.35664    -68.86875    80.35664    -0.00000    170.35664
5133683086.16135    -0.00000    170.33776    -68.85075    80.33776    -68.85075    80.33776    -0.00000    170.33776
5143102651.47106    -0.00000    170.31884    -68.83274    80.31884    -68.83274    80.31884    -0.00000    170.31884
5152539500.31954    -0.00000    170.29988    -68.81473    80.29988    -68.81473    80.29988    -0.00000    170.29988
5161993664.41959    -0.00000    170.28087    -68.79670    80.28087    -68.79670    80.28087    -0.00000    170.28087
5171465175.54215    -0.00000    170.26182    -68.77867    80.26182    -68.77867    80.26182    -0.00000    170.26182
5180954065.51653    -0.00000    170.24273    -68.76063    80.24273    -68.76063    80.24273    -0.00000    170.24273
5190460366.23040    -0.00000    170.22360    -68.74257    80.22360    -68.74257    80.22360    -0.00000    170.22360
5199984109.62994    -0.00000    170.20443    -68.72451    80.20443    -68.72451    80.20443    -0.00000    170.20443
5209525327.71998    -0.00000    170.18521    -68.70644    80.18521    -68.70644    80.18521    -0.00000    170.18521
5219084052.56400    -0.00000    170.16595    -68.68836    80.16595    -68.68836    80.16595    -0.00000    170.16595
5228660316.28440    -0.00000    170.14664    -68.67027    80.14664    -68.67027    80.14664    -0.00000    170.14664
5238254151.06245    -0.00000    170.12729    -68.65216    80.12729    -68.65216    80.12729    -0.00000    170.12729
5247865589.13852    -0.00000    170.10790    -68.63405    80.10790    -68.63405    80.10790    -0.00000    170.10790
5257494662.81212    -0.00000    170.08847    -68.61593    80.08847    -68.61593    80.08847    -0.00000    170.08847
5267141404.44198    -0.00000    170.06899    -68.59780    80.06899    -68.59780    80.06899    -0.00000    170.06899
5276805846.44627    -0.00000    170.04947    -68.57966    80.04947    -68.57966    80.04947    -0.00000    170.04947
5286488021.30262    -0.00000    170.02990    -68.56151    80.02990    -68.56151    80.02990    -0.00000    170.02990
5296187961.54823    -0.00000    170.01030    -68.54335    80.01030    -68.54335    80.01030    -0.00000    170.01030
5305905699.78004    -0.00000    169.99064    -68.52518    79.99064    -68.52518    79.99064    -0.00000    169.99064
5315641268.65475    -0.00000    169.97095    -68.50700    79.97095    -68.50700    79.97095    -0.00000    169.97095
5325394700.88901    -0.00000    169.95120    -68.48880    79.95120    -68.48880    79.95120    -0.00000    169.95120
5335166029.25952    -0.00000    169.93142    -68.47060    79.93142    -68.47060    79.93142    -0.00000    169.93142
5344955286.60309    -0.00000    169.91159    -68.45239    79.91159    -68.45239    79.91159    -0.00000    169.91159
5354762505.81681    -0.00000    169.89171    -68.43417    79.89171    -68.43417    79.89171    -0.00000    169.89171
5364587719.85806    -0.00000    169.87179    -68.41593    79.87179    -68.41593    79.87179    -0.00000    169.87179
5374430961.74479    -0.00000    169.85183    -68.39769    79.85183    -68.39769    79.85183    -0.00000    169.85183
5384292264.55546    -0.00000    169.83182    -68.37944    79.83182    -68.37944    79.83182    -0.00000    169.83182
5394171661.42929    -0.00000    169.81176    -68.36117    79.81176    -68.36117    79.81176    -0.00000    169.81176
5404069185.56622    -0.00000    169.79166    -68.34289    79.79166    -68.34289    79.79166    -0.00000    169.79166
5413984870.22717    -0.00000    169.77151    -68.32461    79.77151    -68.32461    79.77151    -0.00000    169.77151
5423918748.73408    -0.00000    169.75132    -68.30631    79.75132    -68.30631    79.75132    -0.00000    169.75132
5433870854.47001    -0.00000    169.73108    -68.28800    79.73108    -68.28800    79.73108    -0.00000    169.73108
5443841220.87932    -0.00000    169.71080    -68.26968    79.71080    -68.26968    79.71080    -0.00000    169.71080
5453829881.46766    -0.00000    169.69047    -68.25135    79.69047    -68.25135    79.69047    -0.00000    169.69047
5463836869.80222    -0.00000    169.67009    -68.23301    79.67009    -68.23301    79.67009    -0.00000    169.67009
5473862219.51176    -0.00000    169.64966    -68.21466    79.64966    -68.21466    79.64966    -0.00000    169.64966
5483905964.28674    -0.00000    169.62919    -68.19630    79.62919    -68.19630    79.62919    -0.00000    169.62919
5493968137.87947    -0.00000    169.60868    -68.17792    79.60868    -68.17792    79.60868    -0.00000    169.60868
5504048774.10411    -0.00000    169.58811    -68.15954    79.58811    -68.15954    79.58811    -0.00000    169.58811
5514147906.83696    -0.00000    169.56750    -68.14114    79.56750    -68.14114    79.56750    -0.00000    169.56750
5524265570.01641    -0.00000    169.54685    -68.12273    79.54685    -68.12273    79.54685    -0.00000    169.54685
5534401797.64317    -0.00000    169.52614    -68.10431    79.52614    -68.10431    79.52614    -0.00000    169.52614
5544556623.78032    -0.00000    169.50539    -68.08588    79.50539    -68.08588    79.50539    -0.00000    169.50539
5554730082.55339    -0.00000    169.48459    -68.06744    79.48459    -68.06744    79.48459    -0.00000    169.48459
5564922208.15060    -0.00000    169.46374    -68.04898    79.46374    -68.04898    79.46374    -0.00000    169.46374
5575133034.82286    -0.00000    169.44285    -68.03051    79.44285    -68.03051    79.44285    -0.00000    169.44285
5585362596.88397    -0.00000    169.42190    -68.01204    79.42190    -68.01204    79.42190    -0.00000    169.42190
5595610928.71060    -0.00000    169.40091    -67.99355    79.40091    -67.99355    79.40091    -0.00000    169.40091
5605878064.74259    -0.00000    169.37987    -67.97504    79.37987    -67.97504    79.37987    -0.00000    169.37987
5616164039.48291    -0.00000    169.35878    -67.95653    79.35878    -67.95653    79.35878    -0.00000    169.35878
5626468887.49789    -0.00000    169.33764    -67.93800    79.33764    -67.93800    79.33764    -0.00000    169.33764
5636792643.41726    -0.00000    169.31646    -67.91946    79.31646    -67.91946    79.31646    -0.00000    169.31646
5647135341.93426    -0.00000    169.29522    -67.90091    79.29522    -67.90091    79.29522    -0.00000    169.29522
5657497017.80582    -0.00000    169.27394    -67.88235    79.27394    -67.88235    79.27394    -0.00000    169.27394
5667877705.85265    -0.00000    169.25260    -67.86378    79.25260    -67.86378    79.25260    -0.00000    169.25260
5678277440.95933    -0.00000    169.23122    -67.84519    79.23122    -67.84519    79.23122    -0.00000    169.23122
5688696258.07448    -0.00000    169.20978    -67.82659    79.20978    -67.82659    79.20978    -0.00000    169.20978
5699134192.21079    -0.00000    169.18830    -67.80798    79.18830    -67.80798    79.18830    -0.00000    169.18830
5709591278.44524    -0.00000    169.16677    -67.78935    79.16677    -67.78935    79.16677    -0.00000    169.16677
5720067551.91916    -0.00000    169.14519    -67.77071    79.14519    -67.77071    79.14519    -0.00000    169.14519
5730563047.83836    -0.00000    169.12355    -67.75206    79.12355    -67.75206    79.12355    -0.00000    169.12355
5741077801.47326    -0.00000    169.10187    -67.73340    79.10187    -67.73340    79.10187    -0.00000    169.10187
5751611848.15893    -0.00000    169.08013    -67.71472    79.08013    -67.71472    79.08013    -0.00000    169.08013
5762165223.29537    -0.00000    169.05835    -67.69603    79.05835    -67.69603    79.05835    -0.00000    169.05835
5772737962.34747    -0.00000    169.03651    -67.67733    79.03651    -67.67733    79.03651    -0.00000    169.03651
5783330100.84522    -0.00000    169.01462    -67.65862    79.01462    -67.65862    79.01462    -0.00000    169.01462
5793941674.38381    -0.00000    168.99269    -67.63989    78.99269    -67.63989    78.99269    -0.00000    168.99269
5804572718.62369    -0.00000    168.97070    -67.62115    78.97070    -67.62115    78.97070    -0.00000    168.97070
5815223269.29080    -0.00000    168.94865    -67.60239    78.94865    -67.60239    78.94865    -0.00000    168.94865
5825893362.17661    -0.00000    168.92656    -67.58362    78.92656    -67.58362    78.92656    -0.00000    168.92656
5836583033.13827    -0.00000    168.90441    -67.56484    78.90441    -67.56484    78.90441    -0.00000    168.90441
5847292318.09869    -0.00000    168.88222    -67.54605    78.88222    -67.54605    78.88222    -0.00000    168.88222
5858021253.04673    -0.00000    168.85997    -67.52724    78.85997    -67.52724    78.85997    -0.00000    168.85997
5868769874.03728    -0.00000    168.83766    -67.50841    78.83766    -67.50841    78.83766    -0.00000    168.83766
5879538217.19138    -0.00000    168.81531    -67.48958    78.81531    -67.48958    78.81531    -0.00000    168.81531
5890326318.69635    -0.00000    168.79290    -67.47073    78.79290    -67.47073    78.79290    -0.00000    168.79290
5901134214.80588    -0.00000    168.77044    -67.45186    78.77044    -67.45186    78.77044    -0.00000    168.77044
5911961941.84021    -0.00000    168.74793    -67.43298    78.74793    -67.43298    78.74793    -0.00000    168.74793
5922809536.18623    -0.00000    168.72536    -67.41409    78.72536    -67.41409    78.72536    -0.00000    168.72536
5933677034.29757    -0.00000    168.70274    -67.39518    78.70274    -67.39518    78.70274    -0.00000    168.70274
5944564472.69478    -0.00000    168.68006    -67.37626    78.68006    -67.37626    78.68006    -0.00000    168.68006
5955471887.96536    -0.00000    168.65733    -67.35733    78.65733    -67.35733    78.65733    -0.00000    168.65733
5966399316.76401    -0.00000    168.63455    -67.33838    78.63455    -67.33838    78.63455    -0.00000    168.63455
5977346795.81264    -0.00000    168.61171    -67.31941    78.61171    -67.31941    78.61171    -0.00000    168.61171
5988314361.90059    -0.00000    168.58882    -67.30044    78.58882    -67.30044    78.58882    -0.00000    168.58882
5999302051.88462    -0.00000    168.56587    -67.28144    78.56587    -67.28144    78.56587    -0.00000    168.56587
6010309902.68919    -0.00000    168.54287    -67.26243    78.54287    -67.26243    78.54287    -0.00000    168.54287
6021337951.30648    -0.00000    168.51982    -67.24341    78.51982    -67.24341    78.51982    -0.00000    168.51982
6032386234.79657    -0.00000    168.49670    -67.22437    78.49670    -67.22437    78.49670    -0.00000    168.49670
6043454790.28753    -0.00000    168.47354    -67.20532    78.47354    -67.20532    78.47354    -0.00000    168.47354
6054543654.97550    -0.00000    168.45031    -67.18625    78.45031    -67.18625    78.45031    -0.00000    168.45031
6065652866.12495    -0.00000    168.42704    -67.16717    78.42704    -67.16717    78.42704    -0.00000    168.42704
6076782461.06869    -0.00000    168.40370    -67.14807    78.40370    -67.14807    78.40370    -0.00000    168.40370
6087932477.20802    -0.00000    168.38031    -67.12895    78.38031    -67.12895    78.38031    -0.00000    168.38031
6099102952.01292    -0.00000    168.35686    -67.10982    78.35686    -67.10982    78.35686    -0.00000    168.35686
6110293923.02202    -0.00000    168.33336    -67.09068    78.33336    -67.09068    78.33336    -0.00000    168.33336
6121505427.84291    -0.00000    168.30980    -67.07152    78.30980    -67.07152    78.30980    -0.00000    168.30980
6132737504.15217    -0.00000    168.28618    -67.05234    78.28618    -67.05234    78.28618    -0.00000    168.28618
6143990189.69549    -0.00000    168.26250    -67.03315    78.26250    -67.03315    78.26250    -0.00000    168.26250
6155263522.28787    -0.00000    168.23877    -67.01394    78.23877    -67.01394    78.23877    -0.00000    168.23877
6166557539.81361    -0.00000    168.21498    -66.99472    78.21498    -66.99472    78.21498    -0.00000    168.21498
6177872280.22657    -0.00000    168.19113    -66.97548    78.19113    -66.97548    78.19113    -0.00000    168.19113
6189207781.55027    -0.00000    168.16723    -66.95622    78.16723    -66.95622    78.16723    -0.00000    168.16723
6200564081.87797    -0.00000    168.14326    -66.93695    78.14326    -66.93695    78.14326    -0.00000    168.14326
6211941219.37285    -0.00000    168.11924    -66.91766    78.11924    -66.91766    78.11924    -0.00000    168.11924
6223339232.26806    -0.00000    168.09516    -66.89835    78.09516    -66.89835    78.09516    -0.00000    168.09516
6234758158.86695    -0.00000    168.07102    -66.87903    78.07102    -66.87903    78.07102    -0.00000    168.07102
6246198037.54314    -0.00000    168.04682    -66.85969    78.04682    -66.85969    78.04682    -0.00000    168.04682
6257658906.74068    -0.00000    168.02256    -66.84033    78.02256    -66.84033    78.02256    -0.00000    168.02256
6269140804.97410    -0.00000    167.99825    -66.82096    77.99825    -66.82096    77.99825    -0.00000    167.99825
6280643770.82865    -0.00000    167.97387    -66.80157    77.97387    -66.80157    77.97387    -0.00000    167.97387
6292167842.96038    -0.00000    167.94943    -66.78216    77.94943    -66.78216    77.94943    -0.00000    167.94943
6303713060.09624    -0.00000    167.92493    -66.76274    77.92493    -66.76274    77.92493    -0.00000    167.92493
6315279461.03428    -0.00000    167.90038    -66.74330    77.90038    -66.74330    77.90038    -0.00000    167.90038
6326867084.64366    -0.00000    167.87576    -66.72384    77.87576    -66.72384    77.87576    -0.00000    167.87576
6338475969.86493    -0.00000    167.85108    -66.70436    77.85108    -66.70436    77.85108    -0.00000    167.85108
6350106155.71008    -0.00000    167.82634    -66.68487    77.82634    -66.68487    77.82634    -0.00000    167.82634
6361757681.26267    -0.00000    167.80154    -66.66536    77.80154    -66.66536    77.80154    -0.00000    167.80154
6373430585.67800    -0.00000    167.77667    -66.64583    77.77667    -66.64583    77.77667    -0.00000    167.77667
6385124908.18312    -0.00000    167.75175    -66.62628    77.75175    -66.62628    77.75175    -0.00000    167.75175
6396840688.07718    -0.00000    167.72676    -66.60671    77.72676    -66.60671    77.72676    -0.00000    167.72676
6408577964.73135    -0.00000    167.70171    -66.58713    77.70171    -66.58713    77.70171    -0.00000    167.70171
6420336777.58910    -0.00000    167.67660    -66.56753    77.67660    -66.56753    77.67660    -0.00000    167.67660
6432117166.16626    -0.00000    167.65143    -66.54791    77.65143    -66.54791    77.65143    -0.00000    167.65143
6443919170.05110    -0.00000    167.62619    -66.52827    77.62619    -66.52827    77.62619    -0.00000    167.62619
6455742828.90460    -0.00000    167.60089    -66.50861    77.60089    -66.50861    77.60089    -0.00000    167.60089
6467588182.46051    -0.00000    167.57553    -66.48893    77.57553    -66.48893    77.57553    -0.00000    167.57553
6479455270.52548    -0.00000    167.55010    -66.46924    77.55010    -66.46924    77.55010    -0.00000    167.55010
6491344132.97914    -0.00000    167.52461    -66.44952    77.52461    -66.44952    77.52461    -0.00000    167.52461
6503254809.77437    -0.00000    167.49906    -66.42979    77.49906    -66.42979    77.49906    -0.00000    167.49906
6515187340.93732    -0.00000    167.47344    -66.41004    77.47344    -66.41004    77.47344    -0.00000    167.47344
6527141766.56760    -0.00000    167.44775    -66.39026    77.44775    -66.39026    77.44775    -0.00000    167.44775
6539118126.83842    -0.00000    167.42201    -66.37047    77.42201    -66.37047    77.42201    -0.00000    167.42201
6551116461.99660    -0.00000    167.39619    -66.35066    77.39619    -66.35066    77.39619    -0.00000    167.39619
6563136812.36292    -0.00000    167.37032    -66.33083    77.37032    -66.33083    77.37032    -0.00000    167.37032
6575179218.33208    -0.00000    167.34437    -66.31098    77.34437    -66.31098    77.34437    -0.00000    167.34437
6587243720.37295    -0.00000    167.31836    -66.29111    77.31836    -66.29111    77.31836    -0.00000    167.31836
6599330359.02861    -0.00000    167.29229    -66.27122    77.29229    -66.27122    77.29229    -0.00000    167.29229
6611439174.91653    -0.00000    167.26614    -66.25131    77.26614    -66.25131    77.26614    -0.00000    167.26614
6623570208.72872    -0.00000    167.23994    -66.23138    77.23994    -66.23138    77.23994    -0.00000    167.23994
6635723501.23186    -0.00000    167.21366    -66.21143    77.21366    -66.21143    77.21366    -0.00000    167.21366
6647899093.26744    -0.00000    167.18732    -66.19145    77.18732    -66.19145    77.18732    -0.00000    167.18732
6660097025.75188    -0.00000    167.16091    -66.17146    77.16091    -66.17146    77.16091    -0.00000    167.16091
6672317339.67663    -0.00000    167.13443    -66.15145    77.13443    -66.15145    77.13443    -0.00000    167.13443
6684560076.10842    -0.00000    167.10789    -66.13141    77.10789    -66.13141    77.10789    -0.00000    167.10789
6696825276.18929    -0.00000    167.08127    -66.11136    77.08127    -66.11136    77.08127    -0.00000    167.08127
6709112981.13681    -0.00000    167.05459    -66.09128    77.05459    -66.09128    77.05459    -0.00000    167.05459
6721423232.24415    -0.00000    167.02784    -66.07118    77.02784    -66.07118    77.02784    -0.00000    167.02784
6733756070.88021    -0.00000    167.00102    -66.05106    77.00102    -66.05106    77.00102    -0.00000    167.00102
6746111538.48987    -0.00000    166.97414    -66.03092    76.97414    -66.03092    76.97414    -0.00000    166.97414
6758489676.59401    -0.00000    166.94718    -66.01076    76.94718    -66.01076    76.94718    -0.00000    166.94718
6770890526.78973    -0.00000    166.92015    -65.99057    76.92015    -65.99057    76.92015    -0.00000    166.92015
6783314130.75039    -0.00000    166.89306    -65.97037    76.89306    -65.97037    76.89306    -0.00000    166.89306
6795760530.22587    -0.00000    166.86589    -65.95014    76.86589    -65.95014    76.86589    -0.00000    166.86589
6808229767.04264    -0.00000    166.83865    -65.92988    76.83865    -65.92988    76.83865    -0.00000    166.83865
6820721883.10393    -0.00000    166.81134    -65.90961    76.81134    -65.90961    76.81134    -0.00000    166.81134
6833236920.38984    -0.00000    166.78396    -65.88931    76.78396    -65.88931    76.78396    -0.00000    166.78396
6845774920.95747    -0.00000    166.75651    -65.86899    76.75651    -65.86899    76.75651    -0.00000    166.75651
6858335926.94114    -0.00000    166.72899    -65.84865    76.72899    -65.84865    76.72899    -0.00000    166.72899
6870919980.55246    -0.00000    166.70139    -65.82828    76.70139    -65.82828    76.70139    -0.00000    166.70139
6883527124.08048    -0.00000    166.67373    -65.80790    76.67373    -65.80790    76.67373    -0.00000    166.67373
6896157399.89188    -0.00000    166.64599    -65.78748    76.64599    -65.78748    76.64599    -0.00000    166.64599
6908810850.43101    -0.00000    166.61817    -65.76705    76.61817    -65.76705    76.61817    -0.00000    166.61817
6921487518.22017    -0.00000    166.59029    -65.74659    76.59029    -65.74659    76.59029    -0.00000    166.59029
6934187445.85964    -0.00000    166.56233    -65.72610    76.56233    -65.72610    76.56233    -0.00000    166.56233
6946910676.02788    -0.00000    166.53430    -65.70560    76.53430    -65.70560    76.53430    -0.00000    166.53430
6959657251.48169    -0.00000    166.50619    -65.68507    76.50619    -65.68507    76.50619    -0.00000    166.50619
6972427215.05623    -0.00000    166.47801    -65.66451    76.47801    -65.66451    76.47801    -0.00000    166.47801
6985220609.66535    -0.00000    166.44975    -65.64393    76.44975    -65.64393    76.44975    -0.00000    166.44975
6998037478.30160    -0.00000    166.42142    -65.62332    76.42142    -65.62332    76.42142    -0.00000    166.42142
7010877864.03645    -0.00000    166.39301    -65.60269    76.39301    -65.60269    76.39301    -0.00000    166.39301
7023741810.02032    -0.00000    166.36453    -65.58204    76.36453    -65.58204    76.36453    -0.00000    166.36453
7036629359.48288    -0.00000    166.33597    -65.56136    76.33597    -65.56136    76.33597    -0.00000    166.33597
7049540555.73310    -0.00000    166.30734    -65.54065    76.30734    -65.54065    76.30734    -0.00000    166.30734
7062475442.15942    -0.00000    166.27863    -65.51992    76.27863    -65.51992    76.27863    -0.00000    166.27863
7075434062.22989    -0.00000    166.24984    -65.49917    76.24984    -65.49917    76.24984    -0.00000    166.24984
7088416459.49227    -0.00000    166.22098    -65.47839    76.22098    -65.47839    76.22098    -0.00000    166.22098
7101422677.57430    -0.00000    166.19204    -65.45758    76.19204    -65.45758    76.19204    -0.00000    166.19204
7114452760.18371    -0.00000    166.16302    -65.43674    76.16302    -65.43674    76.16302    -0.00000    166.16302
7127506751.10849    -0.00000    166.13392    -65.41588    76.13392    -65.41588    76.13392    -0.00000    166.13392
7140584694.21693    -0.00000    166.10474    -65.39499    76.10474    -65.39499    76.10474    -0.00000    166.10474
7153686633.45778    -0.00000    166.07548    -65.37408    76.07548    -65.37408    76.07548    -0.00000    166.07548
7166812612.86050    -0.00000    166.04615    -65.35314    76.04615    -65.35314    76.04615    -0.00000    166.04615
7179962676.53531    -0.00000    166.01674    -65.33217    76.01674    -65.33217    76.01674    -0.00000    166.01674
7193136868.67335    -0.00000    165.98724    -65.31118    75.98724    -65.31118    75.98724    -0.00000    165.98724
7206335233.54689    -0.00000    165.95767    -65.29015    75.95767    -65.29015    75.95767    -0.00000    165.95767
7219557815.50935    -0.00000    165.92801    -65.26910    75.92801    -65.26910    75.92801    -0.00000    165.92801
7232804658.99561    -0.00000    165.89828    -65.24803    75.89828    -65.24803    75.89828    -0.00000    165.89828
7246075808.52204    -0.00000    165.86846    -65.22692    75.86846    -65.22692    75.86846    -0.00000    165.86846
7259371308.68672    -0.00000    165.83856    -65.20579    75.83856    -65.20579    75.83856    -0.00000    165.83856
7272691204.16957    -0.00000    165.80858    -65.18462    75.80858    -65.18462    75.80858    -0.00000    165.80858
7286035539.73242    -0.00000    165.77852    -65.16343    75.77852    -65.16343    75.77852    -0.00000    165.77852
7299404360.21929    -0.00000    165.74837    -65.14221    75.74837    -65.14221    75.74837    -0.00000    165.74837
7312797710.55648    -0.00000    165.71814    -65.12096    75.71814    -65.12096    75.71814    -0.00000    165.71814
7326215635.75274    -0.00000    165.68783    -65.09968    75.68783    -65.09968    75.68783    -0.00000    165.68783
7339658180.89932    -0.00000    165.65743    -65.07838    75.65743    -65.07838    75.65743    -0.00000    165.65743
7353125391.17031    -0.00000    165.62695    -65.05704    75.62695    -65.05704    75.62695    -0.00000    165.62695
7366617311.82262    -0.00000    165.59639    -65.03567    75.59639    -65.03567    75.59639    -0.00000    165.59639
7380133988.19624    -0.00000    165.56574    -65.01427    75.56574    -65.01427    75.56574    -0.00000    165.56574
7393675465.71435    -0.00000    165.53500    -64.99285    75.53500    -64.99285    75.53500    -0.00000    165.53500
7407241789.88341    -0.00000    165.50418    -64.97139    75.50418    -64.97139    75.50418    -0.00000    165.50418
7420833006.29346    -0.00000    165.47328    -64.94990    75.47328    -64.94990    75.47328    -0.00000    165.47328
7434449160.61815    -0.00000    165.44228    -64.92838    75.44228    -64.92838    75.44228    -0.00000    165.44228
7448090298.61495    -0.00000    165.41120    -64.90683    75.41120    -64.90683    75.41120    -0.00000    165.41120
7461756466.12530    -0.00000    165.38004    -64.88525    75.38004    -64.88525    75.38004    -0.00000    165.38004
7475447709.07469    -0.00000    165.34878    -64.86364    75.34878    -64.86364    75.34878    -0.00000    165.34878
7489164073.47295    -0.00000    165.31744    -64.84199    75.31744    -64.84199    75.31744    -0.00000    165.31744
7502905605.41429    -0.00000    165.28601    -64.82032    75.28601    -64.82032    75.28601    -0.00000    165.28601
7516672351.07752    -0.00000    165.25449    -64.79861    75.25449    -64.79861    75.25449    -0.00000    165.25449
7530464356.72618    -0.00000    165.22288    -64.77687    75.22288    -64.77687    75.22288    -0.00000    165.22288
7544281668.70866    -0.00000    165.19118    -64.75509    75.19118    -64.75509    75.19118    -0.00000    165.19118
7558124333.45842    -0.00000    165.15939    -64.73328    75.15939    -64.73328    75.15939    -0.00000    165.15939
7571992397.49412    -0.00000    165.12751    -64.71144    75.12751    -64.71144    75.12751    -0.00000    165.12751
7585885907.41982    -0.00000    165.09554    -64.68957    75.09554    -64.68957    75.09554    -0.00000    165.09554
7599804909.92497    -0.00000    165.06347    -64.66766    75.06347    -64.66766    75.06347    -0.00000    165.06347
7613749451.78481    -0.00000    165.03132    -64.64572    75.03132    -64.64572    75.03132    -0.00000    165.03132
7627719579.86034    -0.00000    164.99907    -64.62375    74.99907    -64.62375    74.99907    -0.00000    164.99907
7641715341.09857    -0.00000    164.96674    -64.60174    74.96674    -64.60174    74.96674    -0.00000    164.96674
7655736782.53266    -0.00000    164.93430    -64.57969    74.93430    -64.57969    74.93430    -0.00000    164.93430
7669783951.28202    -0.00000    164.90178    -64.55761    74.90178    -64.55761    74.90178    -0.00000    164.90178
7683856894.55256    -0.00000    164.86916    -64.53550    74.86916    -64.53550    74.86916    -0.00000    164.86916
7697955659.63679    -0.00000    164.83645    -64.51335    74.83645    -64.51335    74.83645    -0.00000    164.83645
7712080293.91401    -0.00000    164.80364    -64.49117    74.80364    -64.49117    74.80364    -0.00000    164.80364
7726230844.85048    -0.00000    164.77073    -64.46895    74.77073    -64.46895    74.77073    -0.00000    164.77073
7740407359.99945    -0.00000    164.73773    -64.44669    74.73773    -64.44669    74.73773    -0.00000    164.73773
7754609887.00152    -0.00000    164.70464    -64.42440    74.70464    -64.42440    74.70464    -0.00000    164.70464
7768838473.58467    -0.00000    164.67144    -64.40207    74.67144    -64.40207    74.67144    -0.00000    164.67144
7783093167.56447    -0.00000    164.63815    -64.37970    74.63815    -64.37970    74.63815    -0.00000    164.63815
7797374016.84424    -0.00000    164.60477    -64.35729    74.60477    -64.35729    74.60477    -0.00000    164.60477
7811681069.41511    -0.00000    164.57128    -64.33485    74.57128    -64.33485    74.57128    -0.00000    164.57128
7826014373.35636    -0.00000    164.53770    -64.31237    74.53770    -64.31237    74.53770    -0.00000    164.53770
7840373976.83544    -0.00000    164.50401    -64.28985    74.50401    -64.28985    74.50401    -0.00000    164.50401
7854759928.10821    -0.00000    164.47023    -64.26730    74.47023    -64.26730    74.47023    -0.00000    164.47023
7869172275.51908    -0.00000    164.43635    -64.24470    74.43635    -64.24470    74.43635    -0.00000    164.43635
7883611067.50108    -0.00000    164.40237    -64.22207    74.40237    -64.22207    74.40237    -0.00000    164.40237
7898076352.57621    -0.00000    164.36828    -64.19940    74.36828    -64.19940    74.36828    -0.00000    164.36828
7912568179.35545    -0.00000    164.33410    -64.17668    74.33410    -64.17668    74.33410    -0.00000    164.33410
7927086596.53902    -0.00000    164.29981    -64.15393    74.29981    -64.15393    74.29981    -0.00000    164.29981
7941631652.91640    -0.00000    164.26542    -64.13114    74.26542    -64.13114    74.26542    -0.00000    164.26542
7956203397.36668    -0.00000    164.23092    -64.10831    74.23092    -64.10831    74.23092    -0.00000    164.23092
7970801878.85863    -0.00000    164.19633    -64.08543    74.19633    -64.08543    74.19633    -0.00000    164.19633
7985427146.45083    -0.00000    164.16162    -64.06252    74.16162    -64.06252    74.16162    -0.00000    164.16162
8000079249.29193    -0.00000    164.12682    -64.03956    74.12682    -64.03956    74.12682    -0.00000    164.12682
8014758236.62068    -0.00000    164.09191    -64.01657    74.09191    -64.01657    74.09191    -0.00000    164.09191
8029464157.76624    -0.00000    164.05689    -63.99353    74.05689    -63.99353    74.05689    -0.00000    164.05689
8044197062.14827    -0.00000    164.02177    -63.97044    74.02177    -63.97044    74.02177    -0.00000    164.02177
8058956999.27710    -0.00000    163.98654    -63.94732    73.98654    -63.94732    73.98654    -0.00000    163.98654
8073744018.75394    -0.00000    163.95120    -63.92415    73.95120    -63.92415    73.95120    -0.00000    163.95120
8088558170.27091    -0.00000    163.91575    -63.90094    73.91575    -63.90094    73.91575    -0.00000    163.91575
8103399503.61142    -0.00000    163.88020    -63.87769    73.88020    -63.87769    73.88020    -0.00000    163.88020
8118268068.65017    -0.00000    163.84454    -63.85439    73.84454    -63.85439    73.84454    -0.00000    163.84454
8133163915.35343    -0.00000    163.80876    -63.83104    73.80876    -63.83104    73.80876    -0.00000    163.80876
8148087093.77902    -0.00000    163.77288    -63.80766    73.77288    -63.80766    73.77288    -0.00000    163.77288
8163037654.07674    -0.00000    163.73689    -63.78422    73.73689    -63.78422    73.73689    -0.00000    163.73689
8178015646.48837    -0.00000    163.70078    -63.76075    73.70078    -63.76075    73.70078    -0.00000    163.70078
8193021121.34784    -0.00000    163.66457    -63.73722    73.66457    -63.73722    73.66457    -0.00000    163.66457
8208054129.08152    -0.00000    163.62824    -63.71365    73.62824    -63.71365    73.62824    -0.00000    163.62824
8223114720.20818    -0.00000    163.59180    -63.69004    73.59180    -63.69004    73.59180    -0.00000    163.59180
8238202945.33938    -0.00000    163.55524    -63.66637    73.55524    -63.66637    73.55524    -0.00000    163.55524
8253318855.17952    -0.00000    163.51857    -63.64266    73.51857    -63.64266    73.51857    -0.00000    163.51857
8268462500.52604    -0.00000    163.48179    -63.61890    73.48179    -63.61890    73.48179    -0.00000    163.48179
8283633932.26959    -0.00000    163.44489    -63.59510    73.44489    -63.59510    73.44489    -0.00000    163.44489
8298833201.39415    -0.00000    163.40787    -63.57124    73.40787    -63.57124    73.40787    -0.00000    163.40787
8314060358.97729    -0.00000    163.37073    -63.54734    73.37073    -63.54734    73.37073    -0.00000    163.37073
8329315456.19032    -0.00000    163.33348    -63.52339    73.33348    -63.52339    73.33348    -0.00000    163.33348
8344598544.29840    -0.00000    163.29611    -63.49939    73.29611    -63.49939    73.29611    -0.00000    163.29611
8359909674.66080    -0.00000    163.25863    -63.47533    73.25863    -63.47533    73.25863    -0.00000    163.25863
8375248898.73095    -0.00000    163.22102    -63.45123    73.22102    -63.45123    73.22102    -0.00000    163.22102
8390616268.05675    -0.00000    163.18329    -63.42708    73.18329    -63.42708    73.18329    -0.00000    163.18329
8406011834.28068    -0.00000    163.14545    -63.40288    73.14545    -63.40288    73.14545    -0.00000    163.14545
8421435649.13997    -0.00000    163.10748    -63.37862    73.10748    -63.37862    73.10748    -0.00000    163.10748
8436887764.46679    -0.00000    163.06939    -63.35431    73.06939    -63.35431    73.06939    -0.00000    163.06939
8452368232.18836    -0.00000    163.03117    -63.32995    73.03117    -63.32995    73.03117    -0.00000    163.03117
8467877104.32725    -0.00000    162.99283    -63.30554    72.99283    -63.30554    72.99283    -0.00000    162.99283
8483414433.00143    -0.00000    162.95437    -63.28107    72.95437    -63.28107    72.95437    -0.00000    162.95437
8498980270.42458    -0.00000    162.91579    -63.25655    72.91579    -63.25655    72.91579    -0.00000    162.91579
8514574668.90605    -0.00000    162.87708    -63.23198    72.87708    -63.23198    72.87708    -0.00000    162.87708
8530197680.85129    -0.00000    162.83824    -63.20735    72.83824    -63.20735    72.83824    -0.00000    162.83824
8545849358.76186    -0.00000    162.79927    -63.18267    72.79927    -63.18267    72.79927    -0.00000    162.79927
8561529755.23565    -0.00000    162.76018    -63.15793    72.76018    -63.15793    72.76018    -0.00000    162.76018
8577238922.96710    -0.00000    162.72096    -63.13313    72.72096    -63.13313    72.72096    -0.00000    162.72096
8592976914.74724    -0.00000    162.68161    -63.10828    72.68161    -63.10828    72.68161    -0.00000    162.68161
8608743783.46407    -0.00000    162.64213    -63.08337    72.64213    -63.08337    72.64213    -0.00000    162.64213
8624539582.10257    -0.00000    162.60252    -63.05841    72.60252    -63.05841    72.60252    -0.00000    162.60252
8640364363.74497    -0.00000    162.56278    -63.03338    72.56278    -63.03338    72.56278    -0.00000    162.56278
8656218181.57092    -0.00000    162.52291    -63.00830    72.52291    -63.00830    72.52291    -0.00000    162.52291
8672101088.85754    -0.00000    162.48290    -62.98316    72.48290    -62.98316    72.48290    -0.00000    162.48290
8688013138.97982    -0.00000    162.44276    -62.95796    72.44276    -62.95796    72.44276    -0.00000    162.44276
8703954385.41064    -0.00000    162.40249    -62.93270    72.40249    -62.93270    72.40249    -0.00000    162.40249
8719924881.72101    -0.00000    162.36208    -62.90738    72.36208    -62.90738    72.36208    -0.00000    162.36208
8735924681.58024    -0.00000    162.32153    -62.88200    72.32153    -62.88200    72.32153    -0.00000    162.32153
8751953838.75604    -0.00000    162.28085    -62.85655    72.28085    -62.85655    72.28085    -0.00000    162.28085
8768012407.11488    -0.00000    162.24003    -62.83105    72.24003    -62.83105    72.24003    -0.00000    162.24003
8784100440.62201    -0.00000    162.19907    -62.80548    72.19907    -62.80548    72.19907    -0.00000    162.19907
8800217993.34175    -0.00000    162.15798    -62.77985    72.15798    -62.77985    72.15798    -0.00000    162.15798
8816365119.43752    -0.00000    162.11674    -62.75416    72.11674    -62.75416    72.11674    -0.00000    162.11674
8832541873.17221    -0.00000    162.07536    -62.72840    72.07536    -62.72840    72.07536    -0.00000    162.07536
8848748308.90826    -0.00000    162.03384    -62.70258    72.03384    -62.70258    72.03384    -0.00000    162.03384
8864984481.10783    -0.00000    161.99218    -62.67669    71.99218    -62.67669    71.99218    -0.00000    161.99218
8881250444.33307    -0.00000    161.95037    -62.65073    71.95037    -62.65073    71.95037    -0.00000    161.95037
8897546253.24613    -0.00000    161.90842    -62.62471    71.90842    -62.62471    71.90842    -0.00000    161.90842
8913871962.60955    -0.00000    161.86633    -62.59862    71.86633    -62.59862    71.86633    -0.00000    161.86633
8930227627.28635    -0.00000    161.82408    -62.57247    71.82408    -62.57247    71.82408    -0.00000    161.82408
8946613302.24018    -0.00000    161.78169    -62.54625    71.78169    -62.54625    71.78169    -0.00000    161.78169
8963029042.53558    -0.00000    161.73916    -62.51995    71.73916    -62.51995    71.73916    -0.00000    161.73916
8979474903.33805    -0.00000    161.69647    -62.49359    71.69647    -62.49359    71.69647    -0.00000    161.69647
8995950939.91438    -0.00000    161.65363    -62.46716    71.65363    -62.46716    71.65363    -0.00000    161.65363
9012457207.63276    -0.00000    161.61065    -62.44066    71.61065    -62.44066    71.61065    -0.00000    161.61065
9028993761.96294    -0.00000    161.56751    -62.41409    71.56751    -62.41409    71.56751    -0.00000    161.56751
9045560658.47652    -0.00000    161.52422    -62.38744    71.52422    -62.38744    71.52422    -0.00000    161.52422
9062157952.84694    -0.00000    161.48077    -62.36072    71.48077    -62.36072    71.48077    -0.00000    161.48077
9078785700.84990    -0.00000    161.43717    -62.33393    71.43717    -62.33393    71.43717    -0.00000    161.43717
9095443958.36341    -0.00000    161.39342    -62.30707    71.39342    -62.30707    71.39342    -0.00000    161.39342
9112132781.36800    -0.00000    161.34951    -62.28013    71.34951    -62.28013    71.34951    -0.00000    161.34951
9128852225.94695    -0.00000    161.30544    -62.25311    71.30544    -62.25311    71.30544    -0.00000    161.30544
9145602348.28637    -0.00000    161.26121    -62.22602    71.26121    -62.22602    71.26121    -0.00000    161.26121
9162383204.67553    -0.00000    161.21682    -62.19886    71.21682    -62.19886    71.21682    -0.00000    161.21682
9179194851.50696    -0.00000    161.17227    -62.17161    71.17227    -62.17161    71.17227    -0.00000    161.17227
9196037345.27670    -0.00000    161.12756    -62.14429    71.12756    -62.14429    71.12756    -0.00000    161.12756
9212910742.58435    -0.00000    161.08269    -62.11689    71.08269    -62.11689    71.08269    -0.00000    161.08269
9229815100.13346    -0.00000    161.03765    -62.08941    71.03765    -62.08941    71.03765    -0.00000    161.03765
9246750474.73160    -0.00000    160.99245    -62.06185    70.99245    -62.06185    70.99245    -0.00000    160.99245
9263716923.29055    -0.00000    160.94708    -62.03421    70.94708    -62.03421    70.94708    -0.00000    160.94708
9280714502.82657    -0.00000    160.90155    -62.00649    70.90155    -62.00649    70.90155    -0.00000    160.90155
9297743270.46044    -0.00000    160.85585    -61.97868    70.85585    -61.97868    70.85585    -0.00000    160.85585
9314803283.41782    -0.00000    160.80997    -61.95079    70.80997    -61.95079    70.80997    -0.00000    160.80997
9331894599.02937    -0.00000    160.76393    -61.92282    70.76393    -61.92282    70.76393    -0.00000    160.76393
9349017274.73092    -0.00000    160.71772    -61.89476    70.71772    -61.89476    70.71772    -0.00000    160.71772
9366171368.06374    -0.00000    160.67133    -61.86662    70.67133    -61.86662    70.67133    -0.00000    160.67133
9383356936.67455    -0.00000    160.62477    -61.83839    70.62477    -61.83839    70.62477    -0.00000    160.62477
9400574038.31598    -0.00000    160.57803    -61.81007    70.57803    -61.81007    70.57803    -0.00000    160.57803
9417822730.84657    -0.00000    160.53112    -61.78167    70.53112    -61.78167    70.53112    -0.00000    160.53112
9435103072.23106    -0.00000    160.48403    -61.75318    70.48403    -61.75318    70.48403    -0.00000    160.48403
9452415120.54045    -0.00000    160.43676    -61.72459    70.43676    -61.72459    70.43676    -0.00000    160.43676
9469758933.95239    -0.00000    160.38931    -61.69592    70.38931    -61.69592    70.38931    -0.00000    160.38931
9487134570.75125    -0.00000    160.34168    -61.66716    70.34168    -61.66716    70.34168    -0.00000    160.34168
9504542089.32833    -0.00000    160.29387    -61.63830    70.29387    -61.63830    70.29387    -0.00000    160.29387
9521981548.18212    -0.00000    160.24587    -61.60935    70.24587    -61.60935    70.24587    -0.00000    160.24587
9539453005.91832    -0.00000    160.19769    -61.58030    70.19769    -61.58030    70.19769    -0.00000    160.19769
9556956521.25031    -0.00000    160.14932    -61.55116    70.14932    -61.55116    70.14932    -0.00000    160.14932
9574492152.99911    -0.00000    160.10076    -61.52193    70.10076    -61.52193    70.10076    -0.00000    160.10076
9592059960.09370    -0.00000    160.05202    -61.49260    70.05202    -61.49260    70.05202    -0.00000    160.05202
9609660001.57123    -0.00000    160.00308    -61.46317    70.00308    -61.46317    70.00308    -0.00000    160.00308
9627292336.57705    -0.00000    159.95395    -61.43364    69.95395    -61.43364    69.95395    -0.00000    159.95395
9644957024.36515    -0.00000    159.90463    -61.40401    69.90463    -61.40401    69.90463    -0.00000    159.90463
9662654124.29819    -0.00000    159.85512    -61.37428    69.85512    -61.37428    69.85512    -0.00000    159.85512
9680383695.84776    -0.00000    159.80541    -61.34445    69.80541    -61.34445    69.80541    -0.00000    159.80541
9698145798.59464    -0.00000    159.75550    -61.31452    69.75550    -61.31452    69.75550    -0.00000    159.75550
9715940492.22876    -0.00000    159.70539    -61.28448    69.70539    -61.28448    69.70539    -0.00000    159.70539
9733767836.54975    -0.00000    159.65508    -61.25434    69.65508    -61.25434    69.65508    -0.00000    159.65508
9751627891.46687    -0.00000    159.60457    -61.22409    69.60457    -61.22409    69.60457    -0.00000    159.60457
9769520716.99933    -0.00000    159.55386    -61.19373    69.55386    -61.19373    69.55386    -0.00000    159.55386
9787446373.27652    -0.00000    159.50294    -61.16327    69.50294    -61.16327    69.50294    -0.00000    159.50294
9805404920.53801    -0.00000    159.45182    -61.13270    69.45182    -61.13270    69.45182    -0.00000    159.45182
9823396419.13404    -0.00000    159.40049    -61.10202    69.40049    -61.10202    69.40049    -0.00000    159.40049
9841420929.52555    -0.00000    159.34895    -61.07122    69.34895    -61.07122    69.34895    -0.00000    159.34895
9859478512.28439    -0.00000    159.29719    -61.04032    69.29719    -61.04032    69.29719    -0.00000    159.29719
9877569228.09361    -0.00000    159.24523    -61.00930    69.24523    -61.00930    69.24523    -0.00000    159.24523
9895693137.74748    -0.00000    159.19305    -60.97817    69.19305    -60.97817    69.19305    -0.00000    159.19305
9913850302.15195    -0.00000    159.14066    -60.94692    69.14066    -60.94692    69.14066    -0.00000    159.14066
9932040782.32466    -0.00000    159.08805    -60.91555    69.08805    -60.91555    69.08805    -0.00000    159.08805
9950264639.39523    -0.00000    159.03522    -60.88406    69.03522    -60.88406    69.03522    -0.00000    159.03522
9968521934.60547    -0.00000    158.98216    -60.85246    68.98216    -60.85246    68.98216    -0.00000    158.98216
9986812729.30945    -0.00000    158.92889    -60.82073    68.92889    -60.82073    68.92889    -0.00000    158.92889
10005137084.97394    -0.00000    158.87539    -60.78889    68.87539    -60.78889    68.87539    -0.00000    158.87539
10023495063.17843    -0.00000    158.82167    -60.75692    68.82167    -60.75692    68.82167    -0.00000    158.82167
10041886725.61545    -0.00000    158.76771    -60.72482    68.76771    -60.72482    68.76771    -0.00000    158.76771
10060312134.09063    -0.00000    158.71353    -60.69260    68.71353    -60.69260    68.71353    -0.00000    158.71353
10078771350.52310    -0.00000    158.65912    -60.66025    68.65912    -60.66025    68.65912    -0.00000    158.65912
10097264436.94555    -0.00000    158.60447    -60.62777    68.60447    -60.62777    68.60447    -0.00000    158.60447
10115791455.50453    -0.00000    158.54959    -60.59517    68.54959    -60.59517    68.54959    -0.00000    158.54959
10134352468.46062    -0.00000    158.49447    -60.56243    68.49447    -60.56243    68.49447    -0.00000    158.49447
10152947538.18856    -0.00000    158.43912    -60.52956    68.43912    -60.52956    68.43912    -0.00000    158.43912
10171576727.17761    -0.00000    158.38352    -60.49655    68.38352    -60.49655    68.38352    -0.00000    158.38352
10190240098.03170    -0.00000    158.32768    -60.46341    68.32768    -60.46341    68.32768    -0.00000    158.32768
10208937713.46962    -0.00000    158.27159    -60.43013    68.27159    -60.43013    68.27159    -0.00000    158.27159
10227669636.32517    -0.00000    158.21526    -60.39672    68.21526    -60.39672    68.21526    -0.00000    158.21526
10246435929.54751    -0.00000    158.15868    -60.36316    68.15868    -60.36316    68.15868    -0.00000    158.15868
10265236656.20131    -0.00000    158.10185    -60.32946    68.10185    -60.32946    68.10185    -0.00000    158.10185
10284071879.46691    -0.00000    158.04477    -60.29562    68.04477    -60.29562    68.04477    -0.00000    158.04477
10302941662.64066    -0.00000    157.98743    -60.26164    67.98743    -60.26164    67.98743    -0.00000    157.98743
10321846069.13489    -0.00000    157.92983    -60.22751    67.92983    -60.22751    67.92983    -0.00000    157.92983
10340785162.47844    -0.00000    157.87197    -60.19323    67.87197    -60.19323    67.87197    -0.00000    157.87197
10359759006.31664    -0.00000    157.81386    -60.15880    67.81386    -60.15880    67.81386    -0.00000    157.81386
10378767664.41162    -0.00000    157.75548    -60.12422    67.75548    -60.12422    67.75548    -0.00000    157.75548
10397811200.64255    -0.00000    157.69683    -60.08949    67.69683    -60.08949    67.69683    -0.00000    157.69683
10416889679.00568    -0.00000    157.63792    -60.05460    67.63792    -60.05460    67.63792    -0.00000    157.63792
10436003163.61480    -0.00000    157.57873    -60.01956    67.57873    -60.01956    67.57873    -0.00000    157.57873
10455151718.70130    -0.00000    157.51927    -59.98436    67.51927    -59.98436    67.51927    -0.00000    157.51927
10474335408.61444    -0.00000    157.45954    -59.94900    67.45954    -59.94900    67.45954    -0.00000    157.45954
10493554297.82157    -0.00000    157.39953    -59.91348    67.39953    -59.91348    67.39953    -0.00000    157.39953
10512808450.90822    -0.00000    157.33924    -59.87779    67.33924    -59.87779    67.33924    -0.00000    157.33924
10532097932.57855    -0.00000    157.27867    -59.84194    67.27867    -59.84194    67.27867    -0.00000    157.27867
10551422807.65540    -0.00000    157.21781    -59.80592    67.21781    -59.80592    67.21781    -0.00000    157.21781
10570783141.08054    -0.00000    157.15666    -59.76974    67.15666    -59.76974    67.15666    -0.00000    157.15666
10590178997.91494    -0.00000    157.09523    -59.73338    67.09523    -59.73338    67.09523    -0.00000    157.09523
10609610443.33885    -0.00000    157.03350    -59.69685    67.03350    -59.69685    67.03350    -0.00000    157.03350
10629077542.65220    -0.00000    156.97148    -59.66014    66.97148    -59.66014    66.97148    -0.00000    156.97148
10648580361.27474    -0.00000    156.90916    -59.62326    66.90916    -59.62326    66.90916    -0.00000    156.90916
10668118964.74625    -0.00000    156.84654    -59.58620    66.84654    -59.58620    66.84654    -0.00000    156.84654
10687693418.72668    -0.00000    156.78361    -59.54896    66.78361    -59.54896    66.78361    -0.00000    156.78361
10707303788.99656    -0.00000    156.72038    -59.51154    66.72038    -59.51154    66.72038    -0.00000    156.72038
10726950141.45709    -0.00000    156.65684    -59.47393    66.65684    -59.47393    66.65684    -0.00000    156.65684
10746632542.13037    -0.00000    156.59299    -59.43613    66.59299    -59.43613    66.59299    -0.00000    156.59299
10766351057.15969    -0.00000    156.52883    -59.39814    66.52883    -59.39814    66.52883    -0.00000    156.52883
10786105752.80959    -0.00001    156.46435    -59.35996    66.46435    -59.35996    66.46435    -0.00001    156.46435
10805896695.46632    -0.00001    156.39954    -59.32159    66.39954    -59.32159    66.39954    -0.00001    156.39954
10825723951.63788    -0.00001    156.33442    -59.28302    66.33442    -59.28302    66.33442    -0.00001    156.33442
10845587587.95431    -0.00001    156.26897    -59.24425    66.26897    -59.24425    66.26897    -0.00001    156.26897
10865487671.16796    -0.00001    156.20318    -59.20529    66.20318    -59.20529    66.20318    -0.00001    156.20318
10885424268.15353    -0.00001    156.13707    -59.16611    66.13707    -59.16611    66.13707    -0.00001    156.13707
10905397445.90854    -0.00001    156.07062    -59.12674    66.07062    -59.12674    66.07062    -0.00001    156.07062
10925407271.55340    -0.00001    156.00383    -59.08715    66.00383    -59.08715    66.00383    -0.00001    156.00383
10945453812.33169    -0.00001    155.93670    -59.04735    65.93670    -59.04735    65.93670    -0.00001    155.93670
10965537135.61041    -0.00001    155.86922    -59.00734    65.86922    -59.00734    65.86922    -0.00001    155.86922
10985657308.88004    -0.00001    155.80139    -58.96711    65.80139    -58.96711    65.80139    -0.00001    155.80139
11005814399.75502    -0.00001    155.73321    -58.92667    65.73321    -58.92667    65.73321    -0.00001    155.73321
11026008475.97380    -0.00001    155.66468    -58.88600    65.66468    -58.88600    65.66468    -0.00001    155.66468
11046239605.39919    -0.00001    155.59579    -58.84511    65.59579    -58.84511    65.59579    -0.00001    155.59579
11066507856.01837    -0.00001    155.52653    -58.80399    65.52653    -58.80399    65.52653    -0.00001    155.52653
11086813295.94340    -0.00001    155.45691    -58.76264    65.45691    -58.76264    65.45691    -0.00001    155.45691
11107155993.41127    -0.00001    155.38691    -58.72106    65.38691    -58.72106    65.38691    -0.00001    155.38691
11127536016.78418    -0.00001    155.31655    -58.67924    65.31655    -58.67924    65.31655    -0.00001    155.31655
11147953434.54980    -0.00001    155.24580    -58.63719    65.24580    -58.63719    65.24580    -0.00001    155.24580
11168408315.32135    -0.00001    155.17467    -58.59489    65.17467    -58.59489    65.17467    -0.00001    155.17467
11188900727.83806    -0.00001    155.10316    -58.55235    65.10316    -58.55235    65.10316    -0.00001    155.10316
11209430740.96525    -0.00001    155.03126    -58.50956    65.03126    -58.50956    65.03126    -0.00001    155.03126
11229998423.69460    -0.00001    154.95897    -58.46652    64.95897    -58.46652    64.95897    -0.00001    154.95897
11250603845.14441    -0.00001    154.88627    -58.42323    64.88627    -58.42323    64.88627    -0.00001    154.88627
11271247074.55970    -0.00001    154.81318    -58.37968    64.81318    -58.37968    64.81318    -0.00001    154.81318
11291928181.31264    -0.00001    154.73968    -58.33587    64.73968    -58.33587    64.73968    -0.00001    154.73968
11312647234.90268    -0.00001    154.66577    -58.29179    64.66577    -58.29179    64.66577    -0.00001    154.66577
11333404304.95675    -0.00001    154.59145    -58.24745    64.59145    -58.24745    64.59145    -0.00001    154.59145
11354199461.22962    -0.00001    154.51671    -58.20284    64.51671    -58.20284    64.51671    -0.00001    154.51671
11375032773.60389    -0.00001    154.44154    -58.15795    64.44154    -58.15795    64.44154    -0.00001    154.44154
11395904312.09054    -0.00001    154.36595    -58.11279    64.36595    -58.11279    64.36595    -0.00001    154.36595
11416814146.82893    -0.00001    154.28992    -58.06734    64.28992    -58.06734    64.28992    -0.00001    154.28992
11437762348.08716    -0.00001    154.21346    -58.02161    64.21346    -58.02161    64.21346    -0.00001    154.21346
11458748986.26227    -0.00001    154.13655    -57.97559    64.13655    -57.97559    64.13655    -0.00001    154.13655
11479774131.88036    -0.00001    154.05920    -57.92928    64.05920    -57.92928    64.05920    -0.00001    154.05920
11500837855.59706    -0.00001    153.98140    -57.88267    63.98140    -57.88267    63.98140    -0.00001    153.98140
11521940228.19758    -0.00001    153.90314    -57.83576    63.90314    -57.83576    63.90314    -0.00001    153.90314
11543081320.59704    -0.00001    153.82442    -57.78855    63.82442    -57.78855    63.82442    -0.00001    153.82442
11564261203.84070    -0.00001    153.74523    -57.74102    63.74523    -57.74102    63.74523    -0.00001    153.74523
11585479949.10407    -0.00001    153.66557    -57.69319    63.66557    -57.69319    63.66557    -0.00001    153.66557
11606737627.69337    -0.00001    153.58544    -57.64504    63.58544    -57.64504    63.58544    -0.00001    153.58544
11628034311.04561    -0.00001    153.50482    -57.59656    63.50482    -57.59656    63.50482    -0.00001    153.50482
11649370070.72892    -0.00001    153.42371    -57.54776    63.42371    -57.54776    63.42371    -0.00001    153.42371
11670744978.44265    -0.00001    153.34211    -57.49863    63.34211    -57.49863    63.34211    -0.00001    153.34211
11692159106.01779    -0.00001    153.26001    -57.44917    63.26001    -57.44917    63.26001    -0.00001    153.26001
11713612525.41712    -0.00001    153.17740    -57.39936    63.17740    -57.39936    63.17740    -0.00001    153.17740
11735105308.73544    -0.00001    153.09428    -57.34922    63.09428    -57.34922    63.09428    -0.00001    153.09428
11756637528.19989    -0.00001    153.01065    -57.29872    63.01065    -57.29872    63.01065    -0.00001    153.01065
11778209256.17001    -0.00001    152.92649    -57.24787    62.92649    -57.24787    62.92649    -0.00001    152.92649
11799820565.13822    -0.00001    152.84181    -57.19666    62.84181    -57.19666    62.84181    -0.00001    152.84181
11821471527.72993    -0.00001    152.75658    -57.14509    62.75658    -57.14509    62.75658    -0.00001    152.75658
11843162216.70380    -0.00001    152.67082    -57.09315    62.67082    -57.09315    62.67082    -0.00001    152.67082
11864892704.95203    -0.00001    152.58451    -57.04083    62.58451    -57.04083    62.58451    -0.00001    152.58451
11886663065.50043    -0.00001    152.49764    -56.98814    62.49764    -56.98814    62.49764    -0.00001    152.49764
11908473371.50897    -0.00001    152.41021    -56.93506    62.41021    -56.93506    62.41021    -0.00001    152.41021
11930323696.27176    -0.00001    152.32221    -56.88160    62.32221    -56.88160    62.32221    -0.00001    152.32221
11952214113.21747    -0.00001    152.23364    -56.82773    62.23364    -56.82773    62.23364    -0.00001    152.23364
11974144695.90937    -0.00001    152.14448    -56.77347    62.14448    -56.77347    62.14448    -0.00001    152.14448
11996115518.04584    -0.00001    152.05473    -56.71880    62.05473    -56.71880    62.05473    -0.00001    152.05473
12018126653.46042    -0.00001    151.96439    -56.66371    61.96439    -56.66371    61.96439    -0.00001    151.96439
12040178176.12215    -0.00001    151.87344    -56.60821    61.87344    -56.60821    61.87344    -0.00001    151.87344
12062270160.13583    -0.00001    151.78187    -56.55228    61.78187    -56.55228    61.78187    -0.00001    151.78187
12084402679.74208    -0.00001    151.68969    -56.49592    61.68969    -56.49592    61.68969    -0.00001    151.68969
12106575809.31791    -0.00001    151.59688    -56.43912    61.59688    -56.43912    61.59688    -0.00001    151.59688
12128789623.37671    -0.00001    151.50343    -56.38188    61.50343    -56.38188    61.50343    -0.00001    151.50343
12151044196.56864    -0.00001    151.40934    -56.32419    61.40934    -56.32419    61.40934    -0.00001    151.40934
12173339603.68084    -0.00001    151.31459    -56.26604    61.31459    -56.26604    61.31459    -0.00001    151.31459
12195675919.63755    -0.00001    151.21919    -56.20742    61.21919    -56.20742    61.21919    -0.00001    151.21919
12218053219.50064    -0.00001    151.12311    -56.14834    61.12311    -56.14834    61.12311    -0.00001    151.12311
12240471578.46963    -0.00001    151.02635    -56.08877    61.02635    -56.08877    61.02635    -0.00001    151.02635
12262931071.88204    -0.00001    150.92891    -56.02873    60.92891    -56.02873    60.92891    -0.00001    150.92891
12285431775.21366    -0.00001    150.83077    -55.96818    60.83077    -55.96818    60.83077    -0.00001    150.83077
12307973764.07864    -0.00001    150.73192    -55.90714    60.73192    -55.90714    60.73192    -0.00001    150.73192
12330557114.23001    -0.00001    150.63236    -55.84559    60.63236    -55.84559    60.63236    -0.00001    150.63236
12353181901.55973    -0.00001    150.53207    -55.78353    60.53207    -55.78353    60.53207    -0.00001    150.53207
12375848202.09904    -0.00001    150.43104    -55.72094    60.43104    -55.72094    60.43104    -0.00001    150.43104
12398556092.01869    -0.00001    150.32927    -55.65781    60.32927    -55.65781    60.32927    -0.00001    150.32927
12421305647.62911    -0.00001    150.22674    -55.59415    60.22674    -55.59415    60.22674    -0.00001    150.22674
12444096945.38084    -0.00001    150.12345    -55.52994    60.12345    -55.52994    60.12345    -0.00001    150.12345
12466930061.86466    -0.00001    150.01937    -55.46518    60.01937    -55.46518    60.01937    -0.00001    150.01937
12489805073.81191    -0.00001    149.91451    -55.39984    59.91451    -55.39984    59.91451    -0.00001    149.91451
12512722058.09473    -0.00001    149.80885    -55.33393    59.80885    -55.33393    59.80885    -0.00001    149.80885
12535681091.72620    -0.00001    149.70238    -55.26744    59.70238    -55.26744    59.70238    -0.00001    149.70238
12558682251.86082    -0.00001    149.59509    -55.20036    59.59509    -55.20036    59.59509    -0.00001    149.59509
12581725615.79464    -0.00001    149.48696    -55.13267    59.48696    -55.13267    59.48696    -0.00001    149.48696
12604811260.96556    -0.00001    149.37798    -55.06437    59.37798    -55.06437    59.37798    -0.00001    149.37798
12627939264.95343    -0.00001    149.26815    -54.99545    59.26815    -54.99545    59.26815    -0.00001    149.26815
12651109705.48061    -0.00001    149.15744    -54.92589    59.15744    -54.92589    59.15744    -0.00001    149.15744
12674322660.41199    -0.00001    149.04585    -54.85569    59.04585    -54.85569    59.04585    -0.00001    149.04585
12697578207.75537    -0.00001    148.93336    -54.78484    58.93336    -54.78484    58.93336    -0.00001    148.93336
12720876425.66168    -0.00001    148.81995    -54.71333    58.81995    -54.71333    58.81995    -0.00001    148.81995
12744217392.42514    -0.00001    148.70563    -54.64114    58.70563    -54.64114    58.70563    -0.00001    148.70563
12767601186.48378    -0.00002    148.59036    -54.56827    58.59036    -54.56827    58.59036    -0.00002    148.59036
12791027886.41946    -0.00002    148.47414    -54.49469    58.47414    -54.49469    58.47414    -0.00002    148.47414
12814497570.95832    -0.00002    148.35695    -54.42041    58.35695    -54.42041    58.35695    -0.00002    148.35695
12838010318.97079    -0.00002    148.23878    -54.34541    58.23878    -54.34541    58.23878    -0.00002    148.23878
12861566209.47214    -0.00002    148.11961    -54.26968    58.11961    -54.26968    58.11961    -0.00002    148.11961
12885165321.62261    -0.00002    147.99943    -54.19320    57.99943    -54.19320    57.99943    -0.00002    147.99943
12908807734.72766    -0.00002    147.87821    -54.11596    57.87821    -54.11596    57.87821    -0.00002    147.87821
12932493528.23832    -0.00002    147.75595    -54.03795    57.75595    -54.03795    57.75595    -0.00002    147.75595
12956222781.75127    -0.00002    147.63263    -53.95916    57.63263    -53.95916    57.63263    -0.00002    147.63263
12979995575.00935    -0.00002    147.50822    -53.87957    57.50822    -53.87957    57.50822    -0.00002    147.50822
13003811987.90171    -0.00002    147.38272    -53.79917    57.38272    -53.79917    57.38272    -0.00002    147.38272
13027672100.46406    -0.00002    147.25610    -53.71794    57.25610    -53.71794    57.25610    -0.00002    147.25610
13051575992.87901    -0.00002    147.12834    -53.63587    57.12834    -53.63587    57.12834    -0.00002    147.12834
13075523745.47616    -0.00002    146.99944    -53.55295    56.99944    -53.55295    56.99944    -0.00002    146.99944
13099515438.73264    -0.00002    146.86936    -53.46916    56.86936    -53.46916    56.86936    -0.00002    146.86936
13123551153.27321    -0.00002    146.73808    -53.38449    56.73808    -53.38449    56.73808    -0.00002    146.73808
13147630969.87053    -0.00002    146.60560    -53.29891    56.60560    -53.29891    56.60560    -0.00002    146.60560
13171754969.44557    -0.00002    146.47188    -53.21242    56.47188    -53.21242    56.47188    -0.00002    146.47188
13195923233.06757    -0.00002    146.33691    -53.12500    56.33691    -53.12500    56.33691    -0.00002    146.33691
13220135841.95472    -0.00002    146.20066    -53.03662    56.20066    -53.03662    56.20066    -0.00002    146.20066
13244392877.47416    -0.00002    146.06311    -52.94728    56.06311    -52.94728    56.06311    -0.00002    146.06311
13268694421.14231    -0.00002    145.92424    -52.85695    55.92424    -52.85695    55.92424    -0.00002    145.92424
13293040554.62525    -0.00002    145.78403    -52.76563    55.78403    -52.76563    55.78403    -0.00002    145.78403
13317431359.73872    -0.00002    145.64245    -52.67328    55.64245    -52.67328    55.64245    -0.00002    145.64245
13341866918.44876    -0.00002    145.49948    -52.57989    55.49948    -52.57989    55.49948    -0.00002    145.49948
13366347312.87174    -0.00002    145.35509    -52.48544    55.35509    -52.48544    55.35509    -0.00002    145.35509
13390872625.27474    -0.00003    145.20925    -52.38992    55.20925    -52.38992    55.20925    -0.00003    145.20925
13415442938.07566    -0.00003    145.06195    -52.29329    55.06195    -52.29329    55.06195    -0.00003    145.06195
13440058333.84377    -0.00003    144.91315    -52.19555    54.91315    -52.19555    54.91315    -0.00003    144.91315
13464718895.29977    -0.00003    144.76282    -52.09666    54.76282    -52.09666    54.76282    -0.00003    144.76282
13489424705.31618    -0.00003    144.61094    -51.99662    54.61094    -51.99662    54.61094    -0.00003    144.61094
13514175846.91760    -0.00003    144.45747    -51.89539    54.45747    -51.89539    54.45747    -0.00003    144.45747
13538972403.28083    -0.00003    144.30240    -51.79295    54.30240    -51.79295    54.30240    -0.00003    144.30240
13563814457.73543    -0.00003    144.14568    -51.68928    54.14568    -51.68928    54.14568    -0.00003    144.14568
13588702093.76381    -0.00003    143.98728    -51.58436    53.98728    -51.58436    53.98728    -0.00003    143.98728
13613635395.00155    -0.00003    143.82717    -51.47816    53.82717    -51.47816    53.82717    -0.00003    143.82717
13638614445.23777    -0.00003    143.66532    -51.37065    53.66532    -51.37065    53.66532    -0.00003    143.66532
13663639328.41515    -0.00003    143.50170    -51.26182    53.50170    -51.26182    53.50170    -0.00003    143.50170
13688710128.63055    -0.00003    143.33626    -51.15163    53.33626    -51.15163    53.33626    -0.00003    143.33626
13713826930.13509    -0.00003    143.16898    -51.04006    53.16898    -51.04006    53.16898    -0.00003    143.16898
13738989817.33447    -0.00004    142.99981    -50.92708    52.99981    -50.92708    52.99981    -0.00004    142.99981
13764198874.78933    -0.00004    142.82871    -50.81266    52.82871    -50.81266    52.82871    -0.00004    142.82871
13789454187.21530    -0.00004    142.65565    -50.69677    52.65565    -50.69677    52.65565    -0.00004    142.65565
13814755839.48360    -0.00004    142.48058    -50.57939    52.48058    -50.57939    52.48058    -0.00004    142.48058
13840103916.62114    -0.00004    142.30347    -50.46047    52.30347    -50.46047    52.30347    -0.00004    142.30347
13865498503.81089    -0.00004    142.12426    -50.34000    52.12426    -50.34000    52.12426    -0.00004    142.12426
13890939686.39195    -0.00004    141.94292    -50.21794    51.94292    -50.21794    51.94292    -0.00004    141.94292
13916427549.86017    -0.00004    141.75940    -50.09425    51.75940    -50.09425    51.75940    -0.00004    141.75940
13941962179.86823    -0.00004    141.57364    -49.96890    51.57364    -49.96890    51.57364    -0.00004    141.57364
13967543662.22595    -0.00005    141.38562    -49.84186    51.38562    -49.84186    51.38562    -0.00005    141.38562
13993172082.90067    -0.00005    141.19526    -49.71308    51.19526    -49.71308    51.19526    -0.00005    141.19526
14018847528.01729    -0.00005    141.00252    -49.58255    51.00252    -49.58255    51.00252    -0.00005    141.00252
14044570083.85892    -0.00005    140.80735    -49.45020    50.80735    -49.45020    50.80735    -0.00005    140.80735
14070339836.86692    -0.00005    140.60969    -49.31602    50.60969    -49.31602    50.60969    -0.00005    140.60969
14096156873.64125    -0.00005    140.40948    -49.17995    50.40948    -49.17995    50.40948    -0.00005    140.40948
14122021280.94083    -0.00005    140.20666    -49.04196    50.20666    -49.04196    50.20666    -0.00005    140.20666
14147933145.68361    -0.00006    140.00119    -48.90200    50.00119    -48.90200    50.00119    -0.00006    140.00119
14173892554.94719    -0.00006    139.79298    -48.76002    49.79298    -48.76002    49.79298    -0.00006    139.79298
14199899595.96888    -0.00006    139.58197    -48.61600    49.58197    -48.61600    49.58197    -0.00006    139.58197
14225954356.14605    -0.00006    139.36811    -48.46987    49.36811    -48.46987    49.36811    -0.00006    139.36811
14252056923.03651    -0.00006    139.15131    -48.32160    49.15131    -48.32160    49.15131    -0.00006    139.15131
14278207384.35854    -0.00007    138.93152    -48.17113    48.93152    -48.17113    48.93152    -0.00007    138.93152
14304405827.99156    -0.00007    138.70864    -48.01841    48.70864    -48.01841    48.70864    -0.00007    138.70864
14330652341.97614    -0.00007    138.48261    -47.86339    48.48261    -47.86339    48.48261    -0.00007    138.48261
14356947014.51443    -0.00007    138.25335    -47.70601    48.25335    -47.70601    48.25335    -0.00007    138.25335
14383289933.97046    -0.00008    138.02077    -47.54623    48.02077    -47.54623    48.02077    -0.00008    138.02077
14409681188.87024    -0.00008    137.78478    -47.38399    47.78478    -47.38399    47.78478    -0.00008    137.78478
14436120867.90234    -0.00008    137.54531    -47.21922    47.54531    -47.21922    47.54531    -0.00008    137.54531
14462609059.91806    -0.00009    137.30225    -47.05187    47.30225    -47.05187    47.30225    -0.00009    137.30225
14489145853.93168    -0.00009    137.05551    -46.88188    47.05551    -46.88188    47.05551    -0.00009    137.05551
14515731339.12090    -0.00009    136.80500    -46.70917    46.80500    -46.70917    46.80500    -0.00009    136.80500
14542365604.82687    -0.00010    136.55060    -46.53370    46.55060    -46.53370    46.55060    -0.00010    136.55060
14569048740.55482    -0.00010    136.29221    -46.35537    46.29221    -46.35537    46.29221    -0.00010    136.29221
14595780835.97418    -0.00010    136.02973    -46.17413    46.02973    -46.17413    46.02973    -0.00010    136.02973
14622561980.91894    -0.00011    135.76303    -45.98991    45.76303    -45.98991    45.76303    -0.00011    135.76303
14649392265.38777    -0.00011    135.49199    -45.80262    45.49199    -45.80262    45.49199    -0.00011    135.49199
14676271779.54464    -0.00012    135.21649    -45.61219    45.21649    -45.61219    45.21649    -0.00012    135.21649
14703200613.71891    -0.00012    134.93641    -45.41854    44.93641    -45.41854    44.93641    -0.00012    134.93641
14730178858.40566    -0.00013    134.65159    -45.22159    44.65159    -45.22159    44.65159    -0.00013    134.65159
14757206604.26608    -0.00014    134.36191    -45.02124    44.36191    -45.02124    44.36191    -0.00014    134.36191
14784283942.12757    -0.00014    134.06721    -44.81742    44.06721    -44.81742    44.06721    -0.00014    134.06721
14811410962.98430    -0.00015    133.76734    -44.61002    43.76734    -44.61002    43.76734    -0.00015    133.76734
14838587757.99739    -0.00016    133.46215    -44.39895    43.46215    -44.39895    43.46215    -0.00016    133.46215
14865814418.49521    -0.00017    133.15145    -44.18412    43.15145    -44.18412    43.15145    -0.00017    133.15145
14893091035.97376    -0.00017    132.83508    -43.96541    42.83508    -43.96541    42.83508    -0.00017    132.83508
14920417702.09676    -0.00018    132.51285    -43.74272    42.51285    -43.74272    42.51285    -0.00018    132.51285
14947794508.69628    -0.00019    132.18457    -43.51595    42.18457    -43.51595    42.18457    -0.00019    132.18457
14975221547.77283    -0.00020    131.85004    -43.28497    41.85004    -43.28497    41.85004    -0.00020    131.85004
15002698911.49574    -0.00022    131.50905    -43.04966    41.50905    -43.04966    41.50905    -0.00022    131.50905
15030226692.20351    -0.00023    131.16138    -42.80991    41.16138    -42.80991    41.16138    -0.00023    131.16138
15057804982.40389    -0.00024    130.80679    -42.56557    40.80679    -42.56557    40.80679    -0.00024    130.80679
15085433874.77455    -0.00025    130.44505    -42.31653    40.44505    -42.31653    40.44505    -0.00025    130.44505
15113113462.16315    -0.00027    130.07589    -42.06263    40.07589    -42.06263    40.07589    -0.00027    130.07589
15140843837.58775    -0.00029    129.69905    -41.80373    39.69905    -41.80373    39.69905    -0.00029    129.69905
15168625094.23694    -0.00030    129.31424    -41.53968    39.31424    -41.53968    39.31424    -0.00030    129.31424
15196457325.47046    -0.00032    128.92117    -41.27031    38.92117    -41.27031    38.92117    -0.00032    128.92117
15224340624.81930    -0.00035    128.51952    -40.99547    38.51952    -40.99547    38.51952    -0.00035    128.51952
15252275085.98604    -0.00037    128.10896    -40.71498    38.10896    -40.71498    38.10896    -0.00037    128.10896
15280260802.84528    -0.00039    127.68914    -40.42866    37.68914    -40.42866    37.68914    -0.00039    127.68914
15308297869.44369    -0.00042    127.25969    -40.13631    37.25969    -40.13631    37.25969    -0.00042    127.25969
15336386380.00064    -0.00045    126.82021    -39.83775    36.82021    -39.83775    36.82021    -0.00045    126.82021
15364526428.90837    -0.00048    126.37029    -39.53277    36.37029    -39.53277    36.37029    -0.00048    126.37029
15392718110.73229    -0.00052    125.90949    -39.22113    35.90949    -39.22113    35.90949    -0.00052    125.90949
15420961520.21136    -0.00056    125.43734    -38.90263    35.43734    -38.90263    35.43734    -0.00056    125.43734
15449256752.25826    -0.00060    124.95335    -38.57702    34.95335    -38.57702    34.95335    -0.00060    124.95335
15477603901.95993    -0.00065    124.45698    -38.24404    34.45698    -38.24404    34.45698    -0.00065    124.45698
15506003064.57777    -0.00070    123.94766    -37.90344    33.94766    -37.90344    33.94766    -0.00070    123.94766
15534454335.54794    -0.00076    123.42481    -37.55494    33.42481    -37.55494    33.42481    -0.00076    123.42481
15562957810.48178    -0.00083    122.88776    -37.19823    32.88776    -37.19823    32.88776    -0.00083    122.88776
15591513585.16590    -0.00090    122.33583    -36.83302    32.33583    -36.83302    32.33583    -0.00090    122.33583
15620121755.56282    -0.00098    121.76829    -36.45897    31.76829    -36.45897    31.76829    -0.00098    121.76829
15648782417.81109    -0.00107    121.18433    -36.07575    31.18433    -36.07575    31.18433    -0.00107    121.18433
15677495668.22567    -0.00117    120.58311    -35.68297    30.58311    -35.68297    30.58311    -0.00117    120.58311
15706261603.29827    -0.00129    119.96369    -35.28027    29.96369    -35.28027    29.96369    -0.00129    119.96369
15735080319.69751    -0.00142    119.32510    -34.86722    29.32510    -34.86722    29.32510    -0.00142    119.32510
15763951914.26954    -0.00156    118.66625    -34.44338    28.66625    -34.44338    28.66625    -0.00156    118.66625
15792876484.03814    -0.00173    117.98597    -34.00831    27.98597    -34.00831    27.98597    -0.00173    117.98597
15821854126.20520    -0.00191    117.28299    -33.56149    27.28299    -33.56149    27.28299    -0.00191    117.28299
15850884938.15077    -0.00213    116.55595    -33.10240    26.55595    -33.10240    26.55595    -0.00213    116.55595
15879969017.43375    -0.00237    115.80331    -32.63047    25.80331    -32.63047    25.80331    -0.00237    115.80331
15909106461.79199    -0.00265    115.02344    -32.14511    25.02344    -32.14511    25.02344    -0.00265    115.02344
15938297369.14269    -0.00297    114.21452    -31.64565    24.21452    -31.64565    24.21452    -0.00297    114.21452
15967541837.58275    -0.00335    113.37454    -31.13140    23.37454    -31.13140    23.37454    -0.00335    113.37454
15996839965.38890    -0.00378    112.50130    -30.60161    22.50130    -30.60161    22.50130    -0.00378    112.50130
16026191851.01837    -0.00429    111.59234    -30.05547    21.59234    -30.05547    21.59234    -0.00429    111.59234
16055597593.10899    -0.00488    110.64492    -29.49209    20.64492    -29.49209    20.64492    -0.00488    110.64492
16085057290.47961    -0.00558    109.65600    -28.91052    19.65600    -28.91052    19.65600    -0.00558    109.65600
16114571042.13026    -0.00641    108.62214    -28.30972    18.62214    -28.30972    18.62214    -0.00641    108.62214
16144138947.24277    -0.00740    107.53947    -27.68857    17.53947    -27.68857    17.53947    -0.00740    107.53947
16173761105.18090    -0.00858    106.40361    -27.04581    16.40361    -27.04581    16.40361    -0.00858    106.40361
16203437615.49073    -0.01001    105.20954    -26.38010    15.20954    -26.38010    15.20954    -0.01001    105.20954
16233168577.90106    -0.01173    103.95152    -25.68994    13.95152    -25.68994    13.95152    -0.01173    103.95152
16262954092.32350    -0.01384    102.62294    -24.97367    12.62294    -24.97367    12.62294    -0.01384    102.62294
16292794258.85314    -0.01643    101.21608    -24.22947    11.21608    -24.22947    11.21608    -0.01643    101.21608
16322689177.76869    -0.01964    99.72192    -23.45529    9.72192    -23.45529    9.72192    -0.01964    99.72192
16352638949.53286    -0.02366    98.12982    -22.64887    8.12982    -22.64887    8.12982    -0.02366    98.12982
16382643674.79273    -0.02874    96.42707    -21.80765    6.42707    -21.80765    6.42707    -0.02874    96.42707
16412703454.37990    -0.03521    94.59840    -20.92876    4.59840    -20.92876    4.59840    -0.03521    94.59840
16442818389.31116    -0.04356    92.62525    -20.00899    2.62525    -20.00899    2.62525    -0.04356    92.62525
16472988580.78856    -0.05446    90.48476    -19.04466    0.48476    -19.04466    0.48476    -0.05446    90.48476
16503214130.19989    -0.06887    88.14848    -18.03165    -1.85152    -18.03165    -1.85152    -0.06887    88.14848
16533495139.11898    -0.08824    85.58044    -16.96528    -4.41956    -16.96528    -4.41956    -0.08824    85.58044
16563831709.30589    -0.11468    82.73461    -15.84030    -7.26539    -15.84030    -7.26539    -0.11468    82.73461
16594223942.70757    -0.15144    79.55104    -14.65087    -10.44896    -14.65087    -10.44896    -0.15144    79.55104
16624671941.45795    -0.20364    75.95051    -13.39073    -14.04949    -13.39073    -14.04949    -0.20364    75.95051
16655175807.87837    -0.27947    71.82665    -12.05351    -18.17335    -12.05351    -18.17335    -0.27947    71.82665
16685735644.47799    -0.39255    67.03476    -10.63364    -22.96524    -10.63364    -22.96524    -0.39255    67.03476
16716351553.95386    -0.56617    61.37642    -9.12836    -28.62358    -9.12836    -28.62358    -0.56617    61.37642
16747023639.19165    -0.84137    54.58092    -7.54185    -35.41908    -7.54185    -35.41908    -0.84137    54.58092
16777752003.26575    -1.29254    46.29092    -5.89366    -43.70908    -5.89366    -43.70908    -1.29254    46.29092
16808536749.43968    -2.05693    36.07952    -4.23359    -53.92048    -4.23359    -53.92048    -2.05693    36.07952
16839377981.16649    -3.38855    23.56658    -2.66237    -66.43342    -2.66237    -66.43342    -3.38855    23.56658
16870275802.08888    -5.75834    8.72721    -1.34045    -81.27279    -1.34045    -81.27279    -5.75834    8.72721
16901230316.03988    -10.14749    -7.69324    -0.44149    -97.69324    -0.44149    -97.69324    -10.14749    -7.69324
16932241627.04299    -20.50048    -24.20117    -0.03888    -114.20117    -0.03888    -114.20117    -20.50048    -24.20117
16963309839.31265    -20.21683    140.64016    -0.04151    -129.35984    -0.04151    -129.35984    -20.21683    140.64016
16994435057.25433    -12.17798    127.47023    -0.27132    -142.52977    -0.27132    -142.52977    -12.17798    127.47023
17025617385.46523    -9.08075    116.19073    -0.57284    -153.80927    -0.57284    -153.80927    -9.08075    116.19073
17056856928.73443    -7.49391    106.38715    -0.85169    -163.61285    -0.85169    -163.61285    -7.49391    106.38715
17088153792.04329    -6.63381    97.61418    -1.06282    -172.38582    -1.06282    -172.38582    -6.63381    97.61418
17119508080.56584    -6.20235    89.49677    -1.19046    179.49677    -1.19046    179.49677    -6.20235    89.49677
17150919899.66891    -6.06639    81.74231    -1.23423    171.74231    -1.23423    171.74231    -6.06639    81.74231
17182389354.91285    -6.16664    74.12691    -1.20178    164.12691    -1.20178    164.12691    -6.16664    74.12691
17213916552.05164    -6.48429    66.47995    -1.10521    156.47995    -1.10521    156.47995    -6.48429    66.47995
17245501597.03329    -7.02821    58.67377    -0.95952    148.67377    -0.95952    148.67377    -7.02821    58.67377
17277144596.00028    -7.83169    50.61900    -0.78185    140.61900    -0.78185    140.61900    -7.83169    50.61900
17308845655.28967    -8.95632    42.26443    -0.59068    132.26443    -0.59068    132.26443    -8.95632    42.26443
17340604881.43380    -10.50600    33.59892    -0.40483    123.59892    -0.40483    123.59892    -10.50600    33.59892
17372422381.16043    -12.66472    24.65240    -0.24174    114.65240    -0.24174    114.65240    -12.66472    24.65240
17404298261.39321    -15.81176    15.49235    -0.11544    105.49235    -0.11544    105.49235    -15.81176    15.49235
17436232629.25179    -21.00482    6.21356    -0.03460    96.21356    -0.03460    96.21356    -21.00482    6.21356
17468225592.05257    -35.28682    -3.07814    -0.00129    86.92186    -0.00129    86.92186    -35.28682    -3.07814
17500277257.30877    -25.91258    167.71545    -0.01115    77.71545    -0.01115    77.71545    -25.91258    167.71545
17532387732.73091    -19.02141    158.66929    -0.05475    68.66929    -0.05475    68.66929    -19.02141    158.66929
17564557126.22720    -15.65359    149.82630    -0.11978    59.82630    -0.11978    59.82630    -15.65359    149.82630
17596785545.90363    -13.61186    141.19620    -0.19330    51.19620    -0.19330    51.19620    -13.61186    141.19620
17629073100.06478    -12.30120    132.76005    -0.26350    42.76005    -0.26350    42.76005    -12.30120    132.76005
17661419897.21386    -11.47372    124.47760    -0.32089    34.47760    -0.32089    34.47760    -11.47372    124.47760
17693826046.05317    -11.00668    116.29517    -0.35887    26.29517    -0.35887    26.29517    -11.00668    116.29517
17726291655.48454    -10.83675    108.15267    -0.37382    18.15267    -0.37382    18.15267    -10.83675    108.15267
17758816834.60943    -10.93553    99.98952    -0.36505    9.98952    -0.36505    9.98952    -10.93553    99.98952
17791401692.72966    -11.30001    91.74964    -0.33450    1.74964    -0.33450    1.74964    -11.30001    91.74964
17824046339.34754    -11.95034    83.38568    -0.28641    -6.61432    -0.28641    -6.61432    -11.95034    83.38568
17856750884.16632    -12.93389    74.86287    -0.22682    -15.13713    -0.22682    -15.13713    -12.93389    74.86287
17889515437.09059    -14.33868    66.16210    -0.16294    -23.83790    -0.16294    -23.83790    -14.33868    66.16210
17922340108.22640    -16.32865    57.28189    -0.10234    -32.71811    -0.10234    -32.71811    -16.32865    57.28189
17955225007.88205    -19.24726    48.23857    -0.05196    -41.76143    -0.05196    -41.76143    -19.24726    48.23857
17988170246.56812    -24.03011    39.06382    -0.01720    -50.93618    -0.01720    -50.93618    -24.03011    39.06382
18021175934.99803    -35.95937    29.79976    -0.00110    -60.20024    -0.00110    -60.20024    -35.95937    29.79976
18054242184.08836    -30.48798    -159.50807    -0.00388    -69.50807    -0.00388    -69.50807    -30.48798    -159.50807
18087369104.95903    -22.76285    -168.81830    -0.02305    -78.81830    -0.02305    -78.81830    -22.76285    -168.81830
18120556808.93402    -19.08874    -178.10035    -0.05390    -88.10035    -0.05390    -88.10035    -19.08874    -178.10035
18153805407.54156    -16.86028    172.66130    -0.09042    -97.33870    -0.09042    -97.33870    -16.86028    172.66130
18187115012.51446    -15.42800    163.46558    -0.12626    -106.53442    -0.12626    -106.53442    -15.42800    163.46558
18220485735.79065    -14.53251    154.29607    -0.15570    -115.70393    -0.15570    -115.70393    -14.53251    154.29607
18253917689.51322    -14.05040    145.12407    -0.17435    -124.87593    -0.17435    -124.87593    -14.05040    145.12407
18287410986.03126    -13.92240    135.91292    -0.17968    -134.08708    -0.17968    -134.08708    -13.92240    135.91292
18320965737.89991    -14.12813    126.62289    -0.17120    -143.37711    -0.17120    -143.37711    -14.12813    126.62289
18354582057.88091    -14.67807    117.21611    -0.15048    -152.78389    -0.15048    -152.78389    -14.67807    117.21611
18388260058.94270    -15.61557    107.66119    -0.12085    -162.33881    -0.12085    -162.33881    -15.61557    107.66119
18421999854.26120    -17.03065    97.93713    -0.08691    -172.06287    -0.08691    -172.06287    -17.03065    97.93713
18455801557.21993    -19.09959    88.03578    -0.05377    178.03578    -0.05377    178.03578    -19.09959    88.03578
18489665281.41044    -22.20602    77.96233    -0.02621    167.96233    -0.02621    167.96233    -22.20602    77.96233
18523591140.63279    -27.45445    67.73324    -0.00781    157.73324    -0.00781    157.73324    -27.45445    67.73324
18557579248.89563    -42.77211    57.37163    -0.00023    147.37163    -0.00023    147.37163    -42.77211    57.37163
18591629720.41700    -31.74946    -133.09913    -0.00290    136.90087    -0.00290    136.90087    -31.74946    -133.09913
18625742669.62446    -25.17517    -143.66230    -0.01321    126.33770    -0.01321    126.33770    -25.17517    -143.66230
18659918211.15551    -22.06305    -154.31341    -0.02709    115.68659    -0.02709    115.68659    -22.06305    -154.31341
18694156459.85808    -20.37640    -165.06346    -0.04001    104.93654    -0.04001    104.93654    -20.37640    -165.06346
18728457530.79062    -19.58888    -175.93882    -0.04801    94.06118    -0.04801    94.06118    -19.58888    -175.93882
18762821539.22288    -19.52981    173.02195    -0.04867    83.02195    -0.04867    83.02195    -19.52981    173.02195
18797248600.63607    -20.19336    161.77405    -0.04174    71.77405    -0.04174    71.77405    -20.19336    161.77405
18831738830.72329    -21.72694    150.27387    -0.02928    60.27387    -0.02928    60.27387    -21.72694    150.27387
18866292345.38996    -24.56733    138.48653    -0.01520    48.48653    -0.01520    48.48653    -24.56733    138.48653
18900909260.75401    -30.18868    126.39146    -0.00416    36.39146    -0.00416    36.39146    -30.18868    126.39146
18935589693.14659    -86.67056    -66.01680    -0.00000    23.98323    -0.00000    23.98323    -86.67056    -66.01675
18970333759.11227    -30.24999    -78.73424    -0.00410    11.26576    -0.00410    11.26576    -30.24999    -78.73424
19005141575.40950    -24.80768    -91.76033    -0.01438    -1.76033    -0.01438    -1.76033    -24.80768    -91.76033
19040013259.01077    -22.31835    -105.11458    -0.02554    -15.11458    -0.02554    -15.11458    -22.31835    -105.11458
19074948927.10342    -21.47896    -118.85184    -0.03101    -28.85184    -0.03101    -28.85184    -21.47896    -118.85184
19109948697.08973    -22.19498    -133.06859    -0.02628    -43.06859    -0.02628    -43.06859    -22.19498    -133.06859
19145012686.58738    -25.29071    -147.89343    -0.01286    -57.89343    -0.01286    -57.89343    -25.29071    -147.89343
19180141013.42996    -37.02832    -163.45733    -0.00086    -73.45733    -0.00086    -73.45733    -37.02832    -163.45733
19215333795.66704    -27.82628    0.15148    -0.00717    -89.84852    -0.00717    -89.84852    -27.82628    0.15148
19250591151.56500    -19.77909    -17.07954    -0.04594    -107.07954    -0.04594    -107.07954    -19.77909    -17.07954
19285913199.60718    -15.95724    -35.12586    -0.11159    -125.12586    -0.11159    -125.12586    -15.95724    -35.12586
19321300058.49428    -14.30674    -54.10663    -0.16417    -144.10663    -0.16417    -144.10663    -14.30674    -54.10663
19356751847.14490    -15.02563    -74.64704    -0.13872    -164.64704    -0.13872    -164.64704    -15.02563    -74.64704
19392268684.69561    -22.59081    -98.39971    -0.02398    171.60029    -0.02398    171.60029    -22.59081    -98.39971
19427850690.50180    -15.40034    51.85475    -0.12708    141.85475    -0.12708    141.85475    -15.40034    51.85475
19463497984.13778    -5.50145    15.90224    -1.43721    105.90224    -1.43721    105.90224    -5.50145    15.90224
19499210685.39728    -1.85325    -17.74766    -4.59223    72.25234    -4.59223    72.25234    -1.85325    -17.74766
19534988914.29387    -0.64099    -42.33929    -8.62588    47.66071    -8.62588    47.66071    -0.64099    -42.33929
19570832791.06115    -0.24408    -59.43195    -12.62403    30.56805    -12.62403    30.56805    -0.24408    -59.43195
19606742436.15353    -0.10254    -71.90593    -16.32004    18.09407    -16.32004    18.09407    -0.10254    -71.90593
19642717970.24637    -0.04681    -81.55083    -19.69764    8.44917    -19.69764    8.44917    -0.04681    -81.55083
19678759514.23643    -0.02288    -89.35479    -22.79464    0.64521    -22.79464    0.64521    -0.02288    -89.35479
19714867189.24241    -0.01183    -95.88276    -25.65252    -5.88276    -25.65252    -5.88276    -0.01183    -95.88276
19751041116.60499    -0.00642    -101.47852    -28.30652    -11.47852    -28.30652    -11.47852    -0.00642    -101.47852
19787281417.88774    -0.00363    -106.36433    -30.78531    -16.36433    -30.78531    -16.36433    -0.00363    -106.36433
19823588214.87718    -0.00212    -110.69147    -33.11224    -20.69147    -33.11224    -20.69147    -0.00212    -110.69147
19859961629.58339    -0.00128    -114.56750    -35.30674    -24.56750    -35.30674    -24.56750    -0.00128    -114.56750
19896401784.24009    -0.00079    -118.07161    -37.38540    -28.07161    -37.38540    -28.07161    -0.00079    -118.07161
19932908801.30549    -0.00050    -121.26384    -39.36276    -31.26384    -39.36276    -31.26384    -0.00050    -121.26384
19969482803.46245    -0.00033    -124.19082    -41.25191    -34.19082    -41.25191    -34.19082    -0.00033    -124.19082
20006123913.61890    -0.00021    -126.88954    -43.06493    -36.88954    -43.06493    -36.88954    -0.00021    -126.88954
20042832254.90838    -0.00014    -129.38982    -44.81322    -39.38982    -44.81322    -39.38982    -0.00014    -129.38982
20079607950.69015    -0.00010    -131.71607    -46.50783    -41.71607    -46.50783    -41.71607    -0.00010    -131.71607
20116451124.55001    -0.00007    -133.88853    -48.15971    -43.88853    -48.15971    -43.88853    -0.00007    -133.88853
20153361900.30048    -0.00005    -135.92419    -49.77995    -45.92419    -49.77995    -45.92419    -0.00005    -135.92419
20190340401.98131    -0.00003    -137.83742    -51.38018    -47.83742    -51.38018    -47.83742    -0.00003    -137.83742
20227386753.85964    -0.00002    -139.64049    -52.97288    -49.64049    -52.97288    -49.64049    -0.00002    -139.64049
20264501080.43082    -0.00002    -141.34398    -54.57197    -51.34398    -54.57197    -51.34398    -0.00002    -141.34398
20301683506.41858    -0.00001    -142.95707    -56.19353    -52.95707    -56.19353    -52.95707    -0.00001    -142.95707
20338934156.77549    -0.00001    -144.48773    -57.85696    -54.48773    -57.85696    -54.48773    -0.00001    -144.48773
20376253156.68346    -0.00000    -145.94301    -59.58674    -55.94301    -59.58674    -55.94301    -0.00000    -145.94301
20413640631.55387    -0.00000    -147.32909    -61.41539    -57.32909    -61.41539    -57.32909    -0.00000    -147.32909
20451096707.02846    -0.00000    -148.65147    -63.38869    -58.65147    -63.38869    -58.65147    -0.00000    -148.65147
20488621508.97939    -0.00000    -149.91502    -65.57573    -59.91502    -65.57573    -59.91502    -0.00000    -149.91502
20526215163.50980    -0.00000    -151.12414    -68.09031    -61.12414    -68.09031    -61.12414    -0.00000    -151.12414
20563877796.95428    -0.00000    -152.28273    -71.14386    -62.28273    -71.14386    -62.28273    -0.00000    -152.28273
20601609535.87901    -0.00000    -153.39435    -75.21030    -63.39435    -75.21030    -63.39435    -0.00000    -153.39435
20639410507.08260    -0.00000    -154.46217    -81.81419    -64.46217    -81.81419    -64.46217    -0.00000    -154.46217
20677280837.59627    -0.00000    -155.48911    -115.60180    114.51089    -115.60180    114.51089    -0.00000    -155.48911
20715220654.68431    -0.00000    -156.47779    -82.36323    113.52221    -82.36323    113.52221    -0.00000    -156.47779
20753230085.84461    -0.00000    -157.43062    -76.86197    112.56938    -76.86197    112.56938    -0.00000    -157.43062
20791309258.80875    -0.00000    -158.34978    -73.78199    111.65022    -73.78199    111.65022    -0.00000    -158.34978
20829458301.54294    -0.00000    -159.23730    -71.69366    110.76270    -71.69366    110.76270    -0.00000    -159.23730
20867677342.24807    -0.00000    -160.09501    -70.14467    109.90499    -70.14467    109.90499    -0.00000    -160.09501
20905966509.36030    -0.00000    -160.92462    -68.93304    109.07538    -68.93304    109.07538    -0.00000    -160.92462
20944325931.55151    -0.00000    -161.72770    -67.95112    108.27230    -67.95112    108.27230    -0.00000    -161.72770
20982755737.72944    -0.00000    -162.50568    -67.13482    107.49432    -67.13482    107.49432    -0.00000    -162.50568
21021256057.03859    -0.00000    -163.25992    -66.44295    106.74008    -66.44295    106.74008    -0.00000    -163.25992
21059827018.86037    -0.00000    -163.99166    -65.84755    106.00834    -65.84755    106.00834    -0.00000    -163.99166
21098468752.81354    -0.00000    -164.70204    -65.32880    105.29796    -65.32880    105.29796    -0.00000    -164.70204
21137181388.75480    -0.00000    -165.39215    -64.87218    104.60785    -64.87218    104.60785    -0.00000    -165.39215
21175965056.77889    -0.00000    -166.06299    -64.46675    103.93701    -64.46675    103.93701    -0.00000    -166.06299
21214819887.21947    -0.00000    -166.71548    -64.10406    103.28452    -64.10406    103.28452    -0.00000    -166.71548
21253746010.64927    -0.00000    -167.35050    -63.77751    102.64950    -63.77751    102.64950    -0.00000    -167.35050
21292743557.88068    -0.00000    -167.96888    -63.48181    102.03112    -63.48181    102.03112    -0.00000    -167.96888
21331812659.96589    -0.00000    -168.57136    -63.21267    101.42864    -63.21267    101.42864    -0.00000    -168.57136
21370953448.19778    -0.00000    -169.15867    -62.96659    100.84133    -62.96659    100.84133    -0.00000    -169.15867
21410166054.11003    -0.00000    -169.73149    -62.74066    100.26851    -62.74066    100.26851    -0.00000    -169.73149
21449450609.47771    -0.00000    -170.29045    -62.53246    99.70955    -62.53246    99.70955    -0.00000    -170.29045
21488807246.31773    -0.00000    -170.83613    -62.33992    99.16387    -62.33992    99.16387    -0.00000    -170.83613
21528236096.88898    -0.00000    -171.36911    -62.16132    98.63089    -62.16132    98.63089    -0.00000    -171.36911
21567737293.69331    -0.00000    -171.88992    -61.99514    98.11008    -61.99514    98.11008    -0.00000    -171.88992
21607310969.47557    -0.00000    -172.39905    -61.84011    97.60095    -61.84011    97.60095    -0.00000    -172.39905
21646957257.22419    -0.00000    -172.89698    -61.69511    97.10302    -61.69511    97.10302    -0.00000    -172.89698
21686676290.17170    -0.00000    -173.38415    -61.55915    96.61585    -61.55915    96.61585    -0.00000    -173.38415
21726468201.79485    -0.00000    -173.86100    -61.43140    96.13900    -61.43140    96.13900    -0.00000    -173.86100
21766333125.81555    -0.00000    -174.32790    -61.31110    95.67210    -61.31110    95.67210    -0.00000    -174.32790
21806271196.20096    -0.00000    -174.78526    -61.19758    95.21474    -61.19758    95.21474    -0.00000    -174.78526
21846282547.16416    -0.00000    -175.23343    -61.09026    94.76657    -61.09026    94.76657    -0.00000    -175.23343
21886367313.16425    -0.00000    -175.67275    -60.98862    94.32725    -60.98862    94.32725    -0.00000    -175.67275
21926525628.90727    -0.00000    -176.10355    -60.89217    93.89645    -60.89217    93.89645    -0.00000    -176.10355
21966757629.34634    -0.00000    -176.52614    -60.80051    93.47386    -60.80051    93.47386    -0.00000    -176.52614
22007063449.68223    -0.00000    -176.94081    -60.71326    93.05919    -60.71326    93.05919    -0.00000    -176.94081
22047443225.36383    -0.00000    -177.34784    -60.63006    92.65216    -60.63006    92.65216    -0.00000    -177.34784
22087897092.08834    -0.00000    -177.74751    -60.55063    92.25249    -60.55063    92.25249    -0.00000    -177.74751
22128425185.80217    -0.00000    -178.14006    -60.47466    91.85994    -60.47466    91.85994    -0.00000    -178.14006
22169027642.70111    -0.00000    -178.52575    -60.40192    91.47425    -60.40192    91.47425    -0.00000    -178.52575
22209704599.23084    -0.00000    -178.90480    -60.33217    91.09520    -60.33217    91.09520    -0.00000    -178.90480
22250456192.08747    -0.00000    -179.27743    -60.26520    90.72257    -60.26520    90.72257    -0.00000    -179.27743
22291282558.21770    -0.00000    -179.64387    -60.20082    90.35613    -60.20082    90.35613    -0.00000    -179.64387
22332183834.81975    -0.00000    179.99569    -60.13884    89.99569    -60.13884    89.99569    -0.00000    179.99569
22373160159.34348    -0.00000    179.64106    -60.07911    89.64106    -60.07911    89.64106    -0.00000    179.64106
22414211669.49097    -0.00000    179.29204    -60.02148    89.29204    -60.02148    89.29204    -0.00000    179.29204
22455338503.21703    -0.00000    178.94846    -59.96581    88.94846    -59.96581    88.94846    -0.00000    178.94846
22496540798.72936    -0.00000    178.61014    -59.91197    88.61014    -59.91197    88.61014    -0.00000    178.61014
22537818694.48951    -0.00000    178.27692    -59.85985    88.27692    -59.85985    88.27692    -0.00000    178.27692
22579172329.21297    -0.00000    177.94865    -59.80933    87.94865    -59.80933    87.94865    -0.00000    177.94865
22620601841.86979    -0.00000    177.62517    -59.76032    87.62517    -59.76032    87.62517    -0.00000    177.62517
22662107371.68507    -0.00000    177.30634    -59.71272    87.30634    -59.71272    87.30634    -0.00000    177.30634
22703689058.13912    -0.00000    176.99202    -59.66645    86.99202    -59.66645    86.99202    -0.00000    176.99202
22745347040.96844    -0.00000    176.68207    -59.62143    86.68207    -59.62143    86.68207    -0.00000    176.68207
22787081460.16583    -0.00000    176.37636    -59.57758    86.37636    -59.57758    86.37636    -0.00000    176.37636
22828892455.98096    -0.00000    176.07477    -59.53483    86.07477    -59.53483    86.07477    -0.00000    176.07477
22870780168.92093    -0.00000    175.77718    -59.49312    85.77718    -59.49312    85.77718    -0.00000    175.77718
22912744739.75038    -0.00000    175.48347    -59.45239    85.48347    -59.45239    85.48347    -0.00000    175.48347
22954786309.49250    -0.00000    175.19354    -59.41257    85.19354    -59.41257    85.19354    -0.00000    175.19354
22996905019.42915    -0.00001    174.90727    -59.37363    84.90727    -59.37363    84.90727    -0.00001    174.90727
23039101011.10149    -0.00001    174.62456    -59.33549    84.62456    -59.33549    84.62456    -0.00001    174.62456
23081374426.31017    -0.00001    174.34532    -59.29813    84.34532    -59.29813    84.34532    -0.00001    174.34532
23123725407.11625    -0.00001    174.06944    -59.26150    84.06944    -59.26150    84.06944    -0.00001    174.06944
23166154095.84136    -0.00001    173.79684    -59.22556    83.79684    -59.22556    83.79684    -0.00001    173.79684
23208660635.06830    -0.00001    173.52742    -59.19026    83.52742    -59.19026    83.52742    -0.00001    173.52742
23251245167.64154    -0.00001    173.26110    -59.15557    83.26110    -59.15557    83.26110    -0.00001    173.26110
23293907836.66742    -0.00001    172.99779    -59.12146    82.99779    -59.12146    82.99779    -0.00001    172.99779
23336648785.51511    -0.00001    172.73742    -59.08790    82.73742    -59.08790    82.73742    -0.00001    172.73742
23379468157.81674    -0.00001    172.47990    -59.05485    82.47990    -59.05485    82.47990    -0.00001    172.47990
23422366097.46799    -0.00001    172.22515    -59.02229    82.22515    -59.02229    82.22515    -0.00001    172.22515
23465342748.62868    -0.00001    171.97312    -58.99019    81.97312    -58.99019    81.97312    -0.00001    171.97312
23508398255.72285    -0.00001    171.72372    -58.95853    81.72372    -58.95853    81.72372    -0.00001    171.72372
23551532763.43981    -0.00001    171.47689    -58.92728    81.47689    -58.92728    81.47689    -0.00001    171.47689
23594746416.73427    -0.00001    171.23255    -58.89642    81.23255    -58.89642    81.23255    -0.00001    171.23255
23638039360.82698    -0.00001    170.99066    -58.86592    80.99066    -58.86592    80.99066    -0.00001    170.99066
23681411741.20493    -0.00001    170.75113    -58.83578    80.75113    -58.83578    80.75113    -0.00001    170.75113
23724863703.62226    -0.00001    170.51392    -58.80596    80.51392    -58.80596    80.51392    -0.00001    170.51392
23768395394.10052    -0.00001    170.27896    -58.77646    80.27896    -58.77646    80.27896    -0.00001    170.27896
23812006958.92914    -0.00001    170.04620    -58.74725    80.04620    -58.74725    80.04620    -0.00001    170.04620
23855698544.66609    -0.00001    169.81559    -58.71832    79.81559    -58.71832    79.81559    -0.00001    169.81559
23899470298.13797    -0.00001    169.58706    -58.68965    79.58706    -58.68965    79.58706    -0.00001    169.58706
23943322366.44107    -0.00001    169.36056    -58.66124    79.36056    -58.66124    79.36056    -0.00001    169.36056
23987254896.94146    -0.00001    169.13606    -58.63305    79.13606    -58.63305    79.13606    -0.00001    169.13606
24031268037.27563    -0.00001    168.91349    -58.60509    78.91349    -58.60509    78.91349    -0.00001    168.91349
24075361935.35105    -0.00001    168.69281    -58.57734    78.69281    -58.57734    78.69281    -0.00001    168.69281
24119536739.34631    -0.00001    168.47397    -58.54979    78.47397    -58.54979    78.47397    -0.00001    168.47397
24163792597.71214    -0.00001    168.25694    -58.52243    78.25694    -58.52243    78.25694    -0.00001    168.25694
24208129659.17158    -0.00001    168.04165    -58.49524    78.04165    -58.49524    78.04165    -0.00001    168.04165
24252548072.72056    -0.00001    167.82808    -58.46822    77.82808    -58.46822    77.82808    -0.00001    167.82808
24297047987.62846    -0.00001    167.61618    -58.44136    77.61618    -58.44136    77.61618    -0.00001    167.61618
24341629553.43831    -0.00001    167.40591    -58.41464    77.40591    -58.41464    77.40591    -0.00001    167.40591
24386292919.96778    -0.00001    167.19723    -58.38807    77.19723    -58.38807    77.19723    -0.00001    167.19723
24431038237.30935    -0.00001    166.99010    -58.36163    76.99010    -58.36163    76.99010    -0.00001    166.99010
24475865655.83090    -0.00001    166.78449    -58.33531    76.78449    -58.33531    76.78449    -0.00001    166.78449
24520775326.17630    -0.00001    166.58036    -58.30910    76.58036    -58.30910    76.58036    -0.00001    166.58036
24565767399.26555    -0.00001    166.37767    -58.28301    76.37767    -58.28301    76.37767    -0.00001    166.37767
24610842026.29586    -0.00001    166.17640    -58.25702    76.17640    -58.25702    76.17640    -0.00001    166.17640
24655999358.74175    -0.00001    165.97649    -58.23113    75.97649    -58.23113    75.97649    -0.00001    165.97649
24701239548.35569    -0.00001    165.77794    -58.20532    75.77794    -58.20532    75.77794    -0.00001    165.77794
24746562747.16869    -0.00001    165.58069    -58.17960    75.58069    -58.17960    75.58069    -0.00001    165.58069
24791969107.49041    -0.00001    165.38473    -58.15396    75.38473    -58.15396    75.38473    -0.00001    165.38473
24837458781.91029    -0.00001    165.19002    -58.12840    75.19002    -58.12840    75.19002    -0.00001    165.19002
24883031923.29763    -0.00001    164.99653    -58.10290    74.99653    -58.10290    74.99653    -0.00001    164.99653
24928688684.80223    -0.00001    164.80423    -58.07746    74.80423    -58.07746    74.80423    -0.00001    164.80423
24974429219.85500    -0.00001    164.61309    -58.05209    74.61309    -58.05209    74.61309    -0.00001    164.61309
25020253682.16809    -0.00001    164.42309    -58.02677    74.42309    -58.02677    74.42309    -0.00001    164.42309
25066162225.73597    -0.00001    164.23421    -58.00150    74.23421    -58.00150    74.23421    -0.00001    164.23421
25112155004.83564    -0.00001    164.04640    -57.97627    74.04640    -57.97627    74.04640    -0.00001    164.04640
25158232174.02695    -0.00001    163.85966    -57.95109    73.85966    -57.95109    73.85966    -0.00001    163.85966
25204393888.15358    -0.00001    163.67394    -57.92595    73.67394    -57.92595    73.67394    -0.00001    163.67394
25250640302.34325    -0.00001    163.48924    -57.90084    73.48924    -57.90084    73.48924    -0.00001    163.48924
25296971572.00831    -0.00001    163.30552    -57.87577    73.30552    -57.87577    73.30552    -0.00001    163.30552
25343387852.84637    -0.00001    163.12276    -57.85072    73.12276    -57.85072    73.12276    -0.00001    163.12276
25389889300.84045    -0.00001    162.94095    -57.82570    72.94095    -57.82570    72.94095    -0.00001    162.94095
25436476072.26003    -0.00001    162.76004    -57.80071    72.76004    -57.80071    72.76004    -0.00001    162.76004
25483148323.66125    -0.00001    162.58003    -57.77573    72.58003    -57.77573    72.58003    -0.00001    162.58003
25529906211.88750    -0.00001    162.40090    -57.75077    72.40090    -57.75077    72.40090    -0.00001    162.40090
25576749894.07006    -0.00001    162.22262    -57.72583    72.22262    -57.72583    72.22262    -0.00001    162.22262
25623679527.62823    -0.00001    162.04517    -57.70089    72.04517    -57.70089    72.04517    -0.00001    162.04517
25670695270.27042    -0.00001    161.86853    -57.67597    71.86853    -57.67597    71.86853    -0.00001    161.86853
25717797279.99436    -0.00001    161.69268    -57.65106    71.69268    -57.65106    71.69268    -0.00001    161.69268
25764985715.08764    -0.00001    161.51761    -57.62615    71.51761    -57.62615    71.51761    -0.00001    161.51761
25812260734.12840    -0.00001    161.34328    -57.60125    71.34328    -57.60125    71.34328    -0.00001    161.34328
25859622495.98545    -0.00001    161.16970    -57.57634    71.16970    -57.57634    71.16970    -0.00001    161.16970
25907071159.81942    -0.00001    160.99683    -57.55144    70.99683    -57.55144    70.99683    -0.00001    160.99683
25954606885.08283    -0.00001    160.82466    -57.52654    70.82466    -57.52654    70.82466    -0.00001    160.82466
26002229831.52083    -0.00001    160.65318    -57.50163    70.65318    -57.50163    70.65318    -0.00001    160.65318
26049940159.17171    -0.00001    160.48235    -57.47671    70.48235    -57.47671    70.48235    -0.00001    160.48235
26097738028.36718    -0.00001    160.31218    -57.45179    70.31218    -57.45179    70.31218    -0.00001    160.31218
26145623599.73340    -0.00001    160.14264    -57.42685    70.14264    -57.42685    70.14264    -0.00001    160.14264
26193597034.19114    -0.00001    159.97371    -57.40191    69.97371    -57.40191    69.97371    -0.00001    159.97371
26241658492.95647    -0.00001    159.80539    -57.37696    69.80539    -57.37696    69.80539    -0.00001    159.80539
26289808137.54133    -0.00001    159.63765    -57.35199    69.63765    -57.35199    69.63765    -0.00001    159.63765
26338046129.75375    -0.00001    159.47048    -57.32701    69.47048    -57.32701    69.47048    -0.00001    159.47048
26386372631.69894    -0.00001    159.30386    -57.30201    69.30386    -57.30201    69.30386    -0.00001    159.30386
26434787805.77944    -0.00001    159.13778    -57.27699    69.13778    -57.27699    69.13778    -0.00001    159.13778
26483291814.69579    -0.00001    158.97223    -57.25196    68.97223    -57.25196    68.97223    -0.00001    158.97223
26531884821.44714    -0.00001    158.80719    -57.22690    68.80719    -57.22690    68.80719    -0.00001    158.80719
26580566989.33144    -0.00001    158.64264    -57.20183    68.64264    -57.20183    68.64264    -0.00001    158.64264
26629338481.94657    -0.00001    158.47858    -57.17673    68.47858    -57.17673    68.47858    -0.00001    158.47858
26678199463.19047    -0.00001    158.31499    -57.15161    68.31499    -57.15161    68.31499    -0.00001    158.31499
26727150097.26183    -0.00001    158.15185    -57.12646    68.15185    -57.12646    68.15185    -0.00001    158.15185
26776190548.66069    -0.00001    157.98916    -57.10129    67.98916    -57.10129    67.98916    -0.00001    157.98916
26825320982.18867    -0.00001    157.82690    -57.07610    67.82690    -57.07610    67.82690    -0.00001    157.82690
26874541562.95003    -0.00001    157.66506    -57.05087    67.66506    -57.05087    67.66506    -0.00001    157.66506
26923852456.35191    -0.00001    157.50362    -57.02562    67.50362    -57.02562    67.50362    -0.00001    157.50362
26973253828.10492    -0.00001    157.34258    -57.00034    67.34258    -57.00034    67.34258    -0.00001    157.34258
27022745844.22383    -0.00001    157.18192    -56.97503    67.18192    -56.97503    67.18192    -0.00001    157.18192
27072328671.02776    -0.00001    157.02163    -56.94969    67.02163    -56.94969    67.02163    -0.00001    157.02163
27122002475.14124    -0.00001    156.86169    -56.92432    66.86169    -56.92432    66.86169    -0.00001    156.86169
27171767423.49448    -0.00001    156.70211    -56.89892    66.70211    -56.89892    66.70211    -0.00001    156.70211
27221623683.32395    -0.00001    156.54286    -56.87348    66.54286    -56.87348    66.54286    -0.00001    156.54286
27271571422.17311    -0.00001    156.38393    -56.84801    66.38393    -56.84801    66.38393    -0.00001    156.38393
27321610807.89251    -0.00001    156.22532    -56.82251    66.22532    -56.82251    66.22532    -0.00001    156.22532
27371742008.64098    -0.00001    156.06700    -56.79697    66.06700    -56.79697    66.06700    -0.00001    156.06700
27421965192.88593    -0.00001    155.90898    -56.77139    65.90898    -56.77139    65.90898    -0.00001    155.90898
27472280529.40353    -0.00001    155.75125    -56.74578    65.75125    -56.74578    65.75125    -0.00001    155.75125
27522688187.27999    -0.00001    155.59378    -56.72013    65.59378    -56.72013    65.59378    -0.00001    155.59378
27573188335.91163    -0.00001    155.43657    -56.69444    65.43657    -56.69444    65.43657    -0.00001    155.43657
27623781145.00559    -0.00001    155.27962    -56.66872    65.27962    -56.66872    65.27962    -0.00001    155.27962
27674466784.58051    -0.00001    155.12290    -56.64295    65.12290    -56.64295    65.12290    -0.00001    155.12290
27725245424.96667    -0.00001    154.96642    -56.61715    64.96642    -56.61715    64.96642    -0.00001    154.96642
27776117236.80722    -0.00001    154.81015    -56.59131    64.81015    -56.59131    64.81015    -0.00001    154.81015
27827082391.05828    -0.00001    154.65410    -56.56542    64.65410    -56.56542    64.65410    -0.00001    154.65410
27878141058.98966    -0.00001    154.49825    -56.53950    64.49825    -56.53950    64.49825    -0.00001    154.49825
27929293412.18553    -0.00001    154.34259    -56.51353    64.34259    -56.51353    64.34259    -0.00001    154.34259
27980539622.54458    -0.00001    154.18712    -56.48752    64.18712    -56.48752    64.18712    -0.00001    154.18712
28031879862.28123    -0.00001    154.03182    -56.46146    64.03182    -56.46146    64.03182    -0.00001    154.03182
28083314303.92576    -0.00001    153.87668    -56.43537    63.87668    -56.43537    63.87668    -0.00001    153.87668
28134843120.32505    -0.00001    153.72171    -56.40923    63.72171    -56.40923    63.72171    -0.00001    153.72171
28186466484.64320    -0.00001    153.56687    -56.38304    63.56687    -56.38304    63.56687    -0.00001    153.56687
28238184570.36177    -0.00001    153.41218    -56.35681    63.41218    -56.35681    63.41218    -0.00001    153.41218
28289997551.28090    -0.00001    153.25762    -56.33053    63.25762    -56.33053    63.25762    -0.00001    153.25762
28341905601.51956    -0.00001    153.10318    -56.30421    63.10318    -56.30421    63.10318    -0.00001    153.10318
28393908895.51619    -0.00001    152.94885    -56.27784    62.94885    -56.27784    62.94885    -0.00001    152.94885
28446007608.02938    -0.00001    152.79463    -56.25142    62.79463    -56.25142    62.79463    -0.00001    152.79463
28498201914.13812    -0.00001    152.64051    -56.22496    62.64051    -56.22496    62.64051    -0.00001    152.64051
28550491989.24290    -0.00001    152.48647    -56.19845    62.48647    -56.19845    62.48647    -0.00001    152.48647
28602878009.06597    -0.00001    152.33251    -56.17189    62.33251    -56.17189    62.33251    -0.00001    152.33251
28655360149.65201    -0.00001    152.17863    -56.14528    62.17863    -56.14528    62.17863    -0.00001    152.17863
28707938587.36879    -0.00001    152.02481    -56.11862    62.02481    -56.11862    62.02481    -0.00001    152.02481
28760613498.90741    -0.00001    151.87104    -56.09191    61.87104    -56.09191    61.87104    -0.00001    151.87104
28813385061.28347    -0.00001    151.71733    -56.06515    61.71733    -56.06515    61.71733    -0.00001    151.71733
28866253451.83726    -0.00001    151.56365    -56.03833    61.56365    -56.03833    61.56365    -0.00001    151.56365
28919218848.23458    -0.00001    151.41001    -56.01147    61.41001    -56.01147    61.41001    -0.00001    151.41001
28972281428.46690    -0.00001    151.25639    -55.98455    61.25639    -55.98455    61.25639    -0.00001    151.25639
29025441370.85259    -0.00001    151.10280    -55.95759    61.10280    -55.95759    61.10280    -0.00001    151.10280
29078698854.03711    -0.00001    150.94921    -55.93056    60.94921    -55.93056    60.94921    -0.00001    150.94921
29132054056.99371    -0.00001    150.79562    -55.90349    60.79562    -55.90349    60.79562    -0.00001    150.79562
29185507159.02412    -0.00001    150.64203    -55.87636    60.64203    -55.87636    60.64203    -0.00001    150.64203
29239058339.75877    -0.00001    150.48843    -55.84918    60.48843    -55.84918    60.48843    -0.00001    150.48843
29292707779.15798    -0.00001    150.33481    -55.82194    60.33481    -55.82194    60.33481    -0.00001    150.33481
29346455657.51218    -0.00001    150.18116    -55.79465    60.18116    -55.79465    60.18116    -0.00001    150.18116
29400302155.44260    -0.00001    150.02748    -55.76730    60.02748    -55.76730    60.02748    -0.00001    150.02748
29454247453.90200    -0.00001    149.87376    -55.73989    59.87376    -55.73989    59.87376    -0.00001    149.87376
29508291734.17483    -0.00001    149.71999    -55.71243    59.71999    -55.71243    59.71999    -0.00001    149.71999
29562435177.87849    -0.00001    149.56616    -55.68491    59.56616    -55.68491    59.56616    -0.00001    149.56616
29616677966.96354    -0.00001    149.41227    -55.65733    59.41227    -55.65733    59.41227    -0.00001    149.41227
29671020283.71445    -0.00001    149.25832    -55.62970    59.25832    -55.62970    59.25832    -0.00001    149.25832
29725462310.74989    -0.00001    149.10428    -55.60200    59.10428    -55.60200    59.10428    -0.00001    149.10428
29780004231.02390    -0.00001    148.95017    -55.57425    58.95017    -55.57425    58.95017    -0.00001    148.95017
29834646227.82610    -0.00001    148.79596    -55.54643    58.79596    -55.54643    58.79596    -0.00001    148.79596
29889388484.78245    -0.00001    148.64166    -55.51856    58.64166    -55.51856    58.64166    -0.00001    148.64166
29944231185.85592    -0.00001    148.48726    -55.49062    58.48726    -55.49062    58.48726    -0.00001    148.48726
29999174515.34669    -0.00001    148.33274    -55.46263    58.33274    -55.46263    58.33274    -0.00001    148.33274
30054218657.89348    -0.00001    148.17811    -55.43457    58.17811    -55.43457    58.17811    -0.00001    148.17811
30109363798.47364    -0.00001    148.02335    -55.40645    58.02335    -55.40645    58.02335    -0.00001    148.02335
30164610122.40393    -0.00001    147.86846    -55.37826    57.86846    -55.37826    57.86846    -0.00001    147.86846
30219957815.34127    -0.00001    147.71344    -55.35002    57.71344    -55.35002    57.71344    -0.00001    147.71344
30275407063.28289    -0.00001    147.55827    -55.32171    57.55827    -55.32171    57.55827    -0.00001    147.55827
30330958052.56764    -0.00001    147.40295    -55.29333    57.40295    -55.29333    57.40295    -0.00001    147.40295
30386610969.87615    -0.00001    147.24747    -55.26489    57.24747    -55.26489    57.24747    -0.00001    147.24747
30442366002.23159    -0.00001    147.09183    -55.23638    57.09183    -55.23638    57.09183    -0.00001    147.09183
30498223337.00040    -0.00001    146.93602    -55.20781    56.93602    -55.20781    56.93602    -0.00001    146.93602
30554183161.89247    -0.00001    146.78003    -55.17917    56.78003    -55.17917    56.78003    -0.00001    146.78003
30610245664.96246    -0.00001    146.62386    -55.15047    56.62386    -55.15047    56.62386    -0.00001    146.62386
30666411034.60996    -0.00001    146.46750    -55.12169    56.46750    -55.12169    56.46750    -0.00001    146.46750
30722679459.58025    -0.00001    146.31094    -55.09285    56.31094    -55.09285    56.31094    -0.00001    146.31094
30779051128.96504    -0.00001    146.15418    -55.06394    56.15418    -55.06394    56.15418    -0.00001    146.15418
30835526232.20266    -0.00001    145.99721    -55.03496    55.99721    -55.03496    55.99721    -0.00001    145.99721
30892104959.07937    -0.00001    145.84002    -55.00591    55.84002    -55.00591    55.84002    -0.00001    145.84002
30948787499.72955    -0.00001    145.68261    -54.97679    55.68261    -54.97679    55.68261    -0.00001    145.68261
31005574044.63643    -0.00001    145.52497    -54.94760    55.52497    -54.94760    55.52497    -0.00001    145.52497
31062464784.63290    -0.00001    145.36710    -54.91833    55.36710    -54.91833    55.36710    -0.00001    145.36710
31119459910.90163    -0.00001    145.20898    -54.88900    55.20898    -54.88900    55.20898    -0.00001    145.20898
31176559614.97643    -0.00001    145.05061    -54.85959    55.05061    -54.85959    55.05061    -0.00001    145.05061
31233764088.74244    -0.00001    144.89199    -54.83011    54.89199    -54.83011    54.89199    -0.00001    144.89199
31291073524.43699    -0.00001    144.73311    -54.80055    54.73311    -54.80055    54.73311    -0.00001    144.73311
31348488114.64980    -0.00001    144.57396    -54.77092    54.57396    -54.77092    54.57396    -0.00001    144.57396
31406008052.32429    -0.00001    144.41453    -54.74121    54.41453    -54.74121    54.41453    -0.00001    144.41453
31463633530.75782    -0.00001    144.25482    -54.71142    54.25482    -54.71142    54.25482    -0.00001    144.25482
31521364743.60239    -0.00001    144.09482    -54.68156    54.09482    -54.68156    54.09482    -0.00001    144.09482
31579201884.86545    -0.00001    143.93453    -54.65162    53.93453    -54.65162    53.93453    -0.00001    143.93453
31637145148.91010    -0.00001    143.77394    -54.62161    53.77394    -54.62161    53.77394    -0.00001    143.77394
31695194730.45639    -0.00002    143.61304    -54.59151    53.61304    -54.59151    53.61304    -0.00002    143.61304
31753350824.58154    -0.00002    143.45182    -54.56134    53.45182    -54.56134    53.45182    -0.00002    143.45182
31811613626.72084    -0.00002    143.29029    -54.53108    53.29029    -54.53108    53.29029    -0.00002    143.29029
31869983332.66780    -0.00002    143.12843    -54.50074    53.12843    -54.50074    53.12843    -0.00002    143.12843
31928460138.57557    -0.00002    142.96623    -54.47033    52.96623    -54.47033    52.96623    -0.00002    142.96623
31987044240.95705    -0.00002    142.80369    -54.43982    52.80369    -54.43982    52.80369    -0.00002    142.80369
32045735836.68576    -0.00002    142.64081    -54.40924    52.64081    -54.40924    52.64081    -0.00002    142.64081
32104535122.99653    -0.00002    142.47757    -54.37857    52.47757    -54.37857    52.47757    -0.00002    142.47757
32163442297.48576    -0.00002    142.31397    -54.34782    52.31397    -54.34782    52.31397    -0.00002    142.31397
32222457558.11277    -0.00002    142.15000    -54.31698    52.15000    -54.31698    52.15000    -0.00002    142.15000
32281581103.19995    -0.00002    141.98566    -54.28606    51.98566    -54.28606    51.98566    -0.00002    141.98566
32340813131.43364    -0.00002    141.82094    -54.25505    51.82094    -54.25505    51.82094    -0.00002    141.82094
32400153841.86480    -0.00002    141.65583    -54.22395    51.65583    -54.22395    51.65583    -0.00002    141.65583
32459603433.90931    -0.00002    141.49033    -54.19276    51.49033    -54.19276    51.49033    -0.00002    141.49033
32519162107.34928    -0.00002    141.32442    -54.16148    51.32442    -54.16148    51.32442    -0.00002    141.32442
32578830062.33329    -0.00002    141.15811    -54.13011    51.15811    -54.13011    51.15811    -0.00002    141.15811
32638607499.37714    -0.00002    140.99138    -54.09865    50.99138    -54.09865    50.99138    -0.00002    140.99138
32698494619.36468    -0.00002    140.82423    -54.06710    50.82423    -54.06710    50.82423    -0.00002    140.82423
32758491623.54801    -0.00002    140.65665    -54.03546    50.65665    -54.03546    50.65665    -0.00002    140.65665
32818598713.54883    -0.00002    140.48864    -54.00372    50.48864    -54.00372    50.48864    -0.00002    140.48864
32878816091.35868    -0.00002    140.32018    -53.97189    50.32018    -53.97189    50.32018    -0.00002    140.32018
32939143959.33973    -0.00002    140.15127    -53.93997    50.15127    -53.93997    50.15127    -0.00002    140.15127
32999582520.22557    -0.00002    139.98190    -53.90794    49.98190    -53.90794    49.98190    -0.00002    139.98190
33060131977.12141    -0.00002    139.81207    -53.87582    49.81207    -53.87582    49.81207    -0.00002    139.81207
33120792533.50549    -0.00002    139.64177    -53.84360    49.64177    -53.84360    49.64177    -0.00002    139.64177
33181564393.22931    -0.00002    139.47099    -53.81129    49.47099    -53.81129    49.47099    -0.00002    139.47099
33242447760.51836    -0.00002    139.29973    -53.77887    49.29973    -53.77887    49.29973    -0.00002    139.29973
33303442839.97301    -0.00002    139.12797    -53.74635    49.12797    -53.74635    49.12797    -0.00002    139.12797
33364549836.56868    -0.00002    138.95571    -53.71373    48.95571    -53.71373    48.95571    -0.00002    138.95571
33425768955.65724    -0.00002    138.78294    -53.68101    48.78294    -53.68101    48.78294    -0.00002    138.78294
33487100402.96723    -0.00002    138.60966    -53.64818    48.60966    -53.64818    48.60966    -0.00002    138.60966
33548544384.60468    -0.00002    138.43585    -53.61525    48.43585    -53.61525    48.43585    -0.00002    138.43585
33610101107.05390    -0.00002    138.26151    -53.58221    48.26151    -53.58221    48.26151    -0.00002    138.26151
33671770777.17773    -0.00002    138.08664    -53.54906    48.08664    -53.54906    48.08664    -0.00002    138.08664
33733553602.21891    -0.00002    137.91122    -53.51581    47.91122    -53.51581    47.91122    -0.00002    137.91122
33795449789.80035    -0.00002    137.73524    -53.48245    47.73524    -53.48245    47.73524    -0.00002    137.73524
33857459547.92589    -0.00002    137.55871    -53.44897    47.55871    -53.44897    47.55871    -0.00002    137.55871
33919583084.98116    -0.00002    137.38160    -53.41539    47.38160    -53.41539    47.38160    -0.00002    137.38160
33981820609.73379    -0.00002    137.20392    -53.38169    47.20392    -53.38169    47.20392    -0.00002    137.20392
34044172331.33482    -0.00002    137.02565    -53.34788    47.02565    -53.34788    47.02565    -0.00002    137.02565
34106638459.31893    -0.00002    136.84679    -53.31396    46.84679    -53.31396    46.84679    -0.00002    136.84679
34169219203.60540    -0.00002    136.66733    -53.27992    46.66733    -53.27992    46.66733    -0.00002    136.66733
34231914774.49831    -0.00002    136.48726    -53.24576    46.48726    -53.24576    46.48726    -0.00002    136.48726
34294725382.68797    -0.00002    136.30657    -53.21148    46.30657    -53.21148    46.30657    -0.00002    136.30657
34357651239.25119    -0.00002    136.12526    -53.17709    46.12526    -53.17709    46.12526    -0.00002    136.12526
34420692555.65203    -0.00002    135.94331    -53.14257    45.94331    -53.14257    45.94331    -0.00002    135.94331
34483849543.74272    -0.00002    135.76072    -53.10793    45.76072    -53.10793    45.76072    -0.00002    135.76072
34547122415.76380    -0.00002    135.57748    -53.07317    45.57748    -53.07317    45.57748    -0.00002    135.57748
34610511384.34565    -0.00002    135.39358    -53.03828    45.39358    -53.03828    45.39358    -0.00002    135.39358
34674016662.50864    -0.00002    135.20901    -53.00327    45.20901    -53.00327    45.20901    -0.00002    135.20901
34737638463.66413    -0.00002    135.02377    -52.96813    45.02377    -52.96813    45.02377    -0.00002    135.02377
34801377001.61472    -0.00002    134.83783    -52.93286    44.83783    -52.93286    44.83783    -0.00002    134.83783
34865232490.55563    -0.00002    134.65121    -52.89747    44.65121    -52.89747    44.65121    -0.00002    134.65121
34929205145.07502    -0.00002    134.46388    -52.86194    44.46388    -52.86194    44.46388    -0.00002    134.46388
34993295180.15475    -0.00002    134.27584    -52.82628    44.27584    -52.82628    44.27584    -0.00002    134.27584
35057502811.17128    -0.00002    134.08707    -52.79048    44.08707    -52.79048    44.08707    -0.00002    134.08707
35121828253.89589    -0.00002    133.89757    -52.75455    43.89757    -52.75455    43.89757    -0.00002    133.89757
35186271724.49612    -0.00002    133.70734    -52.71848    43.70734    -52.71848    43.70734    -0.00002    133.70734
35250833439.53606    -0.00002    133.51635    -52.68228    43.51635    -52.68228    43.51635    -0.00002    133.51635
35315513615.97713    -0.00002    133.32461    -52.64593    43.32461    -52.64593    43.32461    -0.00002    133.32461
35380312471.17896    -0.00002    133.13209    -52.60944    43.13209    -52.60944    43.13209    -0.00002    133.13209
35445230222.89967    -0.00002    132.93880    -52.57281    42.93880    -52.57281    42.93880    -0.00002    132.93880
35510267089.29727    -0.00002    132.74472    -52.53604    42.74472    -52.53604    42.74472    -0.00002    132.74472
35575423288.92995    -0.00002    132.54984    -52.49912    42.54984    -52.49912    42.54984    -0.00002    132.54984
35640699040.75694    -0.00002    132.35415    -52.46205    42.35415    -52.46205    42.35415    -0.00002    132.35415
35706094564.13932    -0.00002    132.15764    -52.42483    42.15764    -52.42483    42.15764    -0.00002    132.15764
35771610078.84030    -0.00003    131.96030    -52.38746    41.96030    -52.38746    41.96030    -0.00003    131.96030
35837245805.02671    -0.00003    131.76212    -52.34993    41.76212    -52.34993    41.76212    -0.00003    131.76212
35903001963.26923    -0.00003    131.56310    -52.31226    41.56310    -52.31226    41.56310    -0.00003    131.56310
35968878774.54325    -0.00003    131.36321    -52.27442    41.36321    -52.27442    41.36321    -0.00003    131.36321
36034876460.22974    -0.00003    131.16245    -52.23643    41.16245    -52.23643    41.16245    -0.00003    131.16245
36100995242.11549    -0.00003    130.96081    -52.19828    40.96081    -52.19828    40.96081    -0.00003    130.96081
36167235342.39462    -0.00003    130.75827    -52.15997    40.75827    -52.15997    40.75827    -0.00003    130.75827
36233596983.66883    -0.00003    130.55484    -52.12149    40.55484    -52.12149    40.55484    -0.00003    130.55484
36300080388.94825    -0.00003    130.35048    -52.08285    40.35048    -52.08285    40.35048    -0.00003    130.35048
36366685781.65234    -0.00003    130.14520    -52.04404    40.14520    -52.04404    40.14520    -0.00003    130.14520
36433413385.61008    -0.00003    129.93898    -52.00506    39.93898    -52.00506    39.93898    -0.00003    129.93898
36500263425.06159    -0.00003    129.73181    -51.96591    39.73181    -51.96591    39.73181    -0.00003    129.73181
36567236124.65826    -0.00003    129.52368    -51.92659    39.52368    -51.92659    39.52368    -0.00003    129.52368
36634331709.46383    -0.00003    129.31457    -51.88709    39.31457    -51.88709    39.31457    -0.00003    129.31457
36701550404.95461    -0.00003    129.10448    -51.84741    39.10448    -51.84741    39.10448    -0.00003    129.10448
36768892437.02103    -0.00003    128.89339    -51.80755    38.89339    -51.80755    38.89339    -0.00003    128.89339
36836358031.96783    -0.00003    128.68129    -51.76752    38.68129    -51.76752    38.68129    -0.00003    128.68129
36903947416.51502    -0.00003    128.46816    -51.72729    38.46816    -51.72729    38.46816    -0.00003    128.46816
36971660817.79873    -0.00003    128.25400    -51.68689    38.25400    -51.68689    38.25400    -0.00003    128.25400
37039498463.37145    -0.00003    128.03879    -51.64629    38.03879    -51.64629    38.03879    -0.00003    128.03879
37107460581.20361    -0.00003    127.82252    -51.60550    37.82252    -51.60550    37.82252    -0.00003    127.82252
37175547399.68377    -0.00003    127.60518    -51.56452    37.60518    -51.56452    37.60518    -0.00003    127.60518
37243759147.61957    -0.00003    127.38674    -51.52335    37.38674    -51.52335    37.38674    -0.00003    127.38674
37312096054.23862    -0.00003    127.16720    -51.48198    37.16720    -51.48198    37.16720    -0.00003    127.16720
37380558349.18871    -0.00003    126.94655    -51.44040    36.94655    -51.44040    36.94655    -0.00003    126.94655
37449146262.53941    -0.00003    126.72477    -51.39863    36.72477    -51.39863    36.72477    -0.00003    126.72477
37517860024.78230    -0.00003    126.50184    -51.35665    36.50184    -51.35665    36.50184    -0.00003    126.50184
37586699866.83202    -0.00003    126.27775    -51.31446    36.27775    -51.31446    36.27775    -0.00003    126.27775
37655666020.02650    -0.00003    126.05250    -51.27206    36.05250    -51.27206    36.05250    -0.00003    126.05250
37724758716.12852    -0.00003    125.82605    -51.22945    35.82605    -51.22945    35.82605    -0.00003    125.82605
37793978187.32603    -0.00003    125.59840    -51.18662    35.59840    -51.18662    35.59840    -0.00003    125.59840
37863324666.23294    -0.00003    125.36953    -51.14357    35.36953    -51.14357    35.36953    -0.00003    125.36953
37932798385.89017    -0.00003    125.13943    -51.10031    35.13943    -51.10031    35.13943    -0.00003    125.13943
38002399579.76579    -0.00003    124.90808    -51.05681    34.90808    -51.05681    34.90808    -0.00003    124.90808
38072128481.75669    -0.00003    124.67547    -51.01310    34.67547    -51.01310    34.67547    -0.00003    124.67547
38141985326.18877    -0.00003    124.44158    -50.96915    34.44158    -50.96915    34.44158    -0.00003    124.44158
38211970347.81789    -0.00004    124.20639    -50.92497    34.20639    -50.92497    34.20639    -0.00004    124.20639
38282083781.83078    -0.00004    123.96988    -50.88055    33.96988    -50.88055    33.96988    -0.00004    123.96988
38352325863.84531    -0.00004    123.73205    -50.83589    33.73205    -50.83589    33.73205    -0.00004    123.73205
38422696829.91207    -0.00004    123.49287    -50.79099    33.49287    -50.79099    33.49287    -0.00004    123.49287
38493196916.51464    -0.00004    123.25232    -50.74585    33.25232    -50.74585    33.25232    -0.00004    123.25232
38563826360.57052    -0.00004    123.01039    -50.70046    33.01039    -50.70046    33.01039    -0.00004    123.01039
38634585399.43204    -0.00004    122.76706    -50.65481    32.76706    -50.65481    32.76706    -0.00004    122.76706
38705474270.88663    -0.00004    122.52232    -50.60891    32.52232    -50.60891    32.52232    -0.00004    122.52232
38776493213.15845    -0.00004    122.27614    -50.56275    32.27614    -50.56275    32.27614    -0.00004    122.27614
38847642464.90862    -0.00004    122.02850    -50.51633    32.02850    -50.51633    32.02850    -0.00004    122.02850
38918922265.23616    -0.00004    121.77939    -50.46964    31.77939    -50.46964    31.77939    -0.00004    121.77939
38990332853.67896    -0.00004    121.52879    -50.42269    31.52879    -50.42269    31.52879    -0.00004    121.52879
39061874470.21400    -0.00004    121.27668    -50.37546    31.27668    -50.37546    31.27668    -0.00004    121.27668
39133547355.25899    -0.00004    121.02303    -50.32795    31.02303    -50.32795    31.02303    -0.00004    121.02303
39205351749.67265    -0.00004    120.76783    -50.28016    30.76783    -50.28016    30.76783    -0.00004    120.76783
39277287894.75564    -0.00004    120.51106    -50.23209    30.51106    -50.23209    30.51106    -0.00004    120.51106
39349356032.25150    -0.00004    120.25270    -50.18372    30.25270    -50.18372    30.25270    -0.00004    120.25270
39421556404.34692    -0.00004    119.99272    -50.13507    29.99272    -50.13507    29.99272    -0.00004    119.99272
39493889253.67339    -0.00004    119.73111    -50.08612    29.73111    -50.08612    29.73111    -0.00004    119.73111
39566354823.30759    -0.00004    119.46784    -50.03686    29.46784    -50.03686    29.46784    -0.00004    119.46784
39638953356.77180    -0.00004    119.20289    -49.98730    29.20289    -49.98730    29.20289    -0.00004    119.20289
39711685098.03552    -0.00004    118.93623    -49.93743    28.93623    -49.93743    28.93623    -0.00004    118.93623
39784550291.51580    -0.00004    118.66786    -49.88725    28.66786    -49.88725    28.66786    -0.00004    118.66786
39857549182.07813    -0.00005    118.39773    -49.83675    28.39773    -49.83675    28.39773    -0.00005    118.39773
39930682015.03744    -0.00005    118.12583    -49.78592    28.12583    -49.78592    28.12583    -0.00005    118.12583
40003949036.15836    -0.00005    117.85214    -49.73477    27.85214    -49.73477    27.85214    -0.00005    117.85214
40077350491.65688    -0.00005    117.57663    -49.68328    27.57663    -49.68328    27.57663    -0.00005    117.57663
40150886628.20064    -0.00005    117.29927    -49.63145    27.29927    -49.63145    27.29927    -0.00005    117.29927
40224557692.90983    -0.00005    117.02005    -49.57928    27.02005    -49.57928    27.02005    -0.00005    117.02005
40298363933.35827    -0.00005    116.73892    -49.52676    26.73892    -49.52676    26.73892    -0.00005    116.73892
40372305597.57357    -0.00005    116.45588    -49.47389    26.45588    -49.47389    26.45588    -0.00005    116.45588
40446382934.03889    -0.00005    116.17089    -49.42066    26.17089    -49.42066    26.17089    -0.00005    116.17089
40520596191.69317    -0.00005    115.88392    -49.36706    25.88392    -49.36706    25.88392    -0.00005    115.88392
40594945619.93211    -0.00005    115.59495    -49.31309    25.59495    -49.31309    25.59495    -0.00005    115.59495
40669431468.60918    -0.00005    115.30394    -49.25875    25.30394    -49.25875    25.30394    -0.00005    115.30394
40744053988.03583    -0.00005    115.01088    -49.20403    25.01088    -49.20403    25.01088    -0.00005    115.01088
40818813428.98325    -0.00005    114.71573    -49.14891    24.71573    -49.14891    24.71573    -0.00005    114.71573
40893710042.68261    -0.00005    114.41847    -49.09341    24.41847    -49.09341    24.41847    -0.00005    114.41847
40968744080.82605    -0.00005    114.11905    -49.03750    24.11905    -49.03750    24.11905    -0.00005    114.11905
41043915795.56769    -0.00005    113.81746    -48.98119    23.81746    -48.98119    23.81746    -0.00005    113.81746
41119225439.52385    -0.00006    113.51366    -48.92446    23.51366    -48.92446    23.51366    -0.00006    113.51366
41194673265.77483    -0.00006    113.20761    -48.86732    23.20761    -48.86732    23.20761    -0.00006    113.20761
41270259527.86513    -0.00006    112.89929    -48.80975    22.89929    -48.80975    22.89929    -0.00006    112.89929
41345984479.80447    -0.00006    112.58867    -48.75175    22.58867    -48.75175    22.58867    -0.00006    112.58867
41421848376.06881    -0.00006    112.27571    -48.69330    22.27571    -48.69330    22.27571    -0.00006    112.27571
41497851471.60056    -0.00006    111.96037    -48.63441    21.96037    -48.63441    21.96037    -0.00006    111.96037
41573994021.81039    -0.00006    111.64263    -48.57506    21.64263    -48.57506    21.64263    -0.00006    111.64263
41650276282.57744    -0.00006    111.32244    -48.51526    21.32244    -48.51526    21.32244    -0.00006    111.32244
41726698510.25035    -0.00006    110.99977    -48.45498    20.99977    -48.45498    20.99977    -0.00006    110.99977
41803260961.64828    -0.00006    110.67459    -48.39422    20.67459    -48.39422    20.67459    -0.00006    110.67459
41879963894.06119    -0.00006    110.34685    -48.33298    20.34685    -48.33298    20.34685    -0.00006    110.34685
41956807565.25153    -0.00006    110.01652    -48.27124    20.01652    -48.27124    20.01652    -0.00006    110.01652
42033792233.45459    -0.00007    109.68356    -48.20900    19.68356    -48.20900    19.68356    -0.00007    109.68356
42110918157.37949    -0.00007    109.34792    -48.14625    19.34792    -48.14625    19.34792    -0.00007    109.34792
42188185596.21016    -0.00007    109.00958    -48.08298    19.00958    -48.08298    19.00958    -0.00007    109.00958
42265594809.60569    -0.00007    108.66849    -48.01918    18.66849    -48.01918    18.66849    -0.00007    108.66849
42343146057.70201    -0.00007    108.32460    -47.95484    18.32460    -47.95484    18.32460    -0.00007    108.32460
42420839601.11226    -0.00007    107.97788    -47.88995    17.97788    -47.88995    17.97788    -0.00007    107.97788
42498675700.92772    -0.00007    107.62827    -47.82450    17.62827    -47.82450    17.62827    -0.00007    107.62827
42576654618.71892    -0.00007    107.27574    -47.75848    17.27574    -47.75848    17.27574    -0.00007    107.27574
42654776616.53587    -0.00007    106.92024    -47.69189    16.92024    -47.69189    16.92024    -0.00007    106.92024
42733041956.90984    -0.00008    106.56172    -47.62471    16.56172    -47.62471    16.56172    -0.00008    106.56172
42811450902.85369    -0.00008    106.20014    -47.55693    16.20014    -47.55693    16.20014    -0.00008    106.20014
42890003717.86285    -0.00008    105.83545    -47.48853    15.83545    -47.48853    15.83545    -0.00008    105.83545
42968700665.91637    -0.00008    105.46760    -47.41952    15.46760    -47.41952    15.46760    -0.00008    105.46760
43047542011.47723    -0.00008    105.09654    -47.34986    15.09654    -47.34986    15.09654    -0.00008    105.09654
43126528019.49409    -0.00008    104.72221    -47.27957    14.72221    -47.27957    14.72221    -0.00008    104.72221
43205658955.40179    -0.00008    104.34457    -47.20861    14.34457    -47.20861    14.34457    -0.00008    104.34457
43284935085.12170    -0.00008    103.96356    -47.13699    13.96356    -47.13699    13.96356    -0.00008    103.96356
43364356675.06361    -0.00009    103.57912    -47.06468    13.57912    -47.06468    13.57912    -0.00009    103.57912
43443923992.12598    -0.00009    103.19121    -46.99167    13.19121    -46.99167    13.19121    -0.00009    103.19121
43523637303.69698    -0.00009    102.79977    -46.91795    12.79977    -46.91795    12.79977    -0.00009    102.79977
43603496877.65553    -0.00009    102.40473    -46.84351    12.40473    -46.84351    12.40473    -0.00009    102.40473
43683502982.37165    -0.00009    102.00604    -46.76833    12.00604    -46.76833    12.00604    -0.00009    102.00604
43763655886.70822    -0.00009    101.60363    -46.69239    11.60363    -46.69239    11.60363    -0.00009    101.60363
43843955860.02129    -0.00009    101.19745    -46.61569    11.19745    -46.61569    11.19745    -0.00009    101.19745
43924403172.16115    -0.00010    100.78744    -46.53819    10.78744    -46.53819    10.78744    -0.00010    100.78744
44004998093.47336    -0.00010    100.37352    -46.45990    10.37352    -46.45990    10.37352    -0.00010    100.37352
44085740894.79907    -0.00010    99.95563    -46.38079    9.95563    -46.38079    9.95563    -0.00010    99.95563
44166631847.47688    -0.00010    99.53370    -46.30084    9.53370    -46.30084    9.53370    -0.00010    99.53370
44247671223.34305    -0.00010    99.10767    -46.22004    9.10767    -46.22004    9.10767    -0.00010    99.10767
44328859294.73264    -0.00011    98.67747    -46.13837    8.67747    -46.13837    8.67747    -0.00011    98.67747
44410196334.48059    -0.00011    98.24301    -46.05581    8.24301    -46.05581    8.24301    -0.00011    98.24301
44491682615.92195    -0.00011    97.80424    -45.97234    7.80424    -45.97234    7.80424    -0.00011    97.80424
44573318412.89378    -0.00011    97.36107    -45.88793    7.36107    -45.88793    7.36107    -0.00011    97.36107
44655103999.73542    -0.00011    96.91343    -45.80258    6.91343    -45.80258    6.91343    -0.00011    96.91343
44737039651.28962    -0.00012    96.46123    -45.71626    6.46123    -45.71626    6.46123    -0.00012    96.46123
44819125642.90355    -0.00012    96.00440    -45.62894    6.00440    -45.62894    6.00440    -0.00012    96.00440
44901362250.42914    -0.00012    95.54285    -45.54061    5.54285    -45.54061    5.54285    -0.00012    95.54285
44983749750.22495    -0.00012    95.07651    -45.45124    5.07651    -45.45124    5.07651    -0.00012    95.07651
45066288419.15645    -0.00013    94.60528    -45.36080    4.60528    -45.36080    4.60528    -0.00013    94.60528
45148978534.59711    -0.00013    94.12907    -45.26928    4.12907    -45.26928    4.12907    -0.00013    94.12907
45231820374.42952    -0.00013    93.64780    -45.17664    3.64780    -45.17664    3.64780    -0.00013    93.64780
45314814217.04566    -0.00013    93.16137    -45.08286    3.16137    -45.08286    3.16137    -0.00013    93.16137
45397960341.34879    -0.00014    92.66968    -44.98791    2.66968    -44.98791    2.66968    -0.00014    92.66968
45481259026.75375    -0.00014    92.17265    -44.89176    2.17265    -44.89176    2.17265    -0.00014    92.17265
45564710553.18810    -0.00014    91.67016    -44.79438    1.67016    -44.79438    1.67016    -0.00014    91.67016
45648315201.09315    -0.00015    91.16213    -44.69575    1.16213    -44.69575    1.16213    -0.00015    91.16213
45732073251.42430    -0.00015    90.64844    -44.59583    0.64844    -44.59583    0.64844    -0.00015    90.64844
45815984985.65298    -0.00015    90.12898    -44.49458    0.12898    -44.49458    0.12898    -0.00015    90.12898
45900050685.76688    -0.00016    89.60365    -44.39197    -0.39635    -44.39197    -0.39635    -0.00016    89.60365
45984270634.27128    -0.00016    89.07234    -44.28797    -0.92766    -44.28797    -0.92766    -0.00016    89.07234
46068645114.18932    -0.00017    88.53492    -44.18254    -1.46508    -44.18254    -1.46508    -0.00017    88.53492
46153174409.06393    -0.00017    87.99129    -44.07563    -2.00871    -44.07563    -2.00871    -0.00017    87.99129
46237858802.95816    -0.00017    87.44131    -43.96722    -2.55869    -43.96722    -2.55869    -0.00017    87.44131
46322698580.45624    -0.00018    86.88487    -43.85726    -3.11513    -43.85726    -3.11513    -0.00018    86.88487
46407694026.66476    -0.00018    86.32184    -43.74570    -3.67816    -43.74570    -3.67816    -0.00018    86.32184
46492845427.21296    -0.00019    85.75208    -43.63250    -4.24792    -43.63250    -4.24792    -0.00019    85.75208
46578153068.25462    -0.00019    85.17546    -43.51761    -4.82454    -43.51761    -4.82454    -0.00019    85.17546
46663617236.46843    -0.00020    84.59185    -43.40099    -5.40815    -43.40099    -5.40815    -0.00020    84.59185
46749238219.05910    -0.00020    84.00110    -43.28257    -5.99890    -43.28257    -5.99890    -0.00020    84.00110
46835016303.75846    -0.00021    83.40307    -43.16231    -6.59693    -43.16231    -6.59693    -0.00021    83.40307
46920951778.82583    -0.00022    82.79760    -43.04016    -7.20240    -43.04016    -7.20240    -0.00022    82.79760
47007044933.04990    -0.00022    82.18455    -42.91605    -7.81545    -42.91605    -7.81545    -0.00022    82.18455
47093296055.74910    -0.00023    81.56376    -42.78991    -8.43624    -42.78991    -8.43624    -0.00023    81.56376
47179705436.77289    -0.00024    80.93505    -42.66170    -9.06495    -42.66170    -9.06495    -0.00024    80.93505
47266273366.50204    -0.00024    80.29828    -42.53133    -9.70172    -42.53133    -9.70172    -0.00024    80.29828
47353000135.85065    -0.00025    79.65325    -42.39874    -10.34675    -42.39874    -10.34675    -0.00025    79.65325
47439886036.26643    -0.00026    78.99981    -42.26386    -11.00019    -42.26386    -11.00019    -0.00026    78.99981
47526931359.73183    -0.00027    78.33776    -42.12660    -11.66224    -42.12660    -11.66224    -0.00027    78.33776
47614136398.76526    -0.00027    77.66692    -41.98689    -12.33308    -41.98689    -12.33308    -0.00027    77.66692
47701501446.42133    -0.00028    76.98710    -41.84463    -13.01290    -41.84463    -13.01290    -0.00028    76.98710
47789026796.29285    -0.00029    76.29810    -41.69975    -13.70190    -41.69975    -13.70190    -0.00029    76.29810
47876712742.51118    -0.00030    75.59971    -41.55213    -14.40029    -41.55213    -14.40029    -0.00030    75.59971
47964559579.74740    -0.00031    74.89172    -41.40169    -15.10828    -41.40169    -15.10828    -0.00031    74.89172
48052567603.21337    -0.00033    74.17391    -41.24831    -15.82609    -41.24831    -15.82609    -0.00033    74.17391
48140737108.66217    -0.00034    73.44607    -41.09188    -16.55393    -41.09188    -16.55393    -0.00034    73.44607
48229068392.39003    -0.00035    72.70795    -40.93229    -17.29205    -40.93229    -17.29205    -0.00035    72.70795
48317561751.23666    -0.00036    71.95932    -40.76940    -18.04068    -40.76940    -18.04068    -0.00036    71.95932
48406217482.58646    -0.00038    71.19993    -40.60309    -18.80007    -40.60309    -18.80007    -0.00038    71.19993
48495035884.36963    -0.00039    70.42952    -40.43321    -19.57048    -40.43321    -19.57048    -0.00039    70.42952
48584017255.06252    -0.00041    69.64782    -40.25962    -20.35218    -40.25962    -20.35218    -0.00041    69.64782
48673161893.68967    -0.00043    68.85457    -40.08215    -21.14543    -40.08215    -21.14543    -0.00043    68.85457
48762470099.82408    -0.00044    68.04948    -39.90063    -21.95052    -39.90063    -21.95052    -0.00044    68.04948
48851942173.58849    -0.00046    67.23224    -39.71488    -22.76776    -39.71488    -22.76776    -0.00046    67.23224
48941578415.65640    -0.00048    66.40255    -39.52472    -23.59745    -39.52472    -23.59745    -0.00048    66.40255
49031379127.25259    -0.00051    65.56010    -39.32993    -24.43990    -39.32993    -24.43990    -0.00051    65.56010
49121344610.15497    -0.00053    64.70454    -39.13030    -25.29546    -39.13030    -25.29546    -0.00053    64.70454
49211475166.69505    -0.00056    63.83554    -38.92558    -26.16446    -38.92558    -26.16446    -0.00056    63.83554
49301771099.75923    -0.00058    62.95272    -38.71554    -27.04728    -38.71554    -27.04728    -0.00058    62.95272
49392232712.78915    -0.00061    62.05572    -38.49989    -27.94428    -38.49989    -27.94428    -0.00061    62.05572
49482860309.78372    -0.00065    61.14412    -38.27834    -28.85588    -38.27834    -28.85588    -0.00065    61.14412
49573654195.29951    -0.00068    60.21753    -38.05059    -29.78247    -38.05059    -29.78247    -0.00068    60.21753
49664614674.45187    -0.00072    59.27549    -37.81629    -30.72451    -37.81629    -30.72451    -0.00072    59.27549
49755742052.91618    -0.00076    58.31756    -37.57508    -31.68244    -37.57508    -31.68244    -0.00076    58.31756
49847036636.92818    -0.00080    57.34324    -37.32657    -32.65676    -37.32657    -32.65676    -0.00080    57.34324
49938498733.28601    -0.00085    56.35203    -37.07033    -33.64797    -37.07033    -33.64797    -0.00085    56.35203
50030128649.35057    -0.00091    55.34338    -36.80590    -34.65662    -36.80590    -34.65662    -0.00091    55.34338
50121926693.04692    -0.00097    54.31671    -36.53278    -35.68329    -36.53278    -35.68329    -0.00097    54.31671
50213893172.86457    -0.00103    53.27141    -36.25041    -36.72859    -36.25041    -36.72859    -0.00103    53.27141
50306028397.85959    -0.00110    52.20682    -35.95820    -37.79318    -35.95820    -37.79318    -0.00110    52.20682
50398332677.65495    -0.00118    51.12224    -35.65550    -38.87776    -35.65550    -38.87776    -0.00118    51.12224
50490806322.44174    -0.00127    50.01690    -35.34159    -39.98310    -35.34159    -39.98310    -0.00127    50.01690
50583449642.98039    -0.00137    48.88997    -35.01568    -41.11003    -35.01568    -41.11003    -0.00137    48.88997
50676262950.60098    -0.00148    47.74058    -34.67692    -42.25942    -34.67692    -42.25942    -0.00148    47.74058
50769246557.20536    -0.00160    46.56773    -34.32435    -43.43227    -34.32435    -43.43227    -0.00160    46.56773
50862400775.26753    -0.00175    45.37036    -33.95692    -44.62964    -33.95692    -44.62964    -0.00175    45.37036
50955725917.83482    -0.00191    44.14727    -33.57344    -45.85273    -33.57344    -45.85273    -0.00191    44.14727
51049222298.52912    -0.00209    42.89716    -33.17262    -47.10284    -33.17262    -47.10284    -0.00209    42.89716
51142890231.54726    -0.00230    41.61854    -32.75301    -48.38146    -32.75301    -48.38146    -0.00230    41.61854
51236730031.66309    -0.00255    40.30975    -32.31296    -49.69025    -32.31296    -49.69025    -0.00255    40.30975
51330742014.22784    -0.00284    38.96892    -31.85065    -51.03108    -31.85065    -51.03108    -0.00284    38.96892
51424926495.17142    -0.00317    37.59386    -31.36400    -52.40614    -31.36400    -52.40614    -0.00317    37.59386
51519283791.00352    -0.00357    36.18208    -30.85064    -53.81792    -30.85064    -53.81792    -0.00357    36.18208
51613814218.81412    -0.00405    34.73066    -30.30790    -55.26934    -30.30790    -55.26934    -0.00405    34.73066
51708518096.27550    -0.00462    33.23613    -29.73268    -56.76387    -29.73268    -56.76387    -0.00462    33.23613
51803395741.64265    -0.00532    31.69436    -29.12140    -58.30564    -29.12140    -58.30564    -0.00532    31.69436
51898447473.75454    -0.00618    30.10036    -28.46993    -59.89964    -28.46993    -59.89964    -0.00618    30.10036
51993673612.03532    -0.00726    28.44796    -27.77338    -61.55204    -27.77338    -61.55204    -0.00726    28.44796
52089074476.49471    -0.00862    26.72947    -27.02599    -63.27053    -27.02599    -63.27053    -0.00862    26.72947
52184650387.73012    -0.01038    24.93512    -26.22084    -65.06488    -26.22084    -65.06488    -0.01038    24.93512
52280401666.92705    -0.01269    23.05219    -25.34955    -66.94781    -25.34955    -66.94781    -0.01269    23.05219
52376328635.86032    -0.01579    21.06379    -24.40184    -68.93621    -24.40184    -68.93621    -0.01579    21.06379
52472431616.89536    -0.02006    18.94686    -23.36482    -71.05314    -23.36482    -71.05314    -0.02006    18.94686
52568710932.98853    -0.02611    16.66890    -22.22207    -73.33110    -22.22207    -73.33110    -0.02611    16.66890
52665166907.68929    -0.03502    14.18237    -20.95211    -75.81763    -20.95211    -75.81763    -0.03502    14.18237
52761799865.14064    -0.04871    11.41455    -19.52609    -78.58545    -19.52609    -78.58545    -0.04871    11.41455
52858610130.08030    -0.07095    8.24780    -17.90382    -81.75220    -17.90382    -81.75220    -0.07095    8.24780
52955598027.84203    -0.10979    4.47812    -16.02700    -85.52188    -16.02700    -85.52188    -0.10979    4.47812
53052763884.35597    -0.18463    -0.28184    -13.80691    -90.28184    -13.80691    -90.28184    -0.18463    -0.28184
53150108026.15086    -0.35074    -6.86183    -11.10215    -96.86183    -11.10215    -96.86183    -0.35074    -6.86183
53247630780.35438    -0.81044    -17.35017    -7.68954    -107.35017    -7.68954    -107.35017    -0.81044    -17.35017
53345332474.69444    -2.66057    -38.00667    -3.39068    -128.00667    -3.39068    -128.00667    -2.66057    -38.00667
53443213437.50047    -20.26448    -82.43797    -0.04106    -172.43797    -0.04106    -172.43797    -20.26448    -82.43797
53541273997.70380    -4.40959    52.19833    -1.95368    142.19833    -1.95368    142.19833    -4.40959    52.19833
53639514484.83981    -1.67542    30.61893    -4.94742    120.61893    -4.94742    120.61893    -1.67542    30.61893
53737935229.04842    -0.96322    19.29372    -7.01331    109.29372    -7.01331    109.29372    -0.96322    19.29372
53836536561.07541    -0.69710    11.67909    -8.28878    101.67909    -8.28878    101.67909    -0.69710    11.67909
53935318812.27292    -0.58896    5.54398    -8.96814    95.54398    -8.96814    95.54398    -0.58896    5.54398
54034282314.60164    -0.56235    -0.08182    -9.15589    89.91818    -9.15589    89.91818    -0.56235    -0.08182
54133427400.63115    -0.60024    -5.79466    -8.89127    84.20534    -8.89127    84.20534    -0.60024    -5.79466
54232754403.54124    -0.71907    -12.16375    -8.16471    77.83625    -8.16471    77.83625    -0.71907    -12.16375
54332263657.12328    -0.98596    -20.01474    -6.92289    69.98526    -6.92289    69.98526    -0.98596    -20.01474
54431955495.78045    -1.61498    -30.94275    -5.07866    59.05725    -5.07866    59.05725    -1.61498    -30.94275
54531830254.53014    -3.43864    -48.52636    -2.62044    41.47364    -2.62044    41.47364    -3.43864    -48.52636
54631888269.00423    -11.56892    -79.29420    -0.31368    10.70580    -0.31368    10.70580    -11.56892    -79.29420
54732129875.45066    -8.98386    60.69418    -0.58668    -29.30582    -0.58668    -29.30582    -8.98386    60.69418
54832555410.73372    -2.98068    32.19859    -3.04012    -57.80141    -3.04012    -57.80141    -2.98068    32.19859
54933165212.33639    -1.50166    15.59248    -5.34136    -74.40752    -5.34136    -74.40752    -1.50166    15.59248
55033959618.36070    -0.99208    4.51960    -6.89897    -85.48040    -6.89897    -85.48040    -0.99208    4.51960
55134938967.52904    -0.81099    -4.33645    -7.68688    -94.33645    -7.68688    -94.33645    -0.81099    -4.33645
55236103599.18550    -0.81279    -12.79377    -7.67810    -102.79377    -7.67810    -102.79377    -0.81279    -12.79377
55337453853.29623    -1.03708    -22.63143    -6.72793    -112.63143    -6.72793    -112.63143    -1.03708    -22.63143
55438990070.45177    -1.89903    -37.56336    -4.50749    -127.56336    -4.50749    -127.56336    -1.89903    -37.56336
55540712591.86737    -7.08383    -70.13959    -0.94588    -160.13959    -0.94588    -160.13959    -7.08383    -70.13959
55642621759.38440    -6.05714    48.52133    -1.23728    138.52133    -1.23728    138.52133    -6.05714    48.52133
55744717915.47161    -1.29788    13.41091    -5.87829    103.41091    -5.87829    103.41091    -1.29788    13.41091
55847001403.22558    -0.60436    -2.64130    -8.86358    87.35870    -8.86358    87.35870    -0.60436    -2.64130
55949472566.37299    -0.51454    -14.40542    -9.51834    75.59458    -9.51834    75.59458    -0.51454    -14.40542
56052131749.27102    -1.18044    -32.79916    -6.23425    57.20084    -6.23425    57.20084    -1.18044    -32.79916
56154979296.90870    -2.22472    29.62249    -3.97007    -60.37751    -3.97007    -60.37751    -2.22472    29.62249
56258015554.90825    -0.09072    -6.61296    -16.84600    -96.61296    -16.84600    -96.61296    -0.09072    -6.61296
56361240869.52547    -0.01785    -15.58009    -23.87004    -105.58009    -23.87004    -105.58009    -0.01785    -15.58009
56464655587.65210    -0.00588    -21.00788    -28.68397    -111.00788    -28.68397    -111.00788    -0.00588    -21.00788
56568260056.81614    -0.00260    -25.23255    -32.22234    -115.23255    -32.22234    -115.23255    -0.00260    -25.23255
56672054625.18328    -0.00142    -28.87326    -34.87097    -118.87326    -34.87097    -118.87326    -0.00142    -28.87326
56776039641.55825    -0.00090    -32.17324    -36.85544    -122.17324    -36.85544    -122.17324    -0.00090    -32.17324
56880215455.38517    -0.00064    -35.25099    -38.33684    -125.25099    -38.33684    -125.25099    -0.00064    -35.25099
56984582416.74994    -0.00049    -38.17260    -39.43938    -128.17260    -39.43938    -128.17260    -0.00049    -38.17260
57089140876.38062    -0.00041    -40.97842    -40.25965    -130.97842    -40.25965    -130.97842    -0.00041    -40.97842
57193891185.64882    -0.00036    -43.69473    -40.87148    -133.69473    -40.87148    -133.69473    -0.00036    -43.69473
57298833696.57103    -0.00032    -46.33945    -41.33017    -136.33945    -41.33017    -136.33945    -0.00032    -46.33945
57403968761.80908    -0.00030    -48.92527    -41.67652    -138.92527    -41.67652    -138.92527    -0.00030    -48.92527
57509296734.67247    -0.00028    -51.46138    -41.94033    -141.46138    -41.94033    -141.46138    -0.00028    -51.46138
57614817969.11874    -0.00027    -53.95456    -42.14330    -143.95456    -42.14330    -143.95456    -0.00027    -53.95456
57720532819.75495    -0.00026    -56.40993    -42.30124    -146.40993    -42.30124    -146.40993    -0.00026    -56.40993
57826441641.83897    -0.00025    -58.83135    -42.42570    -148.83135    -42.42570    -148.83135    -0.00025    -58.83135
57932544791.27991    -0.00024    -61.22176    -42.52518    -151.22176    -42.52518    -151.22176    -0.00024    -61.22176
58038842624.64056    -0.00024    -63.58343    -42.60598    -153.58343    -42.60598    -153.58343    -0.00024    -63.58343
58145335499.13772    -0.00023    -65.91807    -42.67277    -155.91807    -42.67277    -155.91807    -0.00023    -65.91807
58252023772.64385    -0.00023    -68.22702    -42.72909    -158.22702    -42.72909    -158.22702    -0.00023    -68.22702
58358907803.68744    -0.00023    -70.51126    -42.77762    -160.51126    -42.77762    -160.51126    -0.00023    -70.51126
58465987951.45542    -0.00023    -72.77155    -42.82038    -162.77155    -42.82038    -162.77155    -0.00023    -72.77155
58573264575.79361    -0.00022    -75.00843    -42.85894    -165.00843    -42.85894    -165.00843    -0.00022    -75.00843
58680738037.20807    -0.00022    -77.22232    -42.89451    -167.22232    -42.89451    -167.22232    -0.00022    -77.22232
58788408696.86654    -0.00022    -79.41349    -42.92802    -169.41349    -42.92802    -169.41349    -0.00022    -79.41349
58896276916.59884    -0.00022    -81.58212    -42.96018    -171.58212    -42.96018    -171.58212    -0.00022    -81.58212
59004343058.89931    -0.00022    -83.72834    -42.99155    -173.72834    -42.99155    -173.72834    -0.00022    -83.72834
59112607486.92723    -0.00022    -85.85221    -43.02258    -175.85221    -43.02258    -175.85221    -0.00022    -85.85221
59221070564.50818    -0.00021    -87.95375    -43.05358    -177.95375    -43.05358    -177.95375    -0.00021    -87.95375
59329732656.13556    -0.00021    -90.03297    -43.08480    179.96703    -43.08480    179.96703    -0.00021    -90.03297
59438594126.97092    -0.00021    -92.08983    -43.11645    177.91017    -43.11645    177.91017    -0.00021    -92.08983
59547655342.84644    -0.00021    -94.12431    -43.14864    175.87569    -43.14864    175.87569    -0.00021    -94.12431
59656916670.26535    -0.00021    -96.13638    -43.18148    173.86362    -43.18148    173.86362    -0.00021    -96.13638
59766378476.40359    -0.00021    -98.12600    -43.21502    171.87400    -43.21502    171.87400    -0.00021    -98.12600
59876041129.11017    -0.00021    -100.09316    -43.24929    169.90684    -43.24929    169.90684    -0.00021    -100.09316
59985904996.90966    -0.00020    -102.03783    -43.28432    167.96217    -43.28432    167.96217    -0.00020    -102.03783
60095970449.00264    -0.00020    -103.96001    -43.32008    166.03999    -43.32008    166.03999    -0.00020    -103.96001
60206237855.26711    -0.00020    -105.85971    -43.35656    164.14029    -43.35656    164.14029    -0.00020    -105.85971
60316707586.25994    -0.00020    -107.73696    -43.39373    162.26304    -43.39373    162.26304    -0.00020    -107.73696
60427380013.21731    -0.00020    -109.59180    -43.43153    160.40820    -43.43153    160.40820    -0.00020    -109.59180
60538255508.05717    -0.00020    -111.42430    -43.46991    158.57570    -43.46991    158.57570    -0.00020    -111.42430
60649334443.37969    -0.00019    -113.23452    -43.50882    156.76548    -43.50882    156.76548    -0.00019    -113.23452
60760617192.46871    -0.00019    -115.02257    -43.54820    154.97743    -43.54820    154.97743    -0.00019    -115.02257
60872104129.29321    -0.00019    -116.78856    -43.58797    153.21144    -43.58797    153.21144    -0.00019    -116.78856
60983795628.50768    -0.00019    -118.53263    -43.62808    151.46737    -43.62808    151.46737    -0.00019    -118.53263
61095692065.45472    -0.00019    -120.25491    -43.66844    149.74509    -43.66844    149.74509    -0.00019    -120.25491
61207793816.16539    -0.00018    -121.95557    -43.70899    148.04443    -43.70899    148.04443    -0.00018    -121.95557
61320101257.36074    -0.00018    -123.63480    -43.74966    146.36520    -43.74966    146.36520    -0.00018    -123.63480
61432614766.45325    -0.00018    -125.29279    -43.79038    144.70721    -43.79038    144.70721    -0.00018    -125.29279
61545334721.54723    -0.00018    -126.92975    -43.83107    143.07025    -43.83107    143.07025    -0.00018    -126.92975
61658261501.44144    -0.00018    -128.54589    -43.87166    141.45411    -43.87166    141.45411    -0.00018    -128.54589
61771395485.62944    -0.00018    -130.14147    -43.91210    139.85853    -43.91210    139.85853    -0.00018    -130.14147
61884737054.30112    -0.00017    -131.71671    -43.95230    138.28329    -43.95230    138.28329    -0.00017    -131.71671
61998286588.34418    -0.00017    -133.27188    -43.99221    136.72812    -43.99221    136.72812    -0.00017    -133.27188
62112044469.34452    -0.00017    -134.80724    -44.03177    135.19276    -44.03177    135.19276    -0.00017    -134.80724
62226011079.58888    -0.00017    -136.32308    -44.07091    133.67692    -44.07091    133.67692    -0.00017    -136.32308
62340186802.06519    -0.00017    -137.81967    -44.10958    132.18033    -44.10958    132.18033    -0.00017    -137.81967
62454572020.46437    -0.00017    -139.29729    -44.14772    130.70271    -44.14772    130.70271    -0.00017    -139.29729
62569167119.18065    -0.00017    -140.75626    -44.18528    129.24374    -44.18528    129.24374    -0.00017    -140.75626
62683972483.31425    -0.00016    -142.19687    -44.22220    127.80313    -44.22220    127.80313    -0.00016    -142.19687
62798988498.67178    -0.00016    -143.61942    -44.25844    126.38058    -44.25844    126.38058    -0.00016    -143.61942
62914215551.76797    -0.00016    -145.02423    -44.29396    124.97577    -44.29396    124.97577    -0.00016    -145.02423
63029654029.82606    -0.00016    -146.41161    -44.32871    123.58839    -44.32871    123.58839    -0.00016    -146.41161
63145304320.78048    -0.00016    -147.78187    -44.36264    122.21813    -44.36264    122.21813    -0.00016    -147.78187
63261166813.27724    -0.00016    -149.13534    -44.39573    120.86466    -44.39573    120.86466    -0.00016    -149.13534
63377241896.67544    -0.00016    -150.47234    -44.42793    119.52766    -44.42793    119.52766    -0.00016    -150.47234
63493529961.04884    -0.00016    -151.79318    -44.45922    118.20682    -44.45922    118.20682    -0.00016    -151.79318
63610031397.18625    -0.00015    -153.09818    -44.48955    116.90182    -44.48955    116.90182    -0.00015    -153.09818
63726746596.59419    -0.00015    -154.38767    -44.51891    115.61233    -44.51891    115.61233    -0.00015    -154.38767
63843675951.49731    -0.00015    -155.66197    -44.54726    114.33803    -44.54726    114.33803    -0.00015    -155.66197
63960819854.83997    -0.00015    -156.92140    -44.57458    113.07860    -44.57458    113.07860    -0.00015    -156.92140
64078178700.28770    -0.00015    -158.16627    -44.60085    111.83373    -44.60085    111.83373    -0.00015    -158.16627
64195752882.22769    -0.00015    -159.39690    -44.62605    110.60310    -44.62605    110.60310    -0.00015    -159.39690
64313542795.77148    -0.00015    -160.61361    -44.65015    109.38639    -44.65015    109.38639    -0.00015    -160.61361
64431548836.75532    -0.00015    -161.81671    -44.67315    108.18329    -44.67315    108.18329    -0.00015    -161.81671
64549771401.74177    -0.00015    -163.00650    -44.69502    106.99350    -44.69502    106.99350    -0.00015    -163.00650
64668210888.02127    -0.00015    -164.18331    -44.71575    105.81669    -44.71575    105.81669    -0.00015    -164.18331
64786867693.61254    -0.00015    -165.34742    -44.73533    104.65258    -44.73533    104.65258    -0.00015    -165.34742
64905742217.26527    -0.00015    -166.49915    -44.75375    103.50085    -44.75375    103.50085    -0.00015    -166.49915
65024834858.46059    -0.00014    -167.63880    -44.77100    102.36120    -44.77100    102.36120    -0.00014    -167.63880
65144146017.41263    -0.00014    -168.76665    -44.78707    101.23335    -44.78707    101.23335    -0.00014    -168.76665
65263676095.07005    -0.00014    -169.88300    -44.80196    100.11700    -44.80196    100.11700    -0.00014    -169.88300
65383425493.11655    -0.00014    -170.98814    -44.81565    99.01186    -44.81565    99.01186    -0.00014    -170.98814
65503394613.97350    -0.00014    -172.08235    -44.82816    97.91765    -44.82816    97.91765    -0.00014    -172.08235
65623583860.80045    -0.00014    -173.16591    -44.83947    96.83409    -44.83947    96.83409    -0.00014    -173.16591
65743993637.49670    -0.00014    -174.23911    -44.84957    95.76089    -44.84957    95.76089    -0.00014    -174.23911
65864624348.70288    -0.00014    -175.30221    -44.85848    94.69779    -44.85848    94.69779    -0.00014    -175.30221
65985476399.80135    -0.00014    -176.35549    -44.86619    93.64451    -44.86619    93.64451    -0.00014    -176.35549
66106550196.91901    -0.00014    -177.39921    -44.87270    92.60079    -44.87270    92.60079    -0.00014    -177.39921
66227846146.92770    -0.00014    -178.43364    -44.87801    91.56636    -44.87801    91.56636    -0.00014    -178.43364
66349364657.44582    -0.00014    -179.45902    -44.88212    90.54098    -44.88212    90.54098    -0.00014    -179.45902
66471106136.83992    -0.00014    179.52437    -44.88505    89.52437    -44.88505    89.52437    -0.00014    179.52437
66593070994.22515    -0.00014    178.51630    -44.88678    88.51630    -44.88678    88.51630    -0.00014    178.51630
66715259639.46801    -0.00014    177.51652    -44.88733    87.51652    -44.88733    87.51652    -0.00014    177.51652
66837672483.18683    -0.00014    176.52477    -44.88669    86.52477    -44.88669    86.52477    -0.00014    176.52477
66960309936.75336    -0.00014    175.54083    -44.88488    85.54083    -44.88488    85.54083    -0.00014    175.54083
67083172412.29439    -0.00014    174.56446    -44.88190    84.56446    -44.88190    84.56446    -0.00014    174.56446
67206260322.69218    -0.00014    173.59542    -44.87776    83.59542    -44.87776    83.59542    -0.00014    173.59542
67329574081.58733    -0.00014    172.63348    -44.87245    82.63348    -44.87245    82.63348    -0.00014    172.63348
67453114103.37910    -0.00014    171.67842    -44.86600    81.67842    -44.86600    81.67842    -0.00014    171.67842
67576880803.22718    -0.00014    170.73003    -44.85840    80.73003    -44.85840    80.73003    -0.00014    170.73003
67700874597.05322    -0.00014    169.78807    -44.84966    79.78807    -44.84966    79.78807    -0.00014    169.78807
67825095901.54131    -0.00014    168.85233    -44.83979    78.85233    -44.83979    78.85233    -0.00014    168.85233
67949545134.14083    -0.00014    167.92261    -44.82880    77.92261    -44.82880    77.92261    -0.00014    167.92261
68074222713.06711    -0.00014    166.99870    -44.81669    76.99870    -44.81669    76.99870    -0.00014    166.99870
68199129057.30211    -0.00014    166.08038    -44.80348    76.08038    -44.80348    76.08038    -0.00014    166.08038
68324264586.59730    -0.00014    165.16745    -44.78916    75.16745    -44.78916    75.16745    -0.00014    165.16745
68449629721.47410    -0.00014    164.25973    -44.77375    74.25973    -44.77375    74.25973    -0.00014    164.25973
68575224883.22550    -0.00015    163.35700    -44.75726    73.35700    -44.75726    73.35700    -0.00015    163.35700
68701050493.91777    -0.00015    162.45908    -44.73970    72.45908    -44.73970    72.45908    -0.00015    162.45908
68827106976.39087    -0.00015    161.56578    -44.72106    71.56578    -44.72106    71.56578    -0.00015    161.56578
68953394754.26134    -0.00015    160.67690    -44.70137    70.67690    -44.70137    70.67690    -0.00015    160.67690
69079914251.92273    -0.00015    159.79226    -44.68062    69.79226    -44.68062    69.79226    -0.00015    159.79226
69206665894.54735    -0.00015    158.91168    -44.65883    68.91168    -44.65883    68.91168    -0.00015    158.91168
69333650108.08781    -0.00015    158.03498    -44.63600    68.03498    -44.63600    68.03498    -0.00015    158.03498
69460867319.27762    -0.00015    157.16197    -44.61215    67.16197    -44.61215    67.16197    -0.00015    157.16197
69588317955.63396    -0.00015    156.29249    -44.58727    66.29249    -44.58727    66.29249    -0.00015    156.29249
69716002445.45822    -0.00015    155.42636    -44.56138    65.42636    -44.56138    65.42636    -0.00015    155.42636
69843921217.83766    -0.00015    154.56341    -44.53449    64.56341    -44.53449    64.56341    -0.00015    154.56341
69972074702.64713    -0.00015    153.70346    -44.50659    63.70346    -44.50659    63.70346    -0.00015    153.70346
70100463330.54942    -0.00015    152.84636    -44.47771    62.84636    -44.47771    62.84636    -0.00015    152.84636
70229087532.99834    -0.00016    151.99193    -44.44784    61.99193    -44.44784    61.99193    -0.00016    151.99193
70357947742.23907    -0.00016    151.14001    -44.41699    61.14001    -44.41699    61.14001    -0.00016    151.14001
70487044391.30994    -0.00016    150.29044    -44.38518    60.29044    -44.38518    60.29044    -0.00016    150.29044
70616377914.04402    -0.00016    149.44306    -44.35240    59.44306    -44.35240    59.44306    -0.00016    149.44306
70745948745.06973    -0.00016    148.59772    -44.31866    58.59772    -44.31866    58.59772    -0.00016    148.59772
70875757319.81364    -0.00016    147.75424    -44.28397    57.75424    -44.28397    57.75424    -0.00016    147.75424
71005804074.50110    -0.00016    146.91249    -44.24833    56.91249    -44.24833    56.91249    -0.00016    146.91249
71136089446.15779    -0.00016    146.07230    -44.21175    56.07230    -44.21175    56.07230    -0.00016    146.07230
71266613872.61159    -0.00017    145.23352    -44.17424    55.23352    -44.17424    55.23352    -0.00017    145.23352
71397377792.49290    -0.00017    144.39600    -44.13580    54.39600    -44.13580    54.39600    -0.00017    144.39600
71528381645.23781    -0.00017    143.55960    -44.09643    53.55960    -44.09643    53.55960    -0.00017    143.55960
71659625871.08832    -0.00017    142.72415    -44.05614    52.72415    -44.05614    52.72415    -0.00017    142.72415
71791110911.09433    -0.00017    141.88952    -44.01494    51.88952    -44.01494    51.88952    -0.00017    141.88952
71922837207.11519    -0.00017    141.05556    -43.97282    51.05556    -43.97282    51.05556    -0.00017    141.05556
72054805201.82027    -0.00018    140.22212    -43.92980    50.22212    -43.92980    50.22212    -0.00018    140.22212
72187015338.69189    -0.00018    139.38906    -43.88587    49.38906    -43.88587    49.38906    -0.00018    139.38906
72319468062.02591    -0.00018    138.55624    -43.84103    48.55624    -43.84103    48.55624    -0.00018    138.55624
72452163816.93335    -0.00018    137.72350    -43.79530    47.72350    -43.79530    47.72350    -0.00018    137.72350
72585103049.34222    -0.00018    136.89072    -43.74867    46.89072    -43.74867    46.89072    -0.00018    136.89072
72718286205.99800    -0.00019    136.05774    -43.70115    46.05774    -43.70115    46.05774    -0.00019    136.05774
72851713734.46660    -0.00019    135.22443    -43.65274    45.22443    -43.65274    45.22443    -0.00019    135.22443
72985386083.13493    -0.00019    134.39065    -43.60343    44.39065    -43.60343    44.39065    -0.00019    134.39065
73119303701.21289    -0.00019    133.55625    -43.55324    43.55625    -43.55324    43.55625    -0.00019    133.55625
73253467038.73380    -0.00019    132.72110    -43.50215    42.72110    -43.50215    42.72110    -0.00019    132.72110
73387876546.55754    -0.00020    131.88506    -43.45018    41.88506    -43.45018    41.88506    -0.00020    131.88506
73522532676.37099    -0.00020    131.04799    -43.39732    41.04799    -43.39732    41.04799    -0.00020    131.04799
73657435880.68979    -0.00020    130.20975    -43.34357    40.20975    -43.34357    40.20975    -0.00020    130.20975
73792586612.86014    -0.00020    129.37020    -43.28893    39.37020    -43.28893    39.37020    -0.00020    129.37020
73927985327.05931    -0.00021    128.52922    -43.23341    38.52922    -43.23341    38.52922    -0.00021    128.52922
74063632478.29868    -0.00021    127.68665    -43.17699    37.68665    -43.17699    37.68665    -0.00021    127.68665
74199528522.42424    -0.00021    126.84236    -43.11967    36.84236    -43.11967    36.84236    -0.00021    126.84236
74335673916.11870    -0.00021    125.99622    -43.06147    35.99622    -43.06147    35.99622    -0.00021    125.99622
74472069116.90187    -0.00022    125.14808    -43.00236    35.14808    -43.00236    35.14808    -0.00022    125.14808
74608714583.13388    -0.00022    124.29781    -42.94235    34.29781    -42.94235    34.29781    -0.00022    124.29781
74745610774.01559    -0.00022    123.44528    -42.88144    33.44528    -42.88144    33.44528    -0.00022    123.44528
74882758149.59044    -0.00023    122.59034    -42.81961    32.59034    -42.81961    32.59034    -0.00023    122.59034
75020157170.74623    -0.00023    121.73285    -42.75688    31.73285    -42.75688    31.73285    -0.00023    121.73285
75157808299.21567    -0.00023    120.87268    -42.69322    30.87268    -42.69322    30.87268    -0.00023    120.87268
75295711997.57942    -0.00024    120.00970    -42.62864    30.00970    -42.62864    30.00970    -0.00024    120.00970
75433868729.26669    -0.00024    119.14375    -42.56312    29.14375    -42.56312    29.14375    -0.00024    119.14375
75572278958.55701    -0.00024    118.27470    -42.49667    28.27470    -42.49667    28.27470    -0.00024    118.27470
75710943150.58203    -0.00025    117.40242    -42.42927    27.40242    -42.42927    27.40242    -0.00025    117.40242
75849861771.32610    -0.00025    116.52676    -42.36091    26.52676    -42.36091    26.52676    -0.00025    116.52676
75989035287.62932    -0.00026    115.64759    -42.29159    25.64759    -42.29159    25.64759    -0.00026    115.64759
76128464167.18817    -0.00026    114.76475    -42.22130    24.76475    -42.22130    24.76475    -0.00026    114.76475
76268148878.55724    -0.00026    113.87811    -42.15003    23.87811    -42.15003    23.87811    -0.00026    113.87811
76408089891.15115    -0.00027    112.98754    -42.07775    22.98754    -42.07775    22.98754    -0.00027    112.98754
76548287675.24500    -0.00027    112.09287    -42.00448    22.09287    -42.00448    22.09287    -0.00027    112.09287
76688742701.97758    -0.00028    111.19398    -41.93018    21.19398    -41.93018    21.19398    -0.00028    111.19398
76829455443.35191    -0.00028    110.29071    -41.85485    20.29071    -41.85485    20.29071    -0.00028    110.29071
76970426372.23706    -0.00029    109.38293    -41.77847    19.38293    -41.77847    19.38293    -0.00029    109.38293
77111655962.36998    -0.00029    108.47048    -41.70102    18.47048    -41.70102    18.47048    -0.00029    108.47048
77253144688.35609    -0.00030    107.55322    -41.62250    17.55322    -41.62250    17.55322    -0.00030    107.55322
77394893025.67244    -0.00030    106.63100    -41.54288    16.63100    -41.54288    16.63100    -0.00030    106.63100
77536901450.66824    -0.00031    105.70367    -41.46214    15.70367    -41.46214    15.70367    -0.00031    105.70367
77679170440.56700    -0.00032    104.77109    -41.38026    14.77109    -41.38026    14.77109    -0.00032    104.77109
77821700473.46706    -0.00032    103.83310    -41.29722    13.83310    -41.29722    13.83310    -0.00032    103.83310
77964492028.34479    -0.00033    102.88955    -41.21300    12.88955    -41.21300    12.88955    -0.00033    102.88955
78107545585.05518    -0.00033    101.94029    -41.12757    11.94029    -41.12757    11.94029    -0.00033    101.94029
78250861624.33365    -0.00034    100.98516    -41.04091    10.98516    -41.04091    10.98516    -0.00034    100.98516
78394440627.79802    -0.00035    100.02401    -40.95299    10.02401    -40.95299    10.02401    -0.00035    100.02401
78538283077.94893    -0.00036    99.05668    -40.86378    9.05668    -40.86378    9.05668    -0.00036    99.05668
78682389458.17319    -0.00036    98.08302    -40.77325    8.08302    -40.77325    8.08302    -0.00036    98.08302
78826760252.74428    -0.00037    97.10286    -40.68136    7.10286    -40.68136    7.10286    -0.00037    97.10286
78971395946.82425    -0.00038    96.11605    -40.58808    6.11605    -40.58808    6.11605    -0.00038    96.11605
79116297026.46564    -0.00039    95.12242    -40.49338    5.12242    -40.49338    5.12242    -0.00039    95.12242
79261463978.61197    -0.00040    94.12181    -40.39720    4.12181    -40.39720    4.12181    -0.00040    94.12181
79406897291.10107    -0.00041    93.11406    -40.29952    3.11406    -40.29952    3.11406    -0.00041    93.11406
79552597452.66563    -0.00041    92.09900    -40.20028    2.09900    -40.20028    2.09900    -0.00041    92.09900
79698564952.93535    -0.00042    91.07646    -40.09943    1.07646    -40.09943    1.07646    -0.00042    91.07646
79844800282.43747    -0.00043    90.04627    -39.99693    0.04627    -39.99693    0.04627    -0.00043    90.04627
79991303932.60017    -0.00045    89.00827    -39.89271    -0.99173    -39.89271    -0.99173    -0.00045    89.00827
80138076395.75302    -0.00046    87.96228    -39.78672    -2.03772    -39.78672    -2.03772    -0.00046    87.96228
80285118165.12892    -0.00047    86.90811    -39.67890    -3.09189    -39.67890    -3.09189    -0.00047    86.90811
80432429734.86610    -0.00048    85.84561    -39.56917    -4.15439    -39.56917    -4.15439    -0.00048    85.84561
80580011600.00861    -0.00049    84.77458    -39.45746    -5.22542    -39.45746    -5.22542    -0.00049    84.77458
80727864256.50966    -0.00051    83.69485    -39.34370    -6.30515    -39.34370    -6.30515    -0.00051    83.69485
80875988201.23221    -0.00052    82.60623    -39.22781    -7.39377    -39.22781    -7.39377    -0.00052    82.60623
81024383931.95084    -0.00053    81.50855    -39.10969    -8.49145    -39.10969    -8.49145    -0.00053    81.50855
81173051947.35382    -0.00055    80.40160    -38.98925    -9.59840    -38.98925    -9.59840    -0.00055    80.40160
81321992747.04356    -0.00056    79.28519    -38.86638    -10.71481    -38.86638    -10.71481    -0.00056    79.28519
81471206831.54002    -0.00058    78.15914    -38.74098    -11.84086    -38.74098    -11.84086    -0.00058    78.15914
81620694702.28127    -0.00060    77.02325    -38.61293    -12.97675    -38.61293    -12.97675    -0.00060    77.02325
81770456861.62541    -0.00062    75.87732    -38.48211    -14.12268    -38.48211    -14.12268    -0.00062    75.87732
81920493812.85263    -0.00064    74.72113    -38.34836    -15.27887    -38.34836    -15.27887    -0.00064    74.72113
82070806060.16566    -0.00066    73.55449    -38.21155    -16.44551    -38.21155    -16.44551    -0.00066    73.55449
82221394108.69328    -0.00068    72.37717    -38.07152    -17.62283    -38.07152    -17.62283    -0.00068    72.37717
82372258464.49078    -0.00070    71.18897    -37.92808    -18.81103    -37.92808    -18.81103    -0.00070    71.18897
82523399634.54199    -0.00072    69.98966    -37.78107    -20.01034    -37.78107    -20.01034    -0.00072    69.98966
82674818126.76131    -0.00075    68.77900    -37.63027    -21.22100    -37.63027    -21.22100    -0.00075    68.77900
82826514449.99417    -0.00078    67.55677    -37.47547    -22.44323    -37.47547    -22.44323    -0.00078    67.55677
82978489114.02057    -0.00081    66.32272    -37.31643    -23.67728    -37.31643    -23.67728    -0.00081    66.32272
83130742629.55556    -0.00084    65.07660    -37.15288    -24.92340    -37.15288    -24.92340    -0.00084    65.07660
83283275508.25128    -0.00087    63.81815    -36.98456    -26.18185    -36.98456    -26.18185    -0.00087    63.81815
83436088262.69902    -0.00091    62.54710    -36.81115    -27.45290    -36.81115    -27.45290    -0.00091    62.54710
83589181406.42966    -0.00094    61.26317    -36.63233    -28.73683    -36.63233    -28.73683    -0.00094    61.26317
83742555453.91722    -0.00098    59.96606    -36.44772    -30.03394    -36.44772    -30.03394    -0.00098    59.96606
83896210920.57947    -0.00103    58.65546    -36.25693    -31.34454    -36.25693    -31.34454    -0.00103    58.65546
84050148322.77982    -0.00108    57.33104    -36.05953    -32.66896    -36.05953    -32.66896    -0.00108    57.33104
84204368177.82950    -0.00113    55.99246    -35.85503    -34.00754    -35.85503    -34.00754    -0.00113    55.99246
84358871003.98798    -0.00118    54.63935    -35.64291    -35.36065    -35.64291    -35.36065    -0.00118    54.63935
84513657320.46658    -0.00125    53.27130    -35.42260    -36.72870    -35.42260    -36.72870    -0.00125    53.27130
84668727647.42902    -0.00131    51.88789    -35.19344    -38.11211    -35.19344    -38.11211    -0.00131    51.88789
84824082505.99371    -0.00139    50.48866    -34.95474    -39.51134    -34.95474    -39.51134    -0.00139    50.48866
84979722418.23434    -0.00147    49.07310    -34.70572    -40.92690    -34.70572    -40.92690    -0.00147    49.07310
85135647907.18347    -0.00156    47.64065    -34.44550    -42.35935    -34.44550    -42.35935    -0.00156    47.64065
85291859496.83301    -0.00166    46.19072    -34.17312    -43.80928    -34.17312    -43.80928    -0.00166    46.19072
85448357712.13632    -0.00177    44.72260    -33.88750    -45.27740    -33.88750    -45.27740    -0.00177    44.72260
85605143079.01028    -0.00190    43.23555    -33.58744    -46.76445    -33.58744    -46.76445    -0.00190    43.23555
85762216124.33586    -0.00205    41.72870    -33.27158    -48.27130    -33.27158    -48.27130    -0.00205    41.72870
85919577375.96167    -0.00221    40.20106    -32.93839    -49.79894    -32.93839    -49.79894    -0.00221    40.20106
86077227362.70457    -0.00239    38.65152    -32.58616    -51.34848    -32.58616    -51.34848    -0.00239    38.65152
86235166614.35199    -0.00261    37.07878    -32.21293    -52.92122    -32.21293    -52.92122    -0.00261    37.07878
86393395661.66254    -0.00286    35.48132    -31.81649    -54.51868    -31.81649    -54.51868    -0.00286    35.48132
86551915036.36963    -0.00315    33.85735    -31.39428    -56.14265    -31.39428    -56.14265    -0.00315    33.85735
86710725271.18198    -0.00350    32.20474    -30.94338    -57.79526    -30.94338    -57.79526    -0.00350    32.20474
86869826899.78581    -0.00391    30.52093    -30.46042    -59.47907    -30.46042    -59.47907    -0.00391    30.52093
87029220456.84685    -0.00440    28.80282    -29.94146    -61.19718    -29.94146    -61.19718    -0.00440    28.80282
87188906478.01093    -0.00501    27.04655    -29.38189    -62.95345    -29.38189    -62.95345    -0.00501    27.04655
87348885499.90764    -0.00576    25.24733    -28.77628    -64.75267    -28.77628    -64.75267    -0.00576    25.24733
87509158060.15092    -0.00670    23.39906    -28.11814    -66.60094    -28.11814    -66.60094    -0.00670    23.39906
87669724697.34116    -0.00791    21.49386    -27.39964    -68.50614    -27.39964    -68.50614    -0.00791    21.49386
87830585951.06728    -0.00949    19.52132    -26.61124    -70.47868    -26.61124    -70.47868    -0.00949    19.52132
87991742361.90735    -0.01159    17.46739    -25.74110    -72.53261    -25.74110    -72.53261    -0.01159    17.46739
88153194471.43228    -0.01449    15.31256    -24.77431    -74.68744    -24.77431    -74.68744    -0.01449    15.31256
88314942822.20631    -0.01860    13.02884    -23.69161    -76.97116    -23.69161    -76.97116    -0.01860    13.02884
88476987957.78931    -0.02468    10.57446    -22.46755    -79.42554    -22.46755    -79.42554    -0.02468    10.57446
88639330422.73869    -0.03410    7.88392    -21.06727    -82.11608    -21.06727    -82.11608    -0.03410    7.88392
88801970762.61020    -0.04968    4.84803    -19.44110    -85.15197    -19.44110    -85.15197    -0.04968    4.84803
88964909523.96152    -0.07766    1.26953    -17.51439    -88.73047    -17.51439    -88.73047    -0.07766    1.26953
89128147254.35286    -0.13420    -3.24871    -15.16719    -93.24871    -15.16719    -93.24871    -0.13420    -3.24871
89291684502.34914    -0.27053    -9.63845    -12.19022    -99.63845    -12.19022    -99.63845    -0.27053    -9.63845
89455521817.52209    -0.71414    -20.64401    -8.19219    -110.64401    -8.19219    -110.64401    -0.71414    -20.64401
89619659750.45094    -3.33093    -47.21223    -2.71172    -137.21223    -2.71172    -137.21223    -3.33093    -47.21223
89784098852.72607    -9.98980    68.76242    -0.45871    158.76242    -0.45871    158.76242    -9.98980    68.76242
89948839676.94962    -1.77981    29.83852    -4.73367    119.83852    -4.73367    119.83852    -1.77981    29.83852
90113882776.73767    -0.77696    15.16702    -7.85654    105.16702    -7.85654    105.16702    -0.77696    15.16702
90279228706.72250    -0.49573    6.96510    -9.67093    96.96510    -9.67093    96.96510    -0.49573    6.96510
90444878022.55298    -0.39561    0.87796    -10.60144    90.87796    -10.60144    90.87796    -0.39561    0.87796
90610831280.89859    -0.37362    -4.55536    -10.83896    85.44464    -10.83896    85.44464    -0.37362    -4.55536
90777089039.44981    -0.41216    -10.14538    -10.43165    79.85462    -10.43165    79.85462    -0.41216    -10.14538
90943651856.92047    -0.54021    -16.75131    -9.31953    73.24869    -9.31953    73.24869    -0.54021    -16.75131
91110520293.04980    -0.89096    -26.01702    -7.31714    63.98298    -7.31714    63.98298    -0.89096    -26.01702
91277694908.60321    -2.13722    -42.64782    -4.10423    47.35218    -4.10423    47.35218    -2.13722    -42.64782
91445176265.37592    -11.28765    -81.79782    -0.33549    8.20218    -0.33549    8.20218    -11.28765    -81.79782
91612964926.19363    -4.54860    42.40058    -1.87665    -47.59942    -1.87665    -47.59942    -4.54860    42.40058
91781061454.91484    -1.29536    15.26811    -5.88553    -74.73189    -5.88553    -74.73189    -1.29536    15.26811
91949466416.43286    -0.66019    2.15937    -8.50705    -87.84063    -8.50705    -87.84063    -0.66019    2.15937
92118180376.67661    -0.49211    -6.88063    -9.70098    -96.88063    -9.70098    -96.88063    -0.49211    -6.88063
92287203902.61430    -0.53962    -15.79635    -9.32400    -105.79635    -9.32400    -105.79635    -0.53962    -15.79635
92456537562.25421    -1.19169    -31.26932    -6.19845    -121.26932    -6.19845    -121.26932    -1.19169    -31.26932
92626181924.64709    -6.56439    54.85078    -1.08227    144.85078    -1.08227    144.85078    -6.56439    54.85078
92796137559.88687    -0.07992    -4.33566    -17.39107    85.66434    -17.39107    85.66434    -0.07992    -4.33566
92966405039.11450    -0.42548    -35.70548    -10.30007    -125.70548    -10.30007    -125.70548    -0.42548    -35.70548
93136984934.51854    -0.56013    -10.52286    -9.17198    79.47714    -9.17198    79.47714    -0.56013    -10.52286
93307877819.33745    -0.11225    2.66759    -15.93208    -87.33241    -15.93208    -87.33241    -0.11225    2.66759
93479084267.86183    -0.00049    -12.79143    -39.51459    -102.79143    -39.51459    -102.79143    -0.00049    -12.79143
93650604855.43503    -0.00000    -18.01088    -98.75249    71.98912    -98.75249    71.98912    -0.00000    -18.01088
93822440158.45706    -0.00000    -21.70945    -61.25967    68.29055    -61.25967    68.29055    -0.00000    -21.70945
93994590754.38521    -0.00000    -24.79922    -77.51886    65.20078    -77.51886    65.20078    -0.00000    -24.79922
94167057221.73665    -0.00000    -27.56103    -61.99510    -117.56103    -61.99510    -117.56103    -0.00000    -27.56103
94339840140.08905    -0.00001    -30.11793    -55.78005    -120.11793    -55.78005    -120.11793    -0.00001    -30.11793
94512940090.08453    -0.00002    -32.53476    -52.72229    -122.53476    -52.72229    -122.53476    -0.00002    -32.53476
94686357653.43025    -0.00004    -34.84982    -50.85913    -124.84982    -50.85913    -124.84982    -0.00004    -34.84982
94860093412.90074    -0.00005    -37.08756    -49.60775    -127.08756    -49.60775    -127.08756    -0.00005    -37.08756
95034147952.34015    -0.00006    -39.26451    -48.71635    -129.26451    -48.71635    -129.26451    -0.00006    -39.26451
95208521856.66292    -0.00007    -41.39232    -48.05493    -131.39232    -48.05493    -131.39232    -0.00007    -41.39232
95383215711.85770    -0.00008    -43.47947    -47.54878    -133.47947    -47.54878    -133.47947    -0.00008    -43.47947
95558230104.98804    -0.00008    -45.53230    -47.15179    -135.53230    -47.15179    -135.53230    -0.00008    -45.53230
95733565624.19464    -0.00009    -47.55566    -46.83392    -137.55566    -46.83392    -137.55566    -0.00009    -47.55566
95909222858.69769    -0.00010    -49.55332    -46.57484    -139.55332    -46.57484    -139.55332    -0.00010    -49.55332
96085202398.79755    -0.00010    -51.52825    -46.36033    -141.52825    -46.36033    -141.52825    -0.00010    -51.52825
96261504835.87862    -0.00010    -53.48283    -46.18019    -143.48283    -46.18019    -143.48283    -0.00010    -53.48283
96438130762.41016    -0.00011    -55.41899    -46.02693    -145.41899    -46.02693    -145.41899    -0.00011    -55.41899
96615080771.94846    -0.00011    -57.33829    -45.89497    -147.33829    -45.89497    -147.33829    -0.00011    -57.33829
96792355459.13927    -0.00011    -59.24201    -45.78005    -149.24201    -45.78005    -149.24201    -0.00011    -59.24201
96969955419.71840    -0.00012    -61.13123    -45.67889    -151.13123    -45.67889    -151.13123    -0.00012    -61.13123
97147881250.51578    -0.00012    -63.00685    -45.58895    -153.00685    -45.58895    -153.00685    -0.00012    -63.00685
97326133549.45607    -0.00012    -64.86960    -45.50818    -154.86960    -45.50818    -154.86960    -0.00012    -64.86960
97504712915.56107    -0.00012    -66.72014    -45.43497    -156.72014    -45.43497    -156.72014    -0.00012    -66.72014
97683619948.95201    -0.00013    -68.55900    -45.36799    -158.55900    -45.36799    -158.55900    -0.00013    -68.55900
97862855250.85025    -0.00013    -70.38665    -45.30618    -160.38665    -45.30618    -160.38665    -0.00013    -70.38665
98042419423.58133    -0.00013    -72.20350    -45.24864    -162.20350    -45.24864    -162.20350    -0.00013    -72.20350
98222313070.57559    -0.00013    -74.00991    -45.19461    -164.00991    -45.19461    -164.00991    -0.00013    -74.00991
98402536796.37100    -0.00013    -75.80619    -45.14347    -165.80619    -45.14347    -165.80619    -0.00013    -75.80619
98583091206.61366    -0.00013    -77.59262    -45.09468    -167.59262    -45.09468    -167.59262    -0.00013    -77.59262
98763976908.06201    -0.00014    -79.36947    -45.04778    -169.36947    -45.04778    -169.36947    -0.00014    -79.36947
98945194508.58743    -0.00014    -81.13695    -45.00235    -171.13695    -45.00235    -171.13695    -0.00014    -81.13695
99126744617.17673    -0.00014    -82.89529    -44.95805    -172.89529    -44.95805    -172.89529    -0.00014    -82.89529
99308627843.93439    -0.00014    -84.64470    -44.91456    -174.64470    -44.91456    -174.64470    -0.00014    -84.64470
99490844800.08331    -0.00014    -86.38537    -44.87159    -176.38537    -44.87159    -176.38537    -0.00014    -86.38537
99673396097.96902    -0.00014    -88.11747    -44.82891    -178.11747    -44.82891    -178.11747    -0.00014    -88.11747
99856282351.06015    -0.00014    -89.84121    -44.78627    -179.84121    -44.78627    -179.84121    -0.00014    -89.84121
100039504173.95140    -0.00015    -91.55675    -44.74347    178.44325    -44.74347    178.44325    -0.00015    -91.55675
100223062182.36406    -0.00015    -93.26427    -44.70032    176.73573    -44.70032    176.73573    -0.00015    -93.26427
100406956993.15024    -0.00015    -94.96395    -44.65665    175.03605    -44.65665    175.03605    -0.00015    -94.96395
100591189224.29356    -0.00015    -96.65597    -44.61228    173.34403    -44.61228    173.34403    -0.00015    -96.65597
100775759494.91153    -0.00015    -98.34052    -44.56708    171.65948    -44.56708    171.65948    -0.00015    -98.34052
100960668425.25797    -0.00015    -100.01776    -44.52091    169.98224    -44.52091    169.98224    -0.00015    -100.01776
101145916636.72379    -0.00016    -101.68791    -44.47362    168.31209    -44.47362    168.31209    -0.00016    -101.68791
101331504751.84105    -0.00016    -103.35114    -44.42510    166.64886    -44.42510    166.64886    -0.00016    -103.35114
101517433394.28378    -0.00016    -105.00766    -44.37524    164.99234    -44.37524    164.99234    -0.00016    -105.00766
101703703188.87030    -0.00016    -106.65767    -44.32392    163.34233    -44.32392    163.34233    -0.00016    -106.65767
101890314761.56578    -0.00016    -108.30138    -44.27104    161.69862    -44.27104    161.69862    -0.00016    -108.30138
102077268739.48285    -0.00016    -109.93902    -44.21652    160.06098    -44.21652    160.06098    -0.00016    -109.93902
102264565750.88589    -0.00017    -111.57079    -44.16025    158.42921    -44.16025    158.42921    -0.00017    -111.57079
102452206425.19170    -0.00017    -113.19695    -44.10216    156.80305    -44.10216    156.80305    -0.00017    -113.19695
102640191392.97192    -0.00017    -114.81771    -44.04216    155.18229    -44.04216    155.18229    -0.00017    -114.81771
102828521285.95564    -0.00017    -116.43333    -43.98019    153.56667    -43.98019    153.56667    -0.00017    -116.43333
103017196737.02994    -0.00018    -118.04406    -43.91616    151.95594    -43.91616    151.95594    -0.00018    -118.04406
103206218380.24423    -0.00018    -119.65016    -43.85002    150.34984    -43.85002    150.34984    -0.00018    -119.65016
103395586850.81100    -0.00018    -121.25190    -43.78170    148.74810    -43.78170    148.74810    -0.00018    -121.25190
103585302785.10825    -0.00018    -122.84955    -43.71115    147.15045    -43.71115    147.15045    -0.00018    -122.84955
103775366820.68195    -0.00019    -124.44340    -43.63831    145.55660    -43.63831    145.55660    -0.00019    -124.44340
103965779596.24683    -0.00019    -126.03373    -43.56313    143.96627    -43.56313    143.96627    -0.00019    -126.03373
104156541751.69067    -0.00019    -127.62086    -43.48556    142.37914    -43.48556    142.37914    -0.00019    -127.62086
104347653928.07498    -0.00020    -129.20507    -43.40555    140.79493    -43.40555    140.79493    -0.00020    -129.20507
104539116767.63750    -0.00020    -130.78670    -43.32308    139.21330    -43.32308    139.21330    -0.00020    -130.78670
104730930913.79477    -0.00021    -132.36606    -43.23809    137.63394    -43.23809    137.63394    -0.00021    -132.36606
104923097011.14279    -0.00021    -133.94348    -43.15055    136.05652    -43.15055    136.05652    -0.00021    -133.94348
105115615705.46143    -0.00021    -135.51931    -43.06044    134.48069    -43.06044    134.48069    -0.00021    -135.51931
105308487643.71509    -0.00022    -137.09389    -42.96772    132.90611    -42.96772    132.90611    -0.00022    -137.09389
105501713474.05525    -0.00022    -138.66758    -42.87236    131.33242    -42.87236    131.33242    -0.00022    -138.66758
105695293845.82303    -0.00023    -140.24075    -42.77434    129.75925    -42.77434    129.75925    -0.00023    -140.24075
105889229409.54988    -0.00023    -141.81376    -42.67363    128.18624    -42.67363    128.18624    -0.00023    -141.81376
106083520816.96201    -0.00024    -143.38701    -42.57021    126.61299    -42.57021    126.61299    -0.00024    -143.38701
106278168720.98105    -0.00025    -144.96089    -42.46407    125.03911    -42.46407    125.03911    -0.00025    -144.96089
106473173775.72668    -0.00025    -146.53579    -42.35519    123.46421    -42.35519    123.46421    -0.00025    -146.53579
106668536636.51918    -0.00026    -148.11213    -42.24355    121.88787    -42.24355    121.88787    -0.00026    -148.11213
106864257959.88007    -0.00027    -149.69032    -42.12914    120.30968    -42.12914    120.30968    -0.00027    -149.69032
107060338403.53664    -0.00027    -151.27080    -42.01194    118.72920    -42.01194    118.72920    -0.00027    -151.27080
107256778626.42303    -0.00028    -152.85400    -41.89194    117.14600    -41.89194    117.14600    -0.00028    -152.85400
107453579288.68132    -0.00029    -154.44037    -41.76914    115.55963    -41.76914    115.55963    -0.00029    -154.44037
107650741051.66592    -0.00030    -156.03037    -41.64352    113.96963    -41.64352    113.96963    -0.00030    -156.03037
107848264577.94441    -0.00031    -157.62447    -41.51508    112.37553    -41.51508    112.37553    -0.00031    -157.62447
108046150531.30006    -0.00032    -159.22315    -41.38381    110.77685    -41.38381    110.77685    -0.00032    -159.22315
108244399576.73448    -0.00033    -160.82689    -41.24971    109.17311    -41.24971    109.17311    -0.00033    -160.82689
108443012380.46829    -0.00034    -162.43619    -41.11277    107.56381    -41.11277    107.56381    -0.00034    -162.43619
108641989609.94572    -0.00035    -164.05157    -40.97299    105.94843    -40.97299    105.94843    -0.00035    -164.05157
108841331933.83524    -0.00036    -165.67355    -40.83036    104.32645    -40.83036    104.32645    -0.00036    -165.67355
109041040022.03224    -0.00037    -167.30265    -40.68488    102.69735    -40.68488    102.69735    -0.00037    -167.30265
109241114545.66168    -0.00038    -168.93943    -40.53655    101.06057    -40.53655    101.06057    -0.00038    -168.93943
109441556177.07874    -0.00040    -170.58444    -40.38536    99.41556    -40.38536    99.41556    -0.00040    -170.58444
109642365589.87346    -0.00041    -172.23825    -40.23133    97.76175    -40.23133    97.76175    -0.00041    -172.23825
109843543458.87143    -0.00043    -173.90143    -40.07444    96.09857    -40.07444    96.09857    -0.00043    -173.90143
110045090460.13646    -0.00044    -175.57458    -39.91469    94.42542    -39.91469    94.42542    -0.00044    -175.57458
110247007270.97321    -0.00046    -177.25830    -39.75209    92.74170    -39.75209    92.74170    -0.00046    -177.25830
110449294569.92789    -0.00048    -178.95322    -39.58664    91.04678    -39.58664    91.04678    -0.00048    -178.95322
110651953036.79300    -0.00050    179.34005    -39.41833    89.34005    -39.41833    89.34005    -0.00050    179.34005
110854983352.60791    -0.00052    177.62086    -39.24716    87.62086    -39.24716    87.62086    -0.00052    177.62086
111058386199.66162    -0.00054    175.88856    -39.07315    85.88856    -39.07315    85.88856    -0.00054    175.88856
111262162261.49542    -0.00056    174.14247    -38.89628    84.14247    -38.89628    84.14247    -0.00056    174.14247
111466312222.90361    -0.00058    172.38193    -38.71656    82.38193    -38.71656    82.38193    -0.00058    172.38193
111670836769.93817    -0.00061    170.60623    -38.53398    80.60623    -38.53398    80.60623    -0.00061    170.60623
111875736589.90952    -0.00064    168.81467    -38.34856    78.81467    -38.34856    78.81467    -0.00064    168.81467
112081012371.38914    -0.00066    167.00654    -38.16028    77.00654    -38.16028    77.00654    -0.00066    167.00654
112286664804.21242    -0.00069    165.18111    -37.96916    75.18111    -37.96916    75.18111    -0.00069    165.18111
112492694579.47922    -0.00072    163.33763    -37.77518    73.33763    -37.77518    73.33763    -0.00072    163.33763
112699102389.55869    -0.00076    161.47536    -37.57835    71.47536    -37.57835    71.47536    -0.00076    161.47536
112905888928.09003    -0.00079    159.59352    -37.37866    69.59352    -37.37866    69.59352    -0.00079    159.59352
113113054889.98508    -0.00083    157.69135    -37.17612    67.69135    -37.17612    67.69135    -0.00083    157.69135
113320600971.43121    -0.00087    155.76807    -36.97072    65.76807    -36.97072    65.76807    -0.00087    155.76807
113528527869.89197    -0.00092    153.82287    -36.76246    63.82287    -36.76246    63.82287    -0.00092    153.82287
113736836284.11185    -0.00096    151.85497    -36.55132    61.85497    -36.55132    61.85497    -0.00096    151.85497
113945526914.11702    -0.00101    149.86355    -36.33732    59.86355    -36.33732    59.86355    -0.00101    149.86355
114154600461.21815    -0.00106    147.84780    -36.12043    57.84780    -36.12043    57.84780    -0.00106    147.84780
114364057628.01308    -0.00112    145.80690    -35.90064    55.80690    -35.90064    55.80690    -0.00112    145.80690
114573899118.38757    -0.00118    143.74004    -35.67795    53.74004    -35.67795    53.74004    -0.00118    143.74004
114784125637.52020    -0.00124    141.64639    -35.45234    51.64639    -35.45234    51.64639    -0.00124    141.64639
114994737891.88300    -0.00130    139.52514    -35.22378    49.52514    -35.22378    49.52514    -0.00130    139.52514
115205736589.24426    -0.00138    137.37545    -34.99226    47.37545    -34.99226    47.37545    -0.00138    137.37545
115417122438.67136    -0.00145    135.19653    -34.75773    45.19653    -34.75773    45.19653    -0.00145    135.19653
115628896150.53146    -0.00153    132.98756    -34.52018    42.98756    -34.52018    42.98756    -0.00153    132.98756
