! Touchstone file exported from HFSS 3D Layout Design 2026.1.0
!        File:           D:/Work/SIM/ADS_AUTO_SIM/projects/RFSOC_RF/TX_Fillter.aedt
!        Generated:      11:38:14 PM Aug 30, 2026
!        Design:         TX_BAND1_MCFIL_R9_CNN044
!        Project:        TX_Fillter
!
# GHz S MA R 50.000000
! Terminal data exported
! Port[1] = Port1
! Port[2] = Port2
14                             0.964623076522719 173.721574752949 0.0053613172780323 174.720973698977 0.0053613172780323 174.720973698977 0.966035103062941 178.356857918284 
14.05                          0.96392866638764 172.683199988511 0.00549116270952029 174.30042973701  0.00549116270952025 174.300429737011 0.9653642226083  177.374162406557 
14.1                           0.963212108252952 171.636016244488 0.00562795626996467 173.8928427279   0.00562795626996463 173.8928427279   0.964671083423407 176.383013374793 
14.15                          0.962472345563624 170.579736488777 0.00577223611670826 173.497892411759 0.00577223611670823 173.497892411759 0.963954578498167 175.383118378    
14.2                           0.961708254317228 169.514059558498 0.00592458959658375 173.115181924159 0.00592458959658376 173.115181924159 0.963213527597731 174.374170027781 
14.25                          0.960918637639885 168.438669284752 0.00608565819548952 172.744231361259 0.00608565819548952 172.744231361259 0.962446671199118 173.35584502676  
14.3                           0.960102219832051 167.353233550543 0.00625614302482599 172.384471245259 0.00625614302482599 172.384471245259 0.961652663821789 172.327803126237 
14.35                          0.959257639822768 166.257403275733 0.00643681090865508 172.035235953721 0.00643681090865505 172.035235953721 0.960830066680893 171.289685999772 
14.4                           0.958383443962786 165.15081132221  0.00662850114412707 171.695757184794 0.00662850114412707 171.695757184795 0.95997733958228 170.241116024578 
14.45                          0.957478078077486 164.033071311738 0.00683213301777704 171.365157537972 0.00683213301777705 171.365157537972 0.95909283196723 169.181694961709 
14.5                           0.956539878689518 162.903776348102 0.00704871417196237 171.042444296315 0.00704871417196234 171.042444296315 0.958174773001949 168.11100252499  
14.55                          0.955567063308446 161.762497634255 0.00727934992928133 170.726503500567 0.00727934992928134 170.726503500567 0.957221260591999 167.028594827492 
14.6                           0.954557719669915 160.608782974086 0.00752525369861039 170.416094407597 0.00752525369861038 170.416094407597 0.956230249184483 165.93400269303  
14.65                          0.953509793789748 159.442155147283 0.00778775860481651 170.109844424664 0.00778775860481652 170.109844424664 0.95519953620067 164.826729818716 
14.7                           0.952421076678436 158.262110144392 0.00806833050570424 169.806244606459 0.00806833050570424 169.806244606459 0.954126746918258 163.706250772899 
14.75                          0.951289189538152 157.068115247699 0.00836858258488044 169.503645793262 0.00836858258488043 169.503645793262 0.953009317594991 162.572008810938 
14.8                           0.950111567237133 155.859606941822 0.00869029173860902 169.200255455457 0.00869029173860902 169.200255455458 0.951844476593204 161.423413489108 
14.85                          0.948885439824211 154.63598863601  0.00903541700912548 168.894135291756 0.00903541700912548 168.894135291756 0.950629223227074 160.259838054493 
14.9                           0.94760781180858 153.396628177929 0.0094061203571822 168.583199605708 0.00940612035718217 168.583199605709 0.949360304009899 159.080616585937 
14.95                          0.946275438885384 152.140855136287 0.00980479011383997 168.265214457538 0.00980479011383997 168.265214457538 0.948034185926251 157.885040857965 
15                             0.944884801735088 150.867957826831 0.0102340675069559 167.937797556255 0.0102340675069559 167.937797556255 0.946647026291783 156.672356896003 
15.05                          0.943432076462222 149.577180053108 0.010696876722911 167.598418821066 0.010696876722911 167.598418821066 0.945194638689871 155.441761187112 
15.1                           0.941913101164906 148.267717529817 0.011196459040623 167.244401501866 0.0111964590406231 167.244401501866 0.943672454386725 154.192396505799 
15.15                          0.940323338038173 146.938713952546 0.0117364116648804 166.872923707179 0.0117364116648804 166.87292370718  0.942075478522339 152.923347309148 
15.2                           0.938657830308486 145.589256673169 0.0123207319919919 166.481020145217 0.0123207319919919 166.481020145217 0.940398240249962 151.633634649507 
15.25                          0.936911153170289 144.218371935071 0.0129538681656223 166.06558384088  0.0129538681656223 166.065583840881 0.938634735847466 150.322210546068 
15.3                           0.935077357743479 142.825019616683 0.0136407769279902 165.623367549609 0.0136407769279901 165.623367549609 0.936778363644637 148.987951748939 
15.35                          0.933149906887664 141.408087425473 0.0143869899455124 165.150984548801 0.0143869899455124 165.150984548801 0.934821849394501 147.629652820517 
15.4                           0.93112160148824 139.966384477535 0.0151986899934314 164.644908449819 0.0151986899934314 164.644908449819 0.932757160456211 146.246018449093 
15.45                          0.928984495562126 138.498634190305 0.0160827986267814 164.101471638622 0.0160827986267815 164.101471638622 0.930575406841825 144.835654898573 
15.5                           0.926729798207078 137.003466407701 0.017047077252059 163.516861920752 0.017047077252059 163.516861920752 0.928266726797219 143.397060485975 
15.55                          0.924347760025064 135.47940866839  0.0181002438530593 162.887116916241 0.0181002438530593 162.887116916241 0.92582015412329 141.928614964964 
15.6                           0.921827541171372 133.924876519104 0.0192521080245738 162.208115720905 0.0192521080245739 162.208115720905 0.923223463878971 140.42856767926  
15.65                          0.91915705759784 132.338162766581 0.0205137274391314 161.475567321068 0.0205137274391314 161.475567321068 0.920462992419626 138.895024334673 
15.7                           0.91632280134715 130.717425554452 0.0218975894257238 160.684995217057 0.0218975894257238 160.684995217057 0.917523426885382 137.325932223344 
15.75                          0.913309629887342 129.060675146607 0.0234178219868976 159.831717674726 0.0234178219868977 159.831717674726 0.914387558230381 135.719063719522 
15.8                           0.910100518417583 127.365759298186 0.0250904393325711 158.910822981423 0.0250904393325711 158.910822981423 0.911035990635529 134.071997854696 
15.85                          0.906676267788101 125.63034710229  0.0269336278740355 157.917139030979 0.0269336278740355 157.917139030979 0.907446798626875 132.382099773723 
15.9                           0.903015159113763 123.851911219409 0.0289680796032068 156.845196499616 0.0289680796032069 156.845196499616 0.903595121374928 130.646497877176 
15.95                          0.899092544272605 122.027708434267 0.0312173808735652 155.689184800003 0.0312173808735653 155.689184800003 0.89945268141726 128.862058474971 
16                             0.894880359217896 120.154758551497 0.0337084657755732 154.442899914561 0.0337084657755732 154.442899914561 0.894987212366142 127.025357822727 
16.05                          0.890346544352785 118.229821752791 0.036472144505037 153.099683114282 0.036472144505037 153.099683114282 0.890161776980325 125.132651500695 
16.1                           0.88545435310042 116.249374716854 0.0395437182511713 151.652349472818 0.0395437182511713 151.652349472817 0.884933953263882 123.17984124919  
16.15                          0.880161526279679 114.209586084079 0.0429636929925737 150.093105000533 0.0429636929925737 150.093105000532 0.879254862027272 121.162439629989 
16.2                           0.874419306095255 112.106292281517 0.0467786048626868 148.413451172906 0.0467786048626869 148.413451172905 0.873068004734376 119.075533294497 
16.25                          0.868171259779243 109.934975386919 0.051041968903372 146.604075650892 0.051041968903372 146.604075650892 0.866307875789667 116.913746288571 
16.3                           0.861351879807915 107.690745716674 0.0558153602173739 144.654728150363 0.0558153602173739 144.654728150363 0.858898309369391 114.671205834696 
16.35                          0.853884926341785 105.36833333969  0.0611696304203385 142.554080813043 0.0611696304203385 142.554080813042 0.850750518755733 112.34151459146  
16.4                           0.845681480206907 102.96209499529  0.0671862508117527 140.289573217003 0.0671862508117527 140.289573217002 0.841760788207465 109.917735778805 
16.45                          0.836637684988677 100.466046290683 0.0739587536932735 137.847243577202 0.0739587536932735 137.847243577201 0.831807787706773 107.392401195738 
16.5                           0.826632180749328 97.87393409569   0.0815942101143142 135.211550079709 0.081594210114314 135.211550079709 0.82074950621558 104.757557670338 
16.55                          0.815523279474965 95.1793714806024 0.090214629350051 132.365190184768 0.090214629350051 132.365190184768 0.808419850423857 102.004875790924 
16.6                           0.803146019410772 92.3760683750114 0.099958083482959 129.288931854498 0.099958083482959 129.288931854497 0.794625050984355 99.1258572077155 
16.65                          0.789309386088901 89.4582066886518 0.110979237956446 125.961479991132 0.110979237956446 125.961479991132 0.779140183914137 96.1121952602616 
16.7                           0.773794237057512 86.4210305069525 0.123448793066   122.359415117948 0.123448793065999 122.359415117948 0.761706390615478 92.9563707706042 
16.75                          0.756352861674109 83.2617516777152 0.137551102177218 118.457260751092 0.137551102177218 118.457260751092 0.742029819059031 89.6526039046773 
16.8                           0.736711699940462 79.9809092608972 0.153478933166626 114.227761775188 0.153478933166626 114.227761775188 0.719783973705196 86.1983379975182 
16.85                          0.714579575020271 76.5843656675117 0.171424016712534 109.642487580287 0.171424016712534 109.642487580287 0.694618105581197 82.5965059715965 
16.9                           0.689664839083028 73.0861636744908 0.191561783738953 104.672905993086 0.191561783738953 104.672905993086 0.666175490375037 78.8589262361737 
16.95                          0.661705902185009 69.5124831020707 0.214028757360749 99.2920949339981 0.214028757360749 99.2920949339981 0.634126766520768 75.0112884725269 
17                             0.630520185585817 65.9068724109549 0.238891815220075 93.4772442153821 0.238891815220075 93.4772442153821 0.598224453380721 71.1003021741067 
17.05                          0.596075553830233 62.3366901643603 0.266110491037297 87.213011820931  0.266110491037297 87.2130118209309 0.558384362392297 67.2036434222518 
17.1                           0.558584056290325 58.9001037940881 0.295497059243069 80.4955921198616 0.295497059243069 80.4955921198615 0.51479635192765 63.4432293523617 
17.15                          0.518608442367794 55.7317999757182 0.326684103566454 73.3370028630989 0.326684103566455 73.3370028630989 0.468059186187602 60.001774122855  
17.2                           0.477156548132348 53.0034595854775 0.359113884824329 65.7686529375703 0.359113884824329 65.7686529375703 0.419321566924067 57.1407208097133 
17.25                          0.435719633055409 50.9119793790232 0.392064496051991 57.8428957783545 0.392064496051992 57.8428957783544 0.370394801292012 55.2123260869486 
17.3                           0.396195760272095 49.6455789562505 0.424720453866288 49.6313081668405 0.424720453866288 49.6313081668405 0.323781584470378 54.645062042953  
17.35                          0.360642804232983 49.3201056196542 0.456279339138335 41.2191197311748 0.456279339138335 41.2191197311748 0.282528886011742 55.8545804609516 
17.4                           0.33085004155057 49.8949063030831 0.486067827120198 32.6964783318222 0.486067827120199 32.6964783318222 0.249748128586336 59.0130973237768 
17.45                          0.307824190191058 51.1137683472732 0.513631690387305 24.1485114179705 0.513631690387305 24.1485114179705 0.227651162828346 63.7089960017536 
17.5                           0.291423044140736 52.5392449135131 0.538773008299636 15.646680648353  0.538773008299636 15.646680648353  0.21637369577079 68.8400851637828 
17.55                          0.280386106509765 53.6958265610959 0.56152959585618 7.24337433340866 0.561529595856181 7.24337433340871 0.213607572379521 73.1151248894968 
17.6                           0.272778611663852 54.2326267331396 0.582112934080554 -1.02959968753718 0.582112934080554 -1.02959968753715 0.215665359083541 75.7490581162138 
17.65                          0.2665745062335  53.9978664362542 0.600830340428824 -9.15921566393288 0.600830340428824 -9.15921566393286 0.219004247503761 76.6260654766946 
17.7                           0.260079275754444 53.012221818798  0.618013601830516 -17.1474008668346 0.618013601830516 -17.1474008668346 0.22104524180516 76.0166957940063 
17.75                          0.252099031920706 51.4015519637368 0.633966276550582 -25.0064827385421 0.633966276550582 -25.0064827385421 0.220237977831476 74.2953379155636 
17.8                           0.241930025727935 49.3411854927798 0.648932335161641 -32.7548644798265 0.648932335161642 -32.7548644798265 0.215819794168112 71.8096402435197 
17.85                          0.229274085740735 47.0279951608765 0.663083086928452 -40.41344231133  0.663083086928453 -40.4134423113301 0.207558018492096 68.8530969048487 
17.9                           0.214148281488204 44.6765790555253 0.67651734981114 -48.0029332726664 0.67651734981114 -48.0029332726664 0.195562470754127 65.6812357489159 
17.95                          0.196818677727215 42.5330743205198 0.689270073750338 -55.5420791794763 0.689270073750338 -55.5420791794763 0.180170227725116 62.5446090511403 
18                             0.177768305511655 40.9039472342498 0.701325697083692 -63.046603201485 0.701325697083691 -63.046603201485 0.161887200000696 59.7352818356678 
18.05                          0.157705613412639 40.2007210126851 0.712633578227436 -70.5287740269532 0.712633578227436 -70.5287740269533 0.141378339057963 57.6597132280286 
18.1                           0.137625159701626 40.9981378314473 0.723123604632591 -77.9974405952232 0.72312360463259 -77.9974405952232 0.11951889774913 56.9711323114559 
18.15                          0.118935626438347 44.0708011502614 0.732720552384856 -85.4584152972771 0.732720552384855 -85.4584152972771 0.0975639834349712 58.8247497366367 
18.2                           0.10362498824316 50.2518517078448 0.74135608435838 -92.9150960209122 0.741356084358379 -92.9150960209122 0.0775873861194777 65.2821400302769 
18.25                          0.0942047252173158 59.7476363258879 0.74897756461954 -100.369226518974 0.748977564619539 -100.369226518974 0.0633323875113292 79.0831350525147 
18.3                           0.0928152613387286 70.9807363693437 0.755553206898458 -107.821703217616 0.755553206898457 -107.821703217616 0.0600306264786763 99.1964079801556 
18.35                          0.0996544389560339 80.9189294108178 0.76107346915547 -115.273348097046 0.761073469155469 -115.273348097046 0.0693138113994166 116.521941469911 
18.4                           0.112810319783773 87.5286603130179 0.765549002985514 -122.72558337686 0.765549002985513 -122.72558337686 0.0867823059092954 125.729582957184 
18.45                          0.129830464223728 90.7023605464226 0.769005792356882 -130.180963789154 0.769005792356882 -130.180963789154 0.107872023748448 128.683510507992 
18.5                           0.148844020702645 91.1986043882125 0.771478311100626 -137.643543681822 0.771478311100626 -137.643543681822 0.130128083919737 127.907468081338 
18.55                          0.168698551535172 89.7972942868869 0.773001569963266 -145.119075705304 0.773001569963266 -145.119075705304 0.152391573561342 124.895951462537 
18.6                           0.188764837398302 87.0738822901901 0.773602831386419 -152.615052409908 0.773602831386419 -152.615052409908 0.17412701622969 120.442048793526 
18.65                          0.208754702903099 83.4151057904105 0.773293594145709 -160.140609900506 0.773293594145709 -160.140609900506 0.195124205467783 114.972090501089 
18.7                           0.228603530311869 79.0747689986824 0.772062254208593 -167.70631336444 0.772062254208593 -167.70631336444 0.215370896440268 108.722850301815 
18.75                          0.248398232867455 74.218908423885  0.769867692896669 -175.32383863918 0.769867692896669 -175.32383863918 0.234993560468982 101.830149482654 
18.8                           0.268330332238462 68.9558749383996 0.76663397586421 176.994446282864 0.766633975864209 176.994446282864 0.254225470922939 94.3752763436914 
18.85                          0.288661476674463 63.355536040664  0.762246397365482 169.23600850524  0.762246397365481 169.23600850524  0.273385117458959 86.4113193307321 
18.9                           0.309694178057949 57.4617229485968 0.756549286905409 161.388806950502 0.756549286905408 161.388806950502 0.292856553192206 77.9794451558675 
18.95                          0.331743650362201 51.3007445873222 0.749346299907136 153.442107012979 0.749346299907135 153.442107012979 0.313066559740167 69.119586238397  
19                             0.355108513735595 44.8877219840798 0.740404294073284 145.387480212887 0.740404294073284 145.387480212887 0.334455235789933 59.8773811909522 
19.05                          0.380039588704658 38.2317635489532 0.729462242427603 137.219999481007 0.729462242427603 137.219999481007 0.357438377561106 50.3080145487809 
19.1                           0.406707494587701 31.3404962581905 0.716246762332598 128.939603225817 0.716246762332599 128.939603225817 0.382362481487399 40.4772204185693 
19.15                          0.435171454783001 24.2241045813226 0.70049547123114 120.552539568635 0.700495471231141 120.552539568635 0.409456335000748 30.4598428709105 
19.2                           0.465353474862677 16.8987699733949 0.681988214975394 112.072720375512 0.681988214975396 112.072720375512 0.438786318992435 20.3366938518727 
19.25                          0.497023428703861 9.38924280458762 0.660584096564117 103.522730508234 0.660584096564118 103.522730508234 0.470224639826086 10.1906985839726 
19.3                           0.529800787729086 1.73022479793607 0.63625940747049 94.9341845187163 0.636259407470491 94.9341845187161 0.503439609910593 0.103245571721538 
19.35                          0.563176954456076 -6.03369571279845 0.609138897231281 86.3471437014446 0.609138897231282 86.3471437014445 0.537914104349633 -9.84872757820705 
19.4                           0.596558139561861 -13.8496328343616 0.579511708835121 77.8084334284677 0.579511708835122 77.8084334284675 0.572992609077937 -19.5948545029207 
19.45                          0.629323287161457 -21.6593287597824 0.547825072169913 69.3689281260854 0.547825072169913 69.3689281260853 0.607950181735488 -29.0729066454997 
19.5                           0.66088670770613 -29.4029519825666 0.514653734732393 61.0801378492542 0.514653734732393 61.0801378492541 0.642070546226331 -38.2300593419542 
19.55                          0.690753127621179 -37.0231148418787 0.480649661866909 52.9906352652085 0.480649661866909 52.9906352652085 0.674717972461185 -47.0239283278975 
19.6                           0.718554994611212 -44.4684349282703 0.446482061309881 45.1429147958992 0.446482061309881 45.1429147958992 0.705389843090944 -55.4232536186638 
19.65                          0.744067245371664 -51.6961232655752 0.41277986449028 37.5711515463711 0.41277986449028 37.5711515463712 0.733742963574245 -63.4080396107354 
19.7                           0.767200938222554 -58.6733567973884 0.380086779053964 30.3000825321533 0.380086779053965 30.3000825321535 0.759594037117074 -70.9690378168688 
19.75                          0.787981699809996 -65.3774778004951 0.34883427794917 23.3449684979709 0.348834277949171 23.3449684979712 0.782900425221001 -78.1066098845144 
19.8                           0.806520618083419 -71.7952684988412 0.319332719732075 16.7124009773639 0.319332719732076 16.7124009773643 0.803729802575478 -84.8291423928073 
19.85                          0.822984348849993 -77.921638125615 0.291777059735907 10.401635194898  0.291777059735908 10.4016351948985 0.822226779346466 -91.1512478113533 
19.9                           0.837568973328304 -83.7580467854791 0.266261995029965 4.40614254380642 0.266261995029967 4.4061425438069  0.838582260601865 -97.0919745099458 
19.95                          0.850479745128352 -89.3109174480989 0.242801548142634 -1.28485291947903 0.242801548142636 -1.28485291947856 0.853008612376292 -102.673190338756 
20                             0.861917019712317 -94.5901963936294 0.221349250239607 -6.68500181999045 0.22134925023961 -6.68500181999001 0.865721499576293 -107.918232088885 
20.05                          0.872067575821694 -99.6081414999438 0.201816504727152 -11.8096909275539 0.201816504727155 -11.8096909275535 0.876927869447452 -112.85085026035 
20.1                           0.881100101843145 -104.378358983168 0.184087947186299 -16.6751531602396 0.184087947186302 -16.6751531602392 0.886818903342554 -117.494434966809 
20.15                          0.889163602900789 -108.915073358599 0.168033493537971 -21.2978070190932 0.168033493537974 -21.2978070190929 0.895566619094235 -121.871484752675 
20.2                           0.896387676436625 -113.232597767438 0.153517289555354 -25.6937904342948 0.153517289555357 -25.6937904342946 0.903322944046217 -126.003271134669 
20.25                          0.902883860968047 -117.34496639554 0.140404023383365 -29.8786497748693 0.140404023383368 -29.8786497748691 0.910220325212293 -129.909652340035 
20.3                           0.908747505690813 -121.265692300177 0.12856313383596 -33.867147145679 0.128563133835962 -33.8671471456788 0.916373198696073 -133.60899540349 
20.35                          0.914059805143506 -125.007618864184 0.117871419342245 -37.6731544774375 0.117871419342246 -37.6731544774374 0.92187985915372 -137.118173341391 
20.4                           0.918889787451782 -128.582839026144 0.108214479502777 -41.309609110168 0.108214479502778 -41.309609110168 0.926824437935727 -140.45261168516 
20.45                          0.923296143258538 -132.002662153474 0.0994873357975787 -44.7885114110913 0.0994873357975799 -44.7885114110914 0.931278818236111 -143.626365314461 
20.5                           0.927328845736097 -135.277613376668 0.0915944971111781 -48.1209499504154 0.091594497111179 -48.1209499504155 0.935304396100786 -146.652211964105 
20.55                          0.931030550206592 -138.417454225627 0.0844496667297448 -51.31714375753  0.0844496667297455 -51.3171437575299 0.938953647533786 -149.541752991328 
20.6                           0.934437783135239 -141.431216542186 0.0779752321621329 -54.3864942597706 0.0779752321621334 -54.3864942597707 0.942271492947692 -152.305515134828 
20.65                          0.937581940728992 -144.327244011389 0.0721016366633808 -57.3376418070581 0.0721016366633809 -57.3376418070581 0.945296467630728 -154.953049274515 
20.7                           0.940490121317673 -147.113237404581 0.0667666997253097 -60.1785233652351 0.0667666997253098 -60.1785233652351 0.948061715659254 -157.493023807421 
20.75                          0.943185815922349 -149.796300898152 0.0619149308449841 -62.9164291629923 0.061914930844984 -62.9164291629922 0.950595828145267 -159.933311360132 
20.8                           0.945689479702799 -152.382987740446 0.0574968645667319 -65.5580569226123 0.0574968645667316 -65.5580569226122 0.952923547101305 -162.281068297862 
20.85                          0.948019004400209 -154.879344180051 0.0534684334258486 -68.1095628890404 0.0534684334258481 -68.1095628890401 0.95506635494935 -164.542806969986 
20.9                           0.950190109075392 -157.290951014169 0.0497903876627029 -70.5766092680859 0.0497903876627024 -70.5766092680855 0.957042967668612 -166.724460929838 
20.95                          0.952216663723296 -159.62296242085 0.0464277654019221 -72.9644079474329 0.0464277654019214 -72.9644079474323 0.958869747284609 -168.831443540096 
21                             0.954110957883845 -161.88014194392 0.0433494136413245 -75.2777605434083 0.0433494136413238 -75.2777605434076 0.960561047136399 -170.868700464854 
21.05                          0.955883924228839 -164.066895633963 0.0405275583132479 -77.5210949209457 0.0405275583132474 -77.5210949209449 0.962129501267499 -172.840756584492 
21.1                           0.957545325289838 -166.187302434048 0.0379374204668621 -79.6984983943922 0.0379374204668614 -79.6984983943913 0.963586267432468 -174.75175786951 
21.15                          0.959103909979743 -168.245141950157 0.0355568749898402 -81.813747847231 0.0355568749898396 -81.81374784723  0.964941231610579 -176.605508728396 
21.2                           0.960567545315604 -170.243919774307 0.0333661480418113 -83.8703370195852 0.0333661480418107 -83.8703370195841 0.966203180560278 -178.405505311447 
21.25                          0.961943327733342 -172.186890540829 0.0313475493717279 -85.871501210568 0.0313475493717272 -85.8715012105668 0.967379947810115 179.845034786516 
21.3                           0.963237677559362 -174.077078898414 0.029485235841542 -87.8202396329696 0.0294852358415414 -87.8202396329683 0.968478537536063 178.143146022677 
21.35                          0.964456419535958 -175.917298576156 0.027765002714906 -89.7193356437258 0.0277650027149053 -89.7193356437244 0.969505229993678 176.486091240599 
21.4                           0.965604851758029 -177.710169713443 0.0261740995491127 -91.571375057285 0.0261740995491122 -91.5713750572835 0.970465671530283 174.871340519687 
21.45                          0.966687804943641 -179.458134612894 0.0247010678231578 -93.3787627318166 0.0247010678231574 -93.3787627318152 0.971364951674188 173.296552252794 
21.5                           0.967709693610102 178.836527936151 0.0233355977269326 -95.1437376011291 0.0233355977269322 -95.1437376011277 0.972207669364776 171.759556197805 
21.55                          0.968674560444127 177.171689628115 0.0220684018154685 -96.8683863087348 0.0220684018154682 -96.8683863087335 0.972997990032259 170.258338278562 
21.6                           0.969586114925842 175.545360781957 0.0208911034918433 -98.5546555850643 0.020891103491843 -98.5546555850631 0.973739694944735 168.79102693693  
21.65                          0.970447767081212 173.955679539871 0.0197961385199769 -100.20436349454 0.0197961385199766 -100.204363494539 0.974436224001363 167.355880861317 
21.7                           0.971262657087215 172.400902022145 0.0187766679832373 -101.819209666139 0.0187766679832371 -101.819209666138 0.97509071295416 165.951277937737 
21.75                          0.972033681331889 170.87939334626  0.0178265012969507 -103.400784609217 0.0178265012969505 -103.400784609216 0.975706025879497 164.575705287828 
21.8                           0.972763515431717 169.389619427354 0.016940028053735 -104.950578205635 0.0169400280537349 -104.950578205635 0.976284783587229 163.227750274383 
21.85                          0.973454634627275 167.930139485393 0.0161121576316309 -106.469987459635 0.0161121576316308 -106.469987459635 0.976829388545465 161.906092369092 
21.9                           0.974109331911165 166.499599191889 0.0153382656280267 -107.960323578273 0.0153382656280267 -107.960323578273 0.977342046807946 160.609495789622 
21.95                          0.974729734187125 165.096724395712 0.0146141462991887 -109.42281844754 0.0146141462991886 -109.422818447541 0.977824787355478 159.336802824044 
22                             0.975317816713692 163.720315373682 0.0139359702875379 -110.858630562421 0.0139359702875378 -110.858630562422 0.978279479200042 158.086927770178 
22.05                          0.975875416048004 162.369241557024 0.0133002470083251 -112.268850463038 0.0133002470083251 -112.268850463039 0.978707846547784 156.858851425784 
22.1                           0.976404241673906 161.042436689725 0.0127037911455539 -113.654505723577 0.0127037911455539 -113.654505723579 0.979111482273299 155.651616072859 
22.15                          0.976905886472237 159.738894379214 0.0121436927752644 -115.016565535841 0.0121436927752645 -115.016565535843 0.979491859920876 154.464320905771 
22.2                           0.977381836169178 158.457664003697 0.0116172906938605 -116.355944924962 0.0116172906938605 -116.355944924965 0.979850344417495 153.296117858564 
22.25                          0.97783347787996 157.197846944061 0.0111221485811292 -117.673508630977 0.0111221485811292 -117.67350863098 0.980188201656359 152.146207791799 
22.3                           0.97826210784962 155.958593111377 0.0106560336729403 -118.97007468652 0.0106560336729404 -118.970074686523 0.980506607087716 151.01383700362  
22.35                          0.97866893847917 154.739097743867 0.0102168976581775 -120.246417717867 0.0102168976581776 -120.246417717871 0.980806653435126 149.898294033596 
22.4                           0.979055104714271 153.538598449772 0.0098028595489888 -121.503271993828 0.00980285954898891 -121.503271993832 0.98108935763947 148.798906731305 
22.45                          0.979421669863843 152.356372474771 0.00941219030360343 -122.741334244568 0.00941219030360349 -122.741334244572 0.981355667119506 147.715039564583 
22.5                           0.979769630907793 151.191734174696 0.0090432990073202 -123.961266270257 0.00904329900732026 -123.961266270262 0.981606465426277 146.646091145045 
22.55                          0.980099923345904 150.04403267607  0.00869472044031544 -125.16369735754 0.00869472044031551 -125.163697357545 0.981842577358784 145.591491950783 
22.6                           0.980413425633841 148.912649708671 0.00836510388108555 -126.349226520043 0.00836510388108555 -126.349226520048 0.982064773599886 144.550702228276 
22.65                          0.980710963246879 147.796997595766 0.00805320301199729 -127.51842457762 0.0080532030119973 -127.518424577625 0.982273774924097 143.523210057318 
22.7                           0.980993312407402 146.696517389012 0.00775786680889711 -128.671836087635 0.00775786680889711 -128.67183608764 0.982470256022658 142.50852956446  
22.75                          0.981261203508175 145.610677136199 0.00747803131030656 -129.809981140311 0.00747803131030651 -129.809981140316 0.982654848985833 141.506199271879 
22.8                           0.981515324259914 144.538970271083 0.00721271217365156 -130.933357029093 0.00721271217365158 -130.933357029097 0.982828146477659 140.515780569894 
22.85                          0.98175632258862 143.480914115516 0.00696099793644952 -132.042439805923 0.0069609979364495 -132.042439805927 0.982990704634293 139.536856302486 
22.9                           0.981984809305439 142.43604848499  0.00672204390959141 -133.137685730444 0.00672204390959144 -133.137685730447 0.983143045713534 138.569029456232 
22.95                          0.982201360569465 141.403934389436 0.00649506663797197 -134.219532621309 0.006495066637972 -134.219532621311 0.98328566051998 137.611921943945 
23                             0.982406520161802 140.384152821891 0.00627933887086932 -135.288401117064 0.00627933887086938 -135.288401117064 0.983419010627584 136.665173475169 
