! Touchstone file exported from HFSS 3D Layout Design 2026.1.0
!        File:           D:/Work/SIM/ADS_AUTO_SIM/projects/RFSOC_RF/TX_Fillter.aedt
!        Generated:      11:25:21 PM Aug 30, 2026
!        Design:         TX_BAND1_MCFIL_R7_CNN034
!        Project:        TX_Fillter
!
# GHz S MA R 50.000000
! Terminal data exported
! Port[1] = Port1
! Port[2] = Port2
14                             0.965590245009934 176.862795398446 0.00538415130774312 173.320159756234 0.00538415130774314 173.320159756233 0.96495232079659 173.7898861116   
14.05                          0.96491061884513 175.857428016013 0.00551112948151595 172.854975872732 0.00551112948151597 172.854975872732 0.964271364984526 172.753504846724 
14.1                           0.964208888592556 174.843405642004 0.00564468338868152 172.402407787621 0.00564468338868154 172.402407787621 0.963569087289399 171.708429475792 
14.15                          0.963483982290648 173.820437061986 0.00578531184001655 171.962213290778 0.00578531184001658 171.962213290777 0.962844492100698 170.65438137592  
14.2                           0.962734758880821 172.7882165357   0.00593355863541314 171.534083029558 0.00593355863541316 171.534083029559 0.962096521643393 169.591068481432 
14.25                          0.961960002633271 171.746422884203 0.0060900170560007 171.117634418884 0.00609001705600074 171.117634418884 0.961324051091591 168.518184470646 
14.3                           0.961158417029401 170.694718506434 0.00625533483923657 170.712405372798 0.00625533483923661 170.712405372798 0.960525883215071 167.435407892091 
14.35                          0.960328618038466 169.632748318629 0.00643021969346833 170.317847905593 0.00643021969346834 170.317847905593 0.959700742505737 166.342401224736 
14.4                           0.959469126717796 168.560138609352 0.00661544541594837 169.933321659023 0.0066154454159484 169.933321659024 0.958847268724083 165.238809866196 
14.45                          0.958578361056412 167.476495802089 0.00681185868690767 169.55808742036  0.00681185868690769 169.55808742036  0.957964009797755 164.124261042307 
14.5                           0.957654626970899 166.381405116441 0.00702038662227354 169.191300703678 0.00702038662227355 169.191300703678 0.957049413995061 162.998362630673 
14.55                          0.956696108349748 165.274429117993 0.00724204517917863 168.832005473356 0.00724204517917865 168.832005473356 0.956101821285618 161.86070189005  
14.6                           0.955700856027686 164.155106145762 0.00747794852183341 168.47912809385  0.00747794852183343 168.47912809385  0.955119453787997 160.710844086481 
14.65                          0.954666775554544 163.022948604853 0.007729319470946 168.131471592817 0.00772931947094603 168.131471592818 0.954100405189928 159.54833100612  
14.7                           0.953591613603423 161.877441110538 0.00799750117805691 167.78771032507  0.0079975011780569 167.78771032507  0.953042629009968 158.372679343507 
14.75                          0.952472942839884 160.71803846829  0.00828397018736031 167.446385122101 0.00828397018736032 167.446385122101 0.951943925550203 157.183378952796 
14.8                           0.951308145046988 159.544163472497 0.0085903510723407 167.105899005474 0.00859035107234071 167.105899005474 0.950801927366889 155.979890947972 
14.85                          0.950094392269532 158.355204504446 0.00891843286348572 166.764513531799 0.00891843286348572 166.764513531799 0.949614083059461 154.761645636466 
14.9                           0.948828625703874 157.150512907816 0.00927018751718033 166.420345821988 0.00927018751718031 166.420345821989 0.948377639147275 153.528040268716 
14.95                          0.947507532016267 155.929400117195 0.00964779071550897 166.071366307773 0.00964779071550895 166.071366307773 0.947089619766839 152.278436584145 
15                             0.946127516721439 154.691134512067 0.0100536453331153 165.715397204007 0.0100536453331153 165.715397204007 0.945746803879217 151.012158131659 
15.05                          0.944684674192535 153.434937965224 0.0104904079617039 165.350111686397 0.010490407961704 165.350111686397 0.944345699626255 149.72848734011  
15.1                           0.943174753801851 152.159982050587 0.0109610189466482 164.973033721144 0.0109610189466482 164.973033721144 0.942882515413908 148.426662311143 
15.15                          0.94159312160653 150.865383870901 0.0114687364651928 164.581538456377 0.0114687364651928 164.581538456376 0.941353127229057 147.105873303461 
15.2                           0.939934716891904 149.550201460621 0.0120171752639287 164.172853045784 0.0120171752639287 164.172853045784 0.939753041610733 145.765258873706 
15.25                          0.938194002764019 148.213428713497 0.0126103507769684 163.744057733548 0.0126103507769683 163.744057733548 0.938077353594393 144.403901634853 
15.3                           0.936364909837851 146.853989777731 0.0132527294684148 163.292086987457 0.0132527294684148 163.292086987457 0.936320698825549 143.020823588165 
15.35                          0.934440771893734 145.470732854111 0.0139492863866805 162.813730424962 0.0139492863866806 162.813730424962 0.934477198892103 141.614980979408 
15.4                           0.932414252165277 144.062423324072 0.014705571087988 162.305633235802 0.014705571087988 162.305633235803 0.932540398747885 140.185258624009 
15.45                          0.93027725866973 142.627736125174 0.0155277832867082 161.764295765438 0.0155277832867082 161.764295765439 0.930503194886554 138.730463639271 
15.5                           0.928020846686962 141.165247280913 0.0164228598266541 161.186071886226 0.0164228598266541 161.186071886226 0.92835775266701 137.249318514622 
15.55                          0.925635106124065 139.673424480106 0.0173985748465366 160.567165748298 0.0173985748465366 160.567165748298 0.926095410878824 135.740453443204 
15.6                           0.923109031054798 138.150616588337 0.0184636553420591 159.90362646902  0.0184636553420591 159.90362646902  0.923706571256592 134.202397830101 
15.65                          0.920430368178877 136.59504196033  0.0196279147151355 159.191340287974 0.0196279147151356 159.191340287974 0.921180570190399 132.63357088452  
15.7                           0.917585440283863 135.004775407846 0.020902407357059 158.426019682512 0.0209024073570591 158.426019682512 0.918505529317297 131.032271195578 
15.75                          0.914558939985777 133.377733663574 0.0222996078474799 157.603188905305 0.02229960784748 157.603188905306 0.915668180993247 129.396665185058 
15.8                           0.911333688041755 131.711659168335 0.0238336189754486 156.71816536819  0.0238336189754486 156.71816536819  0.912653663809198 127.724774326584 
15.85                          0.907890349331026 130.004101998609 0.025520413512568 155.766036253726 0.0255204135125681 155.766036253727 0.909445282296307 126.014461021204 
15.9                           0.904207098144622 128.252399746507 0.0273781154992265 154.741629685228 0.0273781154992266 154.741629685228 0.906024223725637 124.263413027166 
15.95                          0.900259222658454 126.453655169079 0.0294273277455268 153.639479725669 0.0294273277455269 153.639479725669 0.902369223403505 122.469126361245 
16                             0.896018656332532 124.604711444718 0.0316915132916561 152.453784404829 0.0316915132916562 152.453784404829 0.898456168047227 120.628886626782 
16.05                          0.891453421423897 122.702124921283 0.0341974396933391 151.178355892424 0.0341974396933392 151.178355892424 0.894257624649284 118.739748789697 
16.1                           0.886526966771725 120.742135328476 0.0369756961423491 149.806561845414 0.0369756961423492 149.806561845414 0.889742279659208 116.79851553279  
16.15                          0.881197378481854 118.720633578762 0.0400612944966506 148.331256866304 0.0400612944966506 148.331256866304 0.884874270310928 114.801714492778 
16.2                           0.8754164381269  116.633127531326 0.0434943660976622 146.744702928367 0.0434943660976624 146.744702928367 0.879612386524048 112.745574956515 
16.25                          0.869128498709767 114.474706494351 0.047320966486246 145.038477574658 0.0473209664862461 145.038477574658 0.873909118126212 110.626005011582 
16.3                           0.862269144220508 112.24000587121  0.0515939992914795 143.203368716534 0.0515939992914797 143.203368716534 0.86770951846355 108.438570784601 
16.35                          0.854763594786986 109.923174334825 0.0563742678515915 141.229255002455 0.0563742678515916 141.229255002455 0.86094985236718 106.178480365936 
16.4                           0.84652481738424 107.517847420625 0.0617316572691321 139.104971091587 0.0617316572691321 139.104971091587 0.853555995016919 103.840576471465 
16.45                          0.837451303989107 105.017133731428 0.0677464386490501 136.818157892891 0.0677464386490502 136.818157892891 0.845441550441435 101.419344065643 
16.5                           0.82742448868752 102.413623450392 0.0745106682613478 134.355099138936 0.074510668261348 134.355099138936 0.836505667589027 98.9089424084538 
16.55                          0.816305798851167 99.6994341613251 0.0821296229344993 131.700547883894 0.0821296229344993 131.700547883894 0.826630553757347 96.3032757879071 
16.6                           0.803933383390474 96.8663169656478 0.0907231628468695 128.837550129485 0.0907231628468695 128.837550129485 0.815678728941134 93.5961242626834 
16.65                          0.790118649632921 93.9058578538198 0.100426835434799 125.747278473554 0.100426835434799 125.747278473554 0.803490145049511 90.7813660350959 
16.7                           0.774642894716351 90.8098270811595 0.111392418388177 122.40889736403  0.111392418388177 122.40889736403  0.789879433493101 87.85333787481   
16.75                          0.75725457435851 87.5707554719377 0.123787433356693 118.799494371003 0.123787433356693 118.799494371003 0.774633776195905 84.8074008521648 
16.8                           0.737668161646315 84.1828545166942 0.137792935129861 114.89413008136  0.137792935129861 114.89413008136  0.757512262949316 81.6408070556525 
16.85                          0.71556617133235 80.6434509849217 0.153598595167388 110.66608361607  0.153598595167388 110.66608361607  0.738248154068749 78.3539997632154 
16.9                           0.690606815352192 76.9551809475182 0.171393784728673 106.087400799954 0.171393784728672 106.087400799954 0.71655625427073 74.9525230248822 
16.95                          0.662440918795677 73.1292857732694 0.191353114784805 101.129883694145 0.191353114784805 101.129883694145 0.692148611466252 71.4497589500142 
17                             0.630743032295067 69.1904724809647 0.21361490884958 95.7666828590708 0.21361490884958 95.7666828590709 0.664762828819793 67.8707311623166 
17.05                          0.595262716532047 65.1839299950375 0.23825172388946 89.9746458053023 0.23825172388946 89.9746458053024 0.634207967122587 64.2571644787929 
17.1                           0.555901888661821 61.1851921123812 0.265233783252633 83.7375014750127 0.265233783252633 83.7375014750128 0.600432367170255 60.673782919475  
17.15                          0.512821550481436 57.3135037441988 0.294389482051722 77.0497775347043 0.294389482051722 77.0497775347044 0.563614175769976 57.2152996227689 
17.2                           0.466574650367822 53.7488998763532 0.325371855076357 69.9210254662051 0.325371855076357 69.9210254662052 0.524267009614084 54.0124498504915 
17.25                          0.418250497033716 50.7515527468724 0.357644609133385 62.379501742863  0.357644609133385 62.3795017428631 0.483338854622154 51.2334216282718 
17.3                           0.369600557225289 48.6768615766689 0.39050273244616 54.4740770947502 0.39050273244616 54.4740770947503 0.44226346544705 49.0739954589547 
17.35                          0.32309420394251 47.9659743617905 0.423136734108808 46.2731021872411 0.423136734108808 46.2731021872411 0.402906561983918 47.7265454690187 
17.4                           0.281812609947602 49.0620849878334 0.4547348378693  37.859520440325  0.4547348378693  37.859520440325  0.367347162264952 47.3190792196535 
17.45                          0.249009012971516 52.1752744862746 0.484599178680917 29.3226802752743 0.484599178680918 29.3226802752742 0.337469844140119 47.8304892128859 
17.5                           0.22713405879796 56.9106036813137 0.51224135961098 20.7485869301368 0.512241359610981 20.7485869301367 0.314443266146854 49.023787997081  
17.55                          0.216542997576084 62.1196327567953 0.537428568942113 12.2110144398229 0.537428568942112 12.2110144398228 0.298306082389054 50.4677783701354 
17.6                           0.214983565765421 66.4223364649499 0.560171633930966 3.7655322786827  0.560171633930965 3.76553227868261 0.28793057820225 51.6737816570247 
17.65                          0.218660914564843 68.975536761417  0.58066833773857 -4.55267242604359 0.58066833773857 -4.55267242604365 0.281426598557603 52.2655040345144 
17.7                           0.22387708831745 69.6580379697347 0.599226867467206 -12.7275725107238 0.599226867467205 -12.7275725107238 0.276733248716401 52.0661397627497 
17.75                          0.22792745165493 68.757003317598  0.616192559717112 -20.7588515984848 0.616192559717111 -20.7588515984848 0.272077000795366 51.0780038379513 
17.8                           0.229174647751742 66.6591294235006 0.631891741518246 -28.6575320335394 0.631891741518245 -28.6575320335394 0.266171436953097 49.4135906539976 
17.85                          0.226791093925551 63.7112354208979 0.646596612966295 -36.4416828050676 0.646596612966293 -36.4416828050675 0.258220930305145 47.2347434847486 
17.9                           0.220483895579274 60.1910968174103 0.660508751184567 -44.1327798325171 0.660508751184566 -44.132779832517 0.247837008150731 44.7191872550943 
17.95                          0.210293781603594 56.32135471574   0.673756318400443 -51.7529306634738 0.673756318400442 -51.7529306634738 0.23494175828924 42.0508460815084 
18                             0.196468057799055 52.2960408452612 0.686400075703601 -59.3229515987289 0.686400075703601 -59.3229515987289 0.219691388883318 39.4259515372351 
18.05                          0.179388021953556 48.3127292132812 0.698444364875136 -66.8611808974276 0.698444364875136 -66.8611808974275 0.202429604223228 37.070028939123  
18.1                           0.159535138305292 44.6160936527456 0.709850388898075 -74.3828833374546 0.709850388898075 -74.3828833374546 0.183672763687652 35.2646358448191 
18.15                          0.137491442662544 41.5720982312267 0.720550008338848 -81.9001095487255 0.720550008338849 -81.9001095487255 0.164130373963258 34.3841831968379 
18.2                           0.11399050337742 39.8218411482467 0.730458825525048 -89.4218927867559 0.730458825525049 -89.4218927867559 0.144769975661736 34.937037672604  
18.25                          0.0900902961263254 40.6443911055622 0.739487649079188 -96.9546837997063 0.739487649079189 -96.9546837997064 0.126934212992398 37.5740879624024 
18.3                           0.0677182824329572 46.8208391082596 0.747551644952366 -104.502937589872 0.747551644952367 -104.502937589872 0.11247052590918 42.9358230143509 
18.35                          0.0512539340409025 63.5912472321503 0.754576683934389 -112.069775280285 0.754576683934389 -112.069775280285 0.103651591296455 51.0967295164364 
18.4                           0.0487258998816287 90.9362267694841 0.760502635836967 -119.657652666708 0.760502635836968 -119.657652666708 0.102439399040788 60.7463757424846 
18.45                          0.0622880695465222 111.555633673664 0.765283634122925 -127.268976680183 0.765283634122925 -127.268976680183 0.109247473631068 69.4429692609809 
18.5                           0.0844343181942386 119.764561924691 0.768885606168976 -134.906622835385 0.768885606168976 -134.906622835385 0.122689397445502 75.3721336140727 
18.55                          0.109821869538015 120.906505049771 0.771281589011081 -142.574320173822 0.771281589011081 -142.574320173822 0.140719548558253 78.2162706952234 
18.6                           0.136342028496232 118.477730884607 0.772445496303764 -150.27688351022 0.772445496303764 -150.27688351022 0.161642076213745 78.4971685667611 
18.65                          0.163177295254202 114.066172447537 0.772345062801214 -158.020283913595 0.772345062801215 -158.020283913595 0.18435398356442 76.8670639281807 
18.7                           0.190016410563964 108.417503807788 0.770934688332019 -165.811555710109 0.77093468833202 -165.811555710108 0.208228884674553 73.8494128557839 
18.75                          0.21678857927853 101.912265241011 0.768148872991515 -173.658541294296 0.768148872991517 -173.658541294296 0.232960235732592 69.8140698355498 
18.8                           0.243559481569138 94.7612493793162 0.763896923014128 178.430525643885 0.763896923014129 178.430525643885 0.258444873910015 65.0127091170563 
18.85                          0.270479546493431 87.0913845391686 0.758059646185509 170.447600250783 0.758059646185511 170.447600250784 0.284704011420957 59.61601720183   
18.9                           0.297749412265215 78.9870861215393 0.750488855443776 162.385572698028 0.750488855443778 162.385572698029 0.311827110682076 53.741270576161  
18.95                          0.325589990505352 70.5118968877021 0.741010629087363 154.239178495986 0.741010629087365 154.239178495986 0.339928073796282 47.4711825895142 
19                             0.35421244324211 61.7205286776899 0.729433353584785 146.006056326611 0.729433353584787 146.006056326611 0.369107989074381 40.866696557092  
19.05                          0.383787023048306 52.665712969718  0.715561461549376 137.68790835438  0.715561461549378 137.68790835438  0.399422197102315 33.9758643732483 
19.1                           0.414412143354831 43.4019244642541 0.699215294710389 129.291674887297 0.699215294710391 129.291674887297 0.430851972501651 26.8401785838619 
19.15                          0.446087000161742 33.9870423078193 0.680256511523128 120.830582388922 0.680256511523129 120.830582388922 0.463282972802465 19.4991299362347 
19.2                           0.478692431723593 24.4825727629516 0.65861689737201 112.324874534316 0.65861689737201 112.324874534316 0.496493729285027 11.9933632577808 
19.25                          0.511984968919811 14.9528456969117 0.634326575108932 103.802012259166 0.634326575108932 103.802012259166 0.530157517047498 4.36656752784942 
19.3                           0.545607686966846 5.46348040758168 0.607536066405736 95.2961558161201 0.607536066405736 95.29615581612   0.563859597901548 -3.33386352330486 
19.35                          0.579118430494517 -3.92064672041987 0.578526273190296 86.8468360133716 0.578526273190296 86.8468360133716 0.597129083542008 -11.0573442620498 
19.4                           0.612031905884735 -13.1377139785862 0.547701936271321 78.4968754843219 0.547701936271321 78.4968754843219 0.629481167812557 -18.751618246287 
19.45                          0.643868387036593 -22.1313013981024 0.515567508304177 70.2897950630203 0.515567508304177 70.2897950630204 0.660462484110866 -26.3649762305103 
19.5                           0.674199903600614 -30.8524980112039 0.482688701993343 62.2670749591705 0.482688701993343 62.2670749591705 0.689691204745261 -33.8487445435791 
19.55                          0.702685653086817 -39.2615016580533 0.449646623219902 54.4656817181158 0.449646623219903 54.4656817181159 0.716884881668934 -41.1595907345965 
19.6                           0.729091657708572 -47.3285152561649 0.416992919917857 46.9162021363738 0.416992919917858 46.9162021363738 0.741872450263456 -48.2612749690717 
19.65                          0.753293980196434 -55.0338679850323 0.385213300396951 39.6417730093008 0.385213300396952 39.6417730093007 0.764590883989538 -55.1256373936967 
19.7                           0.775268477268171 -62.3674268701065 0.35470380546836 32.6578193000098 0.354703805468361 32.6578193000096 0.785070185692728 -61.7327953027168 
19.75                          0.795072051604246 -69.3274695573931 0.32576071692903 25.9724703116625 0.325760716929031 25.9724703116623 0.803411867909221 -68.0706723323779 
19.8                           0.812820534362193 -75.9192376714218 0.298582181716801 19.5874454580927 0.298582181716802 19.5874454580924 0.819765838832395 -74.1340636014537 
19.85                          0.828667250543239 -82.1533829595223 0.273278128913793 13.4991890876914 0.273278128913793 13.499189087691  0.834309305334932 -79.9234552120046 
19.9                           0.842784756299089 -88.0444739641949 0.249884805723072 7.70006781405326 0.249884805723071 7.70006781405282 0.847229687028288 -85.4437838872202 
19.95                          0.855350789097868 -93.6096721680744 0.228380836295089 2.17949867115308 0.228380836295088 2.17949867115259 0.85871214839224 -90.7032683453839 
20                             0.866538434225296 -98.8676312317118 0.208702632124202 -3.07506804602565 0.208702632124201 -3.07506804602615 0.868931432074154 -95.7123887341975 
20.05                          0.876509927211563 -103.837630498806 0.190757899635174 -8.07734248845546 0.190757899635173 -8.07734248845598 0.878047211090066 -100.483045579876 
20.1                           0.885413287387508 -108.538926613335 0.174436716554799 -12.8415660321155 0.174436716554798 -12.841566032116 0.886202051208644 -105.027898923764 
20.15                          0.893380981303753 -112.990292855867 0.159620135913738 -17.3820419291412 0.159620135913737 -17.3820419291417 0.893521147510667 -109.359870486072 
20.2                           0.900529932608723 -117.209711021877 0.146186553356859 -21.7128006793261 0.146186553356858 -21.7128006793266 0.900113159459586 -113.491783639689 
20.25                          0.906962349954764 -121.214181733837 0.134016196194201 -25.8473733719068 0.1340161961942  -25.8473733719072 0.906071645818175 -117.436114295183 
20.3                           0.912766993364425 -125.019623178532 0.122994117453083 -29.7986482135158 0.122994117453082 -29.7986482135162 0.911476757931368 -121.204827706601 
20.35                          0.918020623276509 -128.6408334878  0.113012049203139 -33.5787890422368 0.113012049203138 -33.5787890422371 0.916396973875336 -124.809279758588 
20.4                           0.922789470656646 -132.091497209633 0.10396941657115 -37.1991986305239 0.103969416571149 -37.1991986305242 0.920890746166293 -128.260165284855 
20.45                          0.927130633697614 -135.384220979599 0.0957737551906873 -40.6705133523534 0.0957737551906865 -40.6705133523536 0.925007997252387 -131.567499741965 
20.5                           0.931093352005013 -138.530587384674 0.0883407199034216 -44.0026190419642 0.0883407199034209 -44.0026190419644 0.928791436580038 -134.740623825632 
20.55                          0.934720138302162 -141.541219097135 0.0815938255038424 -47.2046805230015 0.0815938255038419 -47.2046805230017 0.932277696898176 -137.788223285574 
20.6                           0.938047765379642 -144.425847726692 0.0754640222518548 -50.2851793675737 0.0754640222518544 -50.2851793675737 0.935498300714574 -140.718358296174 
20.65                          0.941108115991403 -147.193383612721 0.0698891792358138 -53.2519560323891 0.0698891792358135 -53.2519560323893 0.938480474225363 -143.538498349459 
20.7                           0.9439289083872  -149.851984076418 0.0648135262485421 -56.1122537044799 0.0648135262485419 -56.11225370448  0.941247828254041 -146.255559843613 
20.75                          0.946534312070163 -152.409118584102 0.060187088271428 -58.8727620582748 0.0601870882714278 -58.8727620582749 0.943820925537604 -148.875944429605 
20.8                           0.948945468453082 -154.871629928315 0.0559651346617502 -61.5396597533255 0.0559651346617503 -61.5396597533256 0.946217752229375 -151.405576824588 
20.85                          0.951180930183503 -157.245790985343 0.0521076566072165 -64.118654948325 0.0521076566072167 -64.118654948325 0.948454109457051 -153.849941263688 
20.9                           0.953257031533304 -159.537356911997 0.0485788804603833 -66.6150234196879 0.0485788804603834 -66.6150234196879 0.950543938596252 -156.214116089168 
20.95                          0.955188200713988 -161.751612843099 0.0453468205005119 -69.0336440882195 0.0453468205005122 -69.0336440882196 0.952499591823567 -158.502806204091 
21                             0.956987223462072 -163.893417275139 0.042382871964113 -71.379031902503 0.0423828719641133 -71.3790319025033 0.954332057611831 -160.720373273875 
21.05                          0.958665465832645 -165.967241393919 0.0396614434444459 -73.6553681227622 0.0396614434444463 -73.6553681227624 0.956051149168347 -162.870863663904 
21.1                           0.960233062885371 -167.977204640956 0.0371596266954515 -75.8665281088464 0.037159626695452 -75.8665281088466 0.957665662398887 -164.958034169476 
21.15                          0.961699078857279 -169.927106826689 0.0348569012772136 -78.0161067513162 0.034856901277214 -78.0161067513166 0.959183508790845 -166.985375636739 
21.2                           0.963071643485587 -171.82045709651 0.0327348711974731 -80.1074417030627 0.0327348711974736 -80.107441703063 0.960611827622815 -168.956134597737 
21.25                          0.964358068357882 -173.660500043933 0.0307770306300222 -82.1436345759561 0.0307770306300227 -82.1436345759565 0.961957081097235 -170.873333054794 
21.3                           0.9655649465092  -175.45023924788 0.0289685558508314 -84.1275702665566 0.0289685558508319 -84.127570266557 0.963225135330131 -172.739786553369 
21.35                          0.966698237938277 -177.192458490868 0.0272961206742971 -86.0619345696655 0.0272961206742975 -86.0619345696659 0.964421329592652 -174.558120680874 
21.4                           0.967763343261647 -178.88974089344 0.0257477328592823 -87.9492302303411 0.0257477328592826 -87.9492302303418 0.965550535761107 -176.330786123931 
21.45                          0.968765167349386 179.455513821094 0.0243125891635571 -89.7917915752485 0.0243125891635574 -89.791791575249 0.966617209577035 -178.060072409398 
21.5                           0.969708174476801 177.841073738134 0.0229809469399611 -91.5917978537398 0.0229809469399615 -91.5917978537402 0.967625435031052 -179.748120446248 
21.55                          0.970596436271051 176.264860665365 0.0217440103779795 -93.3512854084677 0.0217440103779797 -93.3512854084682 0.9685789629508  178.603066023302 
21.6                           0.971433673521045 174.72493739225  0.0205938296943043 -95.0721587849762 0.0205938296943045 -95.0721587849767 0.969481244684009 176.991609963776 
21.65                          0.972223292744998 173.219496155659 0.0195232117618917 -96.7562008798414 0.0195232117618919 -96.7562008798416 0.97033546161382 175.415751486416 
21.7                           0.972968418266292 171.746848186786 0.018525640837412 -98.4050822176738 0.0185256408374121 -98.4050822176743 0.971144551118271 173.873839106105 
21.75                          0.973671920429208 170.305414227921 0.0175952082013898 -100.020369438715 0.0175952082013898 -100.020369438715 0.971911229483676 172.364321739816 
21.8                           0.974336440487434 168.893715919692 0.0167265496640912 -101.603533070862 0.0167265496640912 -101.603533070862 0.972638012198083 170.885741378156 
21.85                          0.974964412616164 167.510367970214 0.0159147900141149 -103.155954652783 0.015914790014115 -103.155954652783 0.973327231982476 169.436726368116 
21.9                           0.975558083430324 166.154071027143 0.015155493596754 -104.678933268205 0.015155493596754 -104.678933268205 0.973981054861014 168.015985250982 
21.95                          0.976119529334374 164.823605182248 0.0144446203066687 -106.17369154559 0.0144446203066687 -106.17369154559 0.97460149452514 166.62230110482  
22                             0.976650671981432 163.517824045673 0.0137784863654661 -107.641381172034 0.0137784863654661 -107.641381172033 0.975190425207859 165.254526345767 
22.05                          0.977153292079355 162.235649333853 0.013153729330577 -109.083087965427 0.0131537293305769 -109.083087965427 0.97574959325256 163.911577946835 
22.1                           0.977629041747764 160.97606592102  0.0125672768484827 -110.499836544602 0.0125672768484825 -110.499836544601 0.976280627534084 162.592433036868 
22.15                          0.978079455601513 159.738117309583 0.0120163187238987 -111.892594633272 0.0120163187238985 -111.892594633271 0.976785048867467 161.296124845942 
22.2                           0.978505960712078 158.520901479371 0.0114982819279096 -113.262277030113 0.0114982819279093 -113.262277030112 0.97726427852106 160.02173896669  
22.25                          0.978909885577946 157.32356707992  0.0110108082131326 -114.609749274171 0.0110108082131324 -114.609749274169 0.977719645934991 158.768409903979 
22.3                           0.979292468217701 156.145309933729 0.0105517340435197 -115.935831031991 0.0105517340435195 -115.935831031989 0.978152395732567 157.535317887972 
22.35                          0.97965486348475 154.985369821704 0.0101190725810754 -117.241299230324 0.0101190725810752 -117.241299230321 0.978563694100936 156.321685927979 
22.4                           0.979998149689928 153.843027524946 0.00971099750216998 -118.52689095599 0.00971099750216976 -118.526890955988 0.978954634607667 155.126777086618 
22.45                          0.980323334607424 152.717602099669 0.00932582844279536 -119.79330614248 0.00932582844279518 -119.793306142477 0.979326243511675 153.949891955714 
22.5                           0.980631360930096 151.608448364368 0.00896201789551464 -121.041210060985 0.00896201789551449 -121.041210060982 0.979679484619861 152.790366317101 
22.55                          0.980923111232238 150.514954580413 0.00861813940139642 -122.271235631959 0.00861813940139623 -122.271235631957 0.980015263734754 151.647568973016 
22.6                           0.981199412490898 149.436540309112 0.00829287689827325 -123.483985571797 0.00829287689827311 -123.483985571794 0.980334432733177 150.520899732196 
22.65                          0.981461040210841 148.372654429955 0.00798501510252182 -124.680034387896 0.00798501510252165 -124.680034387893 0.980637793311429 149.409787539023 
22.7                           0.981708722193019 147.322773306186 0.00769343081551025 -125.85993023416 0.0076934308155101 -125.859930234157 0.98092610042851 148.313688734222 
22.75                          0.981943141981862 146.286399085228 0.00741708505813531 -127.024196637931 0.00741708505813521 -127.024196637929 0.981200065475481 147.23208543662  
22.8                           0.982164942022764 145.263058122621 0.00715501594768312 -128.173334108346 0.00715501594768305 -128.173334108344 0.981460359196014 146.164484036415 
22.85                          0.982374726557615 144.252299519215 0.00690633224077862 -129.307821635238 0.00690633224077857 -129.307821635236 0.981707614380585 145.110413791226 
22.9                           0.982573064283276 143.253693762333 0.00667020747459763 -130.428118086903 0.00667020747459766 -130.428118086902 0.981942428354394 144.069425516979 
22.95                          0.982760490795123 142.266831462419 0.00644587464593799 -131.53466351434 0.00644587464593804 -131.53466351434 0.982165365277101 143.04109036633  
23                             0.982937510835544 141.291322177525 0.00623262137430723 -132.627880368894 0.00623262137430726 -132.627880368895 0.982376958270605 142.02499868799  
