! Touchstone file exported from HFSS 3D Layout Design 2026.1.0
!        File:           D:/Work/SIM/ADS_AUTO_SIM/projects/RFSOC_RF/TX_Fillter.aedt
!        Generated:      10:36:07 PM Aug 30, 2026
!        Design:         TX_BAND1_MCFIL_R4_CNN038_P2UP_GRAPHICAL
!        Project:        TX_Fillter
!
# GHz S MA R 50.000000
! Terminal data exported
! Port[1] = Port1
! Port[2] = Port2
14                             0.964917063420451 176.488421629887 0.00558781591173179 176.803910744003 0.00558781591173179 176.803910744003 0.964760496687969 175.557528149688 
14.05                          0.964185660498182 175.487670367855 0.00573425830749201 176.432413788958 0.005734258307492 176.432413788959 0.964039237505963 174.548064643879 
14.1                           0.963428940815122 174.477307831361 0.00588899582726163 176.072633178169 0.00588899582726164 176.072633178169 0.963293342671575 173.529438621099 
14.15                          0.962645614601542 173.456989986238 0.00605269011903946 175.724044792681 0.00605269011903947 175.724044792681 0.962521556544597 172.501326174108 
14.2                           0.961834305152148 172.426355238092 0.00622606452676144 175.386032213144 0.00622606452676145 175.386032213144 0.961722538287196 171.463386642024 
14.25                          0.960993541482453 171.385023287277 0.00640991041391886 175.057880366509 0.0064099104139189 175.057880366509 0.960894854602812 170.41526150806  
14.3                           0.960121750235037 170.332593891748 0.00660509419198973 174.738769245376 0.00660509419198972 174.738769245376 0.96003697172598 169.356573207682 
14.35                          0.959217246745377 169.268645528952 0.00681256514098661 174.42776777864  0.00681256514098663 174.427767778641 0.959147246571974 168.286923838451 
14.4                           0.95827822516439 168.192733946903 0.00703336412184409 174.123827937119 0.00703336412184407 174.123827937119 0.95822391694242 167.20589376184  
14.45                          0.957302747520321 167.104390593471 0.00726863329480584 173.825779160814 0.00726863329480582 173.825779160815 0.957265090668198 166.113040086195 
14.5                           0.956288731585704 166.003120911698 0.00751962697478172 173.532323194893 0.00751962697478171 173.532323194894 0.956268733553754 165.007895018774 
14.55                          0.955233937395584 164.888402487483 0.00778772377423871 173.242029418746 0.00778772377423869 173.242029418747 0.955232655966908 163.889964073337 
14.6                           0.954135952240267 163.759683034436 0.00807444020705868 172.953330746186 0.00807444020705868 172.953330746186 0.954154497894881 162.758724118196 
14.65                          0.952992173929268 162.616378198853 0.00838144595350972 172.664520164468 0.00838144595350967 172.664520164469 0.953031712259938 161.613621247789 
14.7                           0.951799792091794 161.457869165748 0.00871058101771545 172.373747965055 0.00871058101771544 172.373747965055 0.951861546255982 160.454068458787 
14.75                          0.950555767242505 160.28350004455  0.00906387504556298 172.079019699722 0.00906387504556298 172.079019699722 0.950641020429817 159.279443109402 
14.8                           0.949256807298113 159.092575010459 0.00944356911380314 171.77819487169  0.00944356911380311 171.778194871691 0.949366905186433 158.089084137901 
14.85                          0.947899341179531 157.884355174473 0.00985214035128444 171.468986343155 0.00985214035128443 171.468986343155 0.948035694345298 156.882289013315 
14.9                           0.946479489074117 156.658055151758 0.0102923298121328 171.148960408221 0.0102923298121327 171.148960408221 0.946643575312679 155.658310387914 
14.95                          0.944993028861285 155.41283929417  0.0107671740898112 170.815537444547 0.0107671740898112 170.815537444547 0.945186395361412 154.416352417093 
15                             0.943435358120064 154.147817548475 0.0112800412422243 170.465993018538 0.0112800412422242 170.465993018538 0.943659623422053 153.155566707905 
15.05                          0.941801451036253 152.862040896863 0.0118346716935658 170.097459278831 0.0118346716935658 170.097459278831 0.942058306684932 151.875047852466 
15.1                           0.940085809406381 151.554496330865 0.0124352248910914 169.706926431901 0.0124352248910914 169.706926431901 0.94037702118778 150.573828496705 
15.15                          0.938282406791407 150.224101303537 0.0130863326275217 169.291244052996 0.0130863326275217 169.291244052996 0.938609815413987 149.250873888571 
15.2                           0.936384624700023 148.869697597786 0.0137931600960819 168.847121946129 0.0137931600960819 168.847121946129 0.936750145746662 147.905075842457 
15.25                          0.934385179473195 147.490044540886 0.0145614759296207 168.371130229277 0.0145614759296207 168.371130229277 0.934790802407034 146.535246048505 
15.3                           0.932276038290545 146.083811486575 0.0153977326930208 167.859698285755 0.0153977326930208 167.859698285755 0.932723824244125 145.140108646325 
15.35                          0.930048322415857 144.649569476558 0.01630915955527 167.309112190031 0.01630915955527 167.309112190031 0.930540400426028 143.718291972578 
15.4                           0.927692195431778 143.185781982923 0.0173038691711751 166.715510185848 0.0173038691711751 166.715510185848 0.92823075669925 142.268319380856 
15.45                          0.92519673376845 141.690794621924 0.0183909811608729 166.074875765631 0.0183909811608729 166.074875765631 0.925784023416173 140.788599020439 
15.5                           0.922549776289928 140.162823718257 0.0195807649971945 165.38302787178  0.0195807649971945 165.38302787178  0.923188081963268 139.277412448053 
15.55                          0.919737749044678 138.599943587666 0.0208848056066626 164.635607710959 0.0208848056066626 164.635607710959 0.920429385531401 137.732901934216 
15.6                           0.916745460486588 137.000072395542 0.0223161955701635 163.828061640128 0.0223161955701636 163.828061640128 0.917492749327014 136.153056313855 
15.65                          0.913555861500134 135.360956441339 0.0238897584847631 162.955619545731 0.0238897584847631 162.955619545731 0.914361104295764 134.535695221039 
15.7                           0.910149763381685 133.680152715391 0.025622308828067 162.013268093107 0.0256223088280671 162.013268093107 0.9110152071792  132.878451541794 
15.75                          0.906505505496709 131.955009579416 0.0275329545567923 160.995718169939 0.0275329545567924 160.995718169939 0.907433298204287 131.178751920526 
15.8                           0.902598562603983 130.182645439763 0.0296434496705505 159.897365784127 0.0296434496705505 159.897365784127 0.903590695863677 129.433795169319 
15.85                          0.898401079764669 128.359925321059 0.0319786050658777 158.712245602607 0.0319786050658777 158.712245602607 0.899459316026279 127.640528463096 
15.9                           0.893881320291903 126.483435319117 0.0345667671573153 157.433976235046 0.0345667671573153 157.433976235046 0.895007099969675 125.795621268847 
15.95                          0.889003009315661 124.549455033407 0.0374403748770226 156.055696279633 0.0374403748770226 156.055696279632 0.890197332806966 123.895437071194 
16                             0.883724552242995 122.553928277492 0.0406366066456293 154.569990066793 0.0406366066456293 154.569990066793 0.884987830181498 121.936003145986 
16.05                          0.877998103760748 120.492432680328 0.0441981294999272 152.968801977698 0.0441981294999272 152.968801977698 0.879329967081587 119.912978937824 
16.1                           0.871768459263424 118.360149281311 0.0481739623776168 151.243338206434 0.0481739623776168 151.243338206434 0.873167518370105 117.821624075828 
16.15                          0.864971737135544 116.151833976011 0.0526204639648803 149.383954924542 0.0526204639648803 149.383954924542 0.866435276550019 115.656767803739 
16.2                           0.857533818024812 113.861793819195 0.0576024515096225 147.380032068433 0.0576024515096225 147.380032068433 0.859057409222581 113.412782738592 
16.25                          0.849368507647519 111.483872932462 0.0631944490370775 145.219832519742 0.0631944490370776 145.219832519742 0.850945518159293 111.083567605385 
16.3                           0.840375395445855 109.011455383867 0.0694820491015995 142.890347463151 0.0694820491015995 142.890347463152 0.841996366574318 108.662546217991 
16.35                          0.830437397085937 106.437496328517 0.0765633480209821 140.377130452585 0.0765633480209823 140.377130452586 0.832089255602239 106.142693923226 
16.4                           0.819418001773167 103.754598532434 0.084550375306065 137.664125587544 0.0845503753060651 137.664125587544 0.821083062692481 103.516608628415 
16.45                          0.807158307552685 100.955160012601 0.0935703764842469 134.733499759108 0.093570376484247 134.733499759108 0.8088130157601  100.776652300759 
16.5                           0.793474037567835 98.0316311053567 0.103766715140557 131.565495941518 0.103766715140558 131.565495941518 0.795087386397733 97.9152017292971 
16.55                          0.778152914993524 94.9769373859089 0.115299023244405 128.138334973551 0.115299023244406 128.138334973551 0.779684471526932 94.9250660857801 
16.6                           0.760953072108941 91.7851503859544 0.12834203736654 124.428208332833 0.12834203736654 124.428208332833 0.762350535296768 91.8001555643913 
16.65                          0.741603627400063 88.4525228935076 0.143082306910002 120.409425057392 0.143082306910002 120.409425057392 0.742799852350002 88.5365225318181 
16.7                           0.71980923153378 84.9790508236746 0.159711662449167 116.054802378428 0.159711662449167 116.054802378428 0.720718682225538 85.1339461950792 
16.75                          0.69526127856673 81.3707774515177 0.178416043876454 111.33641969419  0.178416043876455 111.33641969419  0.695775939759681 81.5982938385076 
16.8                           0.667659532509469 77.6431095727613 0.19935814614255 106.22688235486  0.19935814614255 106.22688235486  0.667644447805633 77.9449609763246 
16.85                          0.636748856214479 73.8254459236652 0.222652608152758 100.701250064852 0.222652608152758 100.701250064852 0.636037705427656 74.2037526443449 
16.9                           0.602375905209153 69.9673756431964 0.248333559071707 94.739747337524  0.248333559071707 94.7397473375239 0.600767452032434 70.425579463223  
16.95                          0.564568905500988 66.1464896984514 0.276316722803061 88.3312517345116 0.276316722803061 88.3312517345115 0.561825826425977 66.6912243483647 
17                             0.523638377603694 62.477278364835  0.306362193271342 81.4773121101441 0.306362193271341 81.477312110144  0.519491065151714 63.1220290697159 
17.05                          0.480286491943393 59.1193399709484 0.338048778869857 74.1960815391373 0.338048778869857 74.1960815391372 0.474446133093356 59.8913324127486 
17.1                           0.43569772279698 56.2806674719396 0.370774239675626 66.5251449769784 0.370774239675625 66.5251449769784 0.42788557024136 57.23319665938   
17.15                          0.391566454115042 54.2074552236879 0.403794089036391 58.521993780545  0.40379408903639 58.521993780545  0.3815696056663  55.4401080491288 
17.2                           0.350003721461295 53.1459787939461 0.436301803464816 50.2611330390329 0.436301803464814 50.2611330390329 0.337769262653149 54.8324092960971 
17.25                          0.313263954977927 53.2600958604304 0.467536686646676 41.8276568375193 0.467536686646675 41.8276568375193 0.299032733738905 55.6718365266061 
17.3                           0.283265043034663 54.507548562626  0.49689035053737 33.308365990861  0.496890350537369 33.308365990861  0.267703944874712 58.000955904454  
17.35                          0.260988486858379 56.5391732187358 0.523979455440128 24.7825163976477 0.523979455440127 24.7825163976478 0.245209621720015 61.4674941661902 
17.4                           0.246043960191012 58.7420682249948 0.548665079223905 16.314456822057  0.548665079223905 16.3144568220571 0.231401515507962 65.3203803013628 
17.45                          0.236747907723755 60.4649617851675 0.571020504688897 7.94963085943207 0.571020504688897 7.94963085943211 0.224488447613583 68.7064648550568 
17.5                           0.230734742647513 61.2646542174396 0.591266404305529 -0.285828784617333 0.59126640430553 -0.285828784617338 0.221748830840939 71.0509135971898 
17.55                          0.225687872769111 60.9895401099403 0.609697494929592 -8.38271845024867 0.609697494929593 -8.38271845024873 0.220491357780323 72.1913142852573 
17.6                           0.219794637972588 59.7073138411511 0.626619191711351 -16.3448422439548 0.626619191711352 -16.3448422439549 0.21865207049379 72.2620854926384 
17.65                          0.211864479166128 57.5945024844773 0.642303184480423 -24.1847014333024 0.642303184480424 -24.1847014333025 0.214929623726182 71.5295311070318 
17.7                           0.20125315754158 54.8615328506928 0.656962800293567 -31.9195744587021 0.656962800293568 -31.9195744587022 0.208674489854872 70.2904878718855 
17.75                          0.187730944796516 51.7229003687508 0.670744605988438 -39.5683753685591 0.670744605988438 -39.5683753685592 0.199724015308277 68.8369689561422 
17.8                           0.171363996612043 48.3998828058272 0.683731412605561 -47.1493914219208 0.683731412605561 -47.1493914219209 0.188268220740846 67.4588573207108 
17.85                          0.152430255617843 45.1482399235705 0.695952270539529 -54.6788387321268 0.695952270539529 -54.6788387321269 0.174766617318268 66.4641223686332 
17.9                           0.131373746530369 42.3190441982643 0.707396033428313 -62.1701065460061 0.707396033428313 -62.1701065460062 0.159913932884022 66.2052408090995 
17.95                          0.108806476353391 40.4915682182665 0.718026005987695 -69.6335454085565 0.718026005987695 -69.6335454085565 0.144648433525333 67.0998345627893 
18                             0.0856041721295406 40.7986865702727 0.727793890205184 -77.0766616558151 0.727793890205185 -77.076661655815 0.130190481199503 69.6158031200518 
18.05                          0.0632818798009545 45.7953991299668 0.736651743094111 -84.5045938136103 0.736651743094112 -84.5045938136102 0.118066969622791 74.1504300436374 
18.1                           0.0453193222754808 61.2689005727134 0.744561060696051 -91.9207595495002 0.744561060696053 -91.9207595495   0.10999428430955 80.7128933526112 
18.15                          0.0395489149832296 91.3770096850598 0.75149848732799 -99.3275747393172 0.751498487327992 -99.327574739317 0.107432757240292 88.5164872380258 
18.2                           0.0503266890333545 116.880167039851 0.75745804060127 -106.727160860868 0.757458040601274 -106.727160860868 0.110902253971834 96.0434708754203 
18.25                          0.0698657147135425 127.277283256502 0.762450115126897 -114.121974647219 0.762450115126901 -114.121974647219 0.119704973155431 101.877796835287 
18.3                           0.0920652244905975 129.392686653151 0.766497829584035 -121.515314388864 0.766497829584039 -121.515314388863 0.132423771226656 105.409860529025 
18.35                          0.114686747849825 127.643214986164 0.769631466613323 -128.911678553091 0.769631466613328 -128.911678553091 0.147621441853817 106.739397644888 
18.4                           0.136901569753946 123.882309182803 0.771881803275493 -136.316971789497 0.771881803275497 -136.316971789497 0.164195404988801 106.253028781837 
18.45                          0.158394594927553 118.933365563418 0.77327305546181 -143.738568395983 0.773273055461813 -143.738568395983 0.181421261027551 104.350703512235 
18.5                           0.179093472727621 113.200501175684 0.773816002751857 -151.185252303554 0.773816002751857 -151.185252303554 0.198882676368058 101.352560142591 
18.55                          0.199072499210624 106.899280712546 0.773501672969993 -158.667055119195 0.77350167296999 -158.667055119195 0.216391748943983 97.4907643367654 
18.6                           0.21851000867712 100.152604735869 0.772295798897191 -166.19501026833 0.772295798897185 -166.19501026833 0.233926944859872 92.9263060211918 
18.65                          0.237663745733398 93.0350454034338 0.770134154545688 -173.780833012149 0.770134154545679 -173.780833012149 0.251588340012621 87.7682983408868 
18.7                           0.256852007860015 85.5954609634317 0.766918864575826 178.563475296395 0.766918864575813 178.563475296395 0.269564518911087 82.0899649232643 
18.75                          0.276435468607628 77.8695332076923 0.762515876138058 170.826112943696 0.762515876138041 170.826112943696 0.288106001353654 75.9408809099764 
18.8                           0.296797068890297 69.8871275248789 0.756753993986451 162.996079076063 0.756753993986432 162.996079076064 0.307501378735396 69.3562685751873 
18.85                          0.318318475363809 61.6766731599816 0.749426194705612 155.063922504835 0.749426194705591 155.063922504837 0.328053398409275 62.3641431821916 
18.9                           0.341352441502671 53.2676409222735 0.740294307382114 147.022667527533 0.740294307382093 147.022667527536 0.35005309646017 54.9908333165882 
18.95                          0.36619139120381 44.6917529899341 0.729098470765276 138.868928608336 0.729098470765257 138.868928608338 0.373751029541837 47.2651542132386 
19                             0.393033836136918 35.9834057010193 0.715572864869168 130.604187617449 0.715572864869152 130.604187617452 0.399325951560801 39.2213643967813 
19.05                          0.421951819059296 27.1797140790007 0.699468803958563 122.236145863143 0.699468803958552 122.236145863146 0.426853024299529 30.9009811667547 
19.1                           0.452864217579129 18.3204786584999 0.680585092155172 113.779983184396 0.680585092155166 113.7799831844   0.456275665016125 22.3535322408403 
19.15                          0.485521939666643 9.44819306887777 0.658803460303958 105.259275648729 0.658803460303958 105.259275648733 0.487386861570047 13.6363340019926 
19.2                           0.519511023107467 0.6079952634672  0.6341242003361  96.7062746943689 0.634124200336104 96.7062746943729 0.519826333263373 4.81338415579754 
19.25                          0.55427763415055 -8.1526931813308 0.606694657258112 88.1612747795691 0.606694657258122 88.1612747795729 0.553098367375702 -4.04655233594852 
19.3                           0.589174696890484 -16.7851112735835 0.576822366432858 79.6709233248876 0.576822366432871 79.670923324891  0.586611171117109 -12.872562299194 
19.35                          0.623524240590051 -25.2408076314525 0.544966530097093 71.2855479007645 0.544966530097108 71.2855479007674 0.619732962988092 -21.5947214862481 
19.4                           0.656684568445916 -33.4738610858768 0.511706345909266 63.0558306160024 0.51170634590928 63.0558306160047 0.651854820309273 -30.1474315984199 
19.45                          0.688109372558101 -41.4433018821399 0.477690956075953 55.0293518789999 0.477690956075966 55.0293518790017 0.68244788926772 -38.4725288292587 
19.5                           0.717388146862614 -49.1152559344812 0.443580901059513 47.2475708891669 0.443580901059523 47.247570889168  0.711104261274303 -46.5217242937075 
19.55                          0.744262817412454 -56.4644029711177 0.409992716767581 39.7436870003778 0.409992716767588 39.7436870003785 0.73755591747778 -54.2580560315855 
19.6                           0.768621949941114 -63.4745377669452 0.377456196450918 32.5415896121006 0.37745619645092 32.5415896121008 0.76167231389134 -61.6562434954787 
19.65                          0.790478661292423 -70.1382552088919 0.346389213622008 25.6558516453227 0.346389213622007 25.6558516453225 0.783441928035437 -68.7020557702217 
19.7                           0.80994018587885 -76.4559557845827 0.317090069836681 19.0925374900341 0.317090069836677 19.0925374900337 0.80294509408011 -75.3909588766257 
19.75                          0.827176226930303 -82.4344469388572 0.289743820585847 12.8505168748829 0.289743820585841 12.8505168748824 0.820324901996607 -81.726363443228 
19.8                           0.842390952990319 -88.0854060223301 0.264437553150226 6.92298923571424 0.264437553150218 6.92298923571374 0.835760919590577 -87.7177650242683 
19.85                          0.855801013838492 -93.4239076360621 0.241179795725545 1.29899115331038 0.241179795725535 1.29899115330994 0.849448185577967 -93.3789923026013 
19.9                           0.86762000602298 -98.4671393191257 0.219920373563624 -4.03525628309125 0.219920373563613 -4.03525628309159 0.861582065534332 -98.7266903051751 
19.95                          0.878048650134563 -103.233359866018 0.200568403064181 -9.09522860588078 0.20056840306417 -9.09522860588097 0.872348413616413 -103.779090675896 
20                             0.887269446306923 -107.741104879174 0.183007304129438 -13.8972220000136 0.183007304129428 -13.8972220000137 0.881917966162663 -108.555068636771 
20.05                          0.895444523648764 -112.008615009899 0.167106552431283 -18.4577020326714 0.167106552431273 -18.4577020326713 0.890443805075331 -113.073456109064 
20.1                           0.902715577674023 -116.053449309247 0.152730392562352 -22.792843248951 0.152730392562342 -22.7928432489508 0.898060868793938 -117.352567436713 
20.15                          0.909205046095225 -119.89224365338 0.139743969948731 -26.9182214987086 0.139743969948723 -26.9182214987083 0.904886712839296 -121.409892225021 
20.2                           0.915017922653849 -123.540577594489 0.128017405646947 -30.8486230097532 0.128017405646939 -30.8486230097527 0.911022947515785 -125.261913943187 
20.25                          0.920243814258087 -127.01291889916 0.117428309221041 -34.5979393574239 0.117428309221034 -34.5979393574233 0.916556970050761 -128.924019643224 
20.3                           0.924959000233381 -130.322621462007 0.107863152807674 -38.179123459975 0.107863152807668 -38.1791234599743 0.921563752203307 -132.410473317475 
20.35                          0.929228359229518 -133.481958180868 0.099217845558664 -41.6041874049102 0.0992178455586592 -41.6041874049097 0.926107545674166 -135.73443196728 
20.4                           0.933107099229041 -136.50217532513 0.0913977683537039 -44.884227778296 0.0913977683536998 -44.8842277782954 0.930243434958441 -138.907988948363 
20.45                          0.936642269292348 -139.393558843096 0.0843174610622287 -48.0294680926565 0.0843174610622253 -48.0294680926559 0.934018709619451 -141.942233519893 
20.5                           0.9398740566202  -142.165506029875 0.077900100463775 -51.0493109428364 0.0779001004637724 -51.0493109428359 0.937474053031317 -144.847318857105 
20.55                          0.942836885598193 -144.826598170985 0.0720768653393056 -53.9523947947383 0.0720768653393036 -53.952394794738 0.940644558335525 -147.632533262301 
20.6                           0.945560341215311 -147.384671353938 0.0667862542896992 -56.7466519787538 0.0667862542896978 -56.7466519787535 0.943560588893384 -150.306371104848 
20.65                          0.948069940647425 -149.846883749082 0.0619733993680732 -59.4393656570644 0.0619733993680723 -59.4393656570642 0.946248502752367 -152.876601298211 
20.7                           0.950387775819184 -152.219778424028 0.0575894026501783 -62.0372243790515 0.0575894026501779 -62.0372243790515 0.948731260446504 -155.350332013824 
20.75                          0.952533047616043 -154.509341268978 0.0535907117544884 -64.5463734252665 0.0535907117544884 -64.5463734252666 0.95102893399318 -157.734070942276 
20.8                           0.954522509833111 -156.721053945642 0.0499385427477484 -66.9724625395675 0.0499385427477487 -66.9724625395678 0.953159132941795 -160.033780821317 
20.85                          0.956370838325931 -158.859941983718 0.0465983538295372 -69.3206899148745 0.0465983538295378 -69.3206899148749 0.955137361184437 -162.254930216766 
20.9                           0.958090938381668 -160.930618274867 0.043539369933893 -71.5958424700122 0.0435393699338938 -71.5958424700127 0.956977316177767 -164.402539709522 
20.95                          0.959694201152707 -162.937322282393 0.0407341563716083 -73.8023325619264 0.0407341563716094 -73.8023325619269 0.958691140356776 -166.481223740692 
21                             0.961190718115919 -164.883955314932 0.0381582384709769 -75.9442313396383 0.0381582384709781 -75.9442313396389 0.960289632885951 -168.495228419409 
21.05                          0.96258946093151 -166.774112217901 0.0357897635787961 -78.025298978172 0.0357897635787974 -78.0252989781728 0.961782428495189 -170.448465619732 
21.1                           0.963898432749258 -168.611109826596 0.0336092015616345 -80.0490120425509 0.0336092015616358 -80.0490120425517 0.963178148970787 -172.344543695009 
21.15                          0.965124795913917 -170.398012505957 0.03159907996397 -82.0185882309141 0.0315990799639714 -82.018588230915 0.964484531891497 -174.186795127637 
21.2                           0.966274980121739 -172.1376550784  0.0297437501416602 -83.9370087367534 0.0297437501416616 -83.9370087367544 0.965708540389175 -175.978301414473 
21.25                          0.967354774344415 -173.832663415477 0.0280291809333616 -85.8070384565456 0.028029180933363 -85.8070384565465 0.966856457046728 -177.721915466553 
21.3                           0.968369405237163 -175.485472943273 0.0264427767171054 -87.6312442529148 0.0264427767171068 -87.6312442529158 0.967933964499164 -179.420281778628 
21.35                          0.969323604259576 -177.098345286461 0.0249732169970396 -89.4120114663758 0.0249732169970409 -89.4120114663767 0.968946214855803 178.924145399302 
21.4                           0.970221665340916 -178.673383252405 0.0236103149592398 -91.1515588516395 0.0236103149592411 -91.1515588516404 0.96989788969535 177.309085678802 
21.45                          0.971067494598497 179.787455664987 0.0223448927151849 -92.8519520980011 0.0223448927151861 -92.8519520980019 0.970793252085779 175.732417749783 
21.5                           0.971864653354865 178.282347101758 0.0211686712112991 -94.5151160778196 0.0211686712113002 -94.5151160778203 0.97163619183551 174.192166028525 
21.55                          0.972616395485082 176.809588818662 0.0200741730202483 -96.1428459527136 0.0200741730202492 -96.1428459527142 0.972430264981084 172.686488586241 
21.6                           0.973325699950377 175.367590748126 0.0190546364437367 -97.7368172539102 0.0190546364437374 -97.7368172539107 0.973178728351252 171.213666223788 
21.65                          0.973995299231168 173.954865981591 0.0181039395479198 -99.2985950412055 0.0181039395479205 -99.298595041206 0.973884569911356 169.772092572787 
21.7                           0.974627704255051 172.570022598091 0.0172165329224726 -100.829642234145 0.0172165329224731 -100.829642234146 0.974550535479657 168.360265116608 
21.75                          0.975225226318782 171.211756246156 0.0163873801044508 -102.331327199295 0.0163873801044512 -102.331327199296 0.975179152314506 166.976777036366 
21.8                           0.975789996423723 169.878843401025 0.0156119047401726 -103.804930668712 0.0156119047401729 -103.804930668712 0.975772749994308 165.620309797543 
21.85                          0.976323982378489 168.570135227967 0.0148859436742283 -105.251652056884 0.0148859436742284 -105.251652056884 0.976333478948295 164.289626402119 
21.9                           0.97682900396803 167.284551990199 0.0142057052561867 -106.672615236412 0.0142057052561866 -106.672615236412 0.976863326942812 162.983565239307 
21.95                          0.977306746443107 166.021077946759 0.0135677322442455 -108.068873826406 0.0135677322442452 -108.068873826406 0.977364133783222 161.701034475313 
22                             0.977758772546391 164.778756691686 0.0129688687625041 -109.441416041981 0.0129688687625037 -109.44141604198 0.977837604454171 160.441006928969 
22.05                          0.978186533259824 163.556686891202 0.0124062308360964 -110.791169148222 0.0124062308360959 -110.791169148221 0.97828532088951 159.202515385824 
22.1                           0.978591377431439 162.354018380255 0.0118771800873401 -112.119003557482 0.0118771800873396 -112.119003557482 0.978708752536624 157.984648308353 
22.15                          0.978974560417581 161.169948583975 0.0113793002274388 -113.425736604863 0.0113793002274382 -113.425736604863 0.979109265857511 156.786545904425 
22.2                           0.979337251857661 160.003719233204 0.0109103760230795 -114.712136033119 0.0109103760230787 -114.712136033119 0.979488132889875 155.607396520162 
22.25                          0.979680542682736 158.85461334657  0.0104683744563499 -115.97892321498 0.0104683744563491 -115.978923214979 0.979846538975312 154.446433326847 
22.3                           0.980005451445655 157.721952454382 0.0100514278305053 -117.226776137985 0.0100514278305045 -117.226776137985 0.980185589747825 153.302931274681 
22.35                          0.980312930049092 156.605094042239 0.00965781860388533 -118.456332174296 0.0096578186038844 -118.456332174297 0.980506317464084 152.176204288976 
22.4                           0.980603868937962 155.503429194447 0.0092859657602931 -119.668190655596 0.00928596576029217 -119.668190655596 0.980809686746646 151.065602686841 
22.45                          0.980879101814305 154.416380419385 0.0089344125468834 -120.862915271054 0.00893441254688245 -120.862915271054 0.981096599802658 149.970510794617 
22.5                           0.981139409925564 153.343399640735 0.00860181543049607 -122.04103630445 0.0086018154304951 -122.041036304451 0.981367901172992 148.890344748317 
22.55                          0.981385525970958 152.283966340087 0.00828693414078579 -123.203052724787 0.00828693414078485 -123.203052724788 0.981624382060231 147.824550461014 
22.6                           0.981618137665293 151.237585837828 0.0079886226837585 -124.34943414319 0.00798862268375762 -124.349434143191 0.981866784278294 146.772601742749 
22.65                          0.981837890994937 150.203787700532 0.007705821222708 -125.480622647508 0.00770582122270719 -125.480622647509 0.982095803861541 145.733998559884 
22.7                           0.982045393196674 149.182124264146 0.007437548735297 -126.597034524739 0.00743754873529623 -126.597034524741 0.982312094366935 144.70826542208  
22.75                          0.982241215486622 148.172169263328 0.00718289636584995 -127.699061880321 0.00718289636584929 -127.699061880323 0.982516269899076 143.694949886226 
22.8                           0.982425895563401 147.173516558161 0.00694102140100852 -128.787074162272 0.00694102140100796 -128.787074162273 0.98270890788466 142.693621167595 
22.85                          0.982599939907034 146.185778950302 0.00671114180489443 -129.86141959731 0.00671114180489398 -129.861419597312 0.98289055162004 141.703868849467 
22.9                           0.982763825892752 145.208587081352 0.00649253125697441 -130.922426545261 0.00649253125697409 -130.922426545263 0.983061712613036 140.725301683195 
22.95                          0.982918003736823 144.241588406872 0.00628451464203762 -131.970404777331 0.00628451464203744 -131.970404777332 0.983222872737916 139.75754647149  
23                             0.983062898289714 143.284446240083 0.00608646394718859 -133.005646683236 0.00608646394718859 -133.005646683237 0.98337448622051 138.800247028277 
