! Touchstone file exported from HFSS 3D Layout Design 2026.1.0
!        File:           D:/Work/SIM/ADS_AUTO_SIM/projects/RFSOC_RF/TX_Fillter.aedt
!        Generated:      12:45:55 AM Aug 31, 2026
!        Design:         TX_BAND1_MCFIL_R15_CNN021
!        Project:        TX_Fillter
!
# GHz S MA R 50.000000
! Terminal data exported
! Port[1] = Port1
! Port[2] = Port2
14                             0.971708567980704 -166.943544327619 0.00370587171162797 -178.199314815768 0.00370587171162796 -178.199314815768 0.974956965386148 -159.657746472459 
14.05                          0.971180901382732 -167.849452553991 0.0037778760585552 -178.621332361696 0.00377787605855521 -178.621332361697 0.974516971453177 -160.509562019166 
14.1                           0.970636704198044 -168.761919425465 0.00385321288686855 -179.023950234837 0.00385321288686854 -179.023950234838 0.974063877814938 -161.366583548072 
14.15                          0.970075175648465 -169.68114898284 0.00393213846896041 -179.40675407681 0.00393213846896039 -179.406754076811 0.973597060423593 -162.228958875248 
14.2                           0.969495462818788 -170.607355738375 0.00401493376896811 -179.769363792507 0.00401493376896807 -179.769363792508 0.973115854689063 -163.09684356191 
14.25                          0.96889665640022 -171.540765349559 0.00410190711502076 179.888559431743 0.00410190711502071 179.888559431742 0.97261955216639 -163.970401417245 
14.3                           0.968277786014036 -172.481615345775 0.004193397181614 179.567305350189 0.00419339718161396 179.567305350188 0.972107396915681 -164.849805040644 
14.35                          0.967637815066709 -173.430155912865 0.00428977631980487 179.267106090391 0.00428977631980479 179.267106090389 0.971578581496469 -165.735236407057 
14.4                           0.966975635081234 -174.386650741117 0.00439145427776106 178.988126777424 0.00439145427776097 178.988126777423 0.971032242553209 -166.626887499574 
14.45                          0.966290059441835 -175.351377942827 0.00449888235974204 178.730455343602 0.00449888235974199 178.730455343601 0.970467455942694 -167.524960993803 
14.5                           0.965579816480556 -176.324631046292 0.00461255807795617 178.494091534265 0.00461255807795609 178.494091534264 0.969883231347326 -168.429670999131 
14.55                          0.964843541824166 -177.306720073849 0.00473303035908027 178.278935140257 0.00473303035908019 178.278935140256 0.969278506310269 -169.341243862524 
14.6                           0.96407976990816 -178.297972712494 0.00486090537573389 178.084773511261 0.0048609053757338 178.08477351126  0.96865213961929 -170.259919041193 
14.65                          0.963286924551048 -179.298735586607 0.00499685308309012 177.911268431238 0.00499685308309002 177.911268431237 0.968002903955407 -171.185950051185 
14.7                           0.962463308466332 179.69062435657  0.00514161455236281 177.75794246726  0.00514161455236274 177.757942467259 0.967329477709975 -172.1196054998  
14.75                          0.961607091571124 178.66971833673  0.00529601020646672 177.624164935611 0.00529601020646663 177.624164935611 0.966630435859245 -173.06117021068 
14.8                           0.960716297928721 177.638134092149 0.00546094907911969 177.509137662874 0.00546094907911961 177.509137662873 0.965904239768347 -174.010946451516 
14.85                          0.959788791137098 176.595434078107 0.00563743923754476 177.411880753655 0.00563743923754467 177.411880753655 0.965149225776548 -174.969255275523 
14.9                           0.958822257945413 175.541153495046 0.00582659953134247 177.331218608596 0.0058265995313424 177.331218608595 0.964363592391964 -175.936437989248 
14.95                          0.95781418984541 174.474798127315 0.00602967285678103 177.265766464206 0.00602967285678097 177.265766464206 0.96354538589597 -176.912857760863 
15                             0.956761862342872 173.395841970823 0.00624804115758578 177.213917747226 0.00624804115758572 177.213917747225 0.962692484124408 -177.8989013849  
15.05                          0.955662311564862 172.303724625097 0.00648324242137633 177.173832547695 0.00648324242137628 177.173832547695 0.961802578153397 -178.894981221487 
15.1                           0.95451230779959 171.19784842198  0.00673698997650177 177.143427513825 0.00673698997650172 177.143427513824 0.960873151570648 -179.901537330461 
15.15                          0.953308325495528 170.077575259493 0.0070111944487221 177.120367455033 0.00701119444872207 177.120367455033 0.959901456957239 179.080960176513 
15.2                           0.952046509162298 168.942223105075 0.00730798880286894 177.102058904779 0.00730798880286893 177.102058904779 0.958884489137661 178.052008539647 
15.25                          0.950722634514906 167.791062127567 0.0076297569735619 177.085645840012 0.00762975697356189 177.085645840011 0.95781895467531 177.011069480828 
15.3                           0.949332064081331 166.623310411641 0.0079791666840171 177.068007678278 0.00797916668401709 177.068007678278 0.956701236993268 175.957566025785 
15.35                          0.947869696346555 165.438129201965 0.00835920716629836 177.045759576948 0.0083592071662984 177.045759576948 0.955527356382543 174.890878980311 
15.4                           0.946329907328126 164.23461761703  0.0087732326341006 177.015254943127 0.00877323263410061 177.015254943127 0.954292924016996 173.810343017001 
15.45                          0.944706483261801 163.011806764152 0.00922501252529136 176.972589930691 0.00922501252529137 176.972589930691 0.952993088920227 172.715242323098 
15.5                           0.94299254281175 161.768653177577 0.00971878973207279 176.913609556546 0.00971878973207285 176.913609556546 0.951622476616986 171.604805753343 
15.55                          0.941180446896549 160.504031490797 0.0102593482792722 176.8339149171   0.0102593482792722 176.8339149171   0.95017511794103 170.47820142431  
15.6                           0.939261693825218 159.216726241926 0.0108520922051927 176.728870833818 0.0108520922051927 176.728870833818 0.948644366150633 169.334530678401 
15.65                          0.937226796948631 157.905422697415 0.0115031377561074 176.593613109276 0.0115031377561074 176.593613109276 0.947022800107188 168.17282133665  
15.7                           0.935065141427294 156.568696564331 0.0122194214389955 176.423054437597 0.0122194214389956 176.423054437596 0.945302110782287 166.99202014978  
15.75                          0.93276481596745 155.205002445321 0.0130088270049474 176.211887889025 0.0130088270049475 176.211887889025 0.943472967750007 165.790984346886 
15.8                           0.930312414446279 153.812660873443 0.0138803350792299 175.954586779326 0.0138803350792299 175.954586779326 0.941524861562884 164.568472171171 
15.85                          0.927692801186314 152.38984374727  0.0148441999394922 175.645399639663 0.0148441999394923 175.645399639663 0.939445916962904 163.323132283249 
15.9                           0.924888832189191 150.934557971469 0.0159121589026977 175.278338917764 0.0159121589026978 175.278338917764 0.93722267069282 162.053491906025 
15.95                          0.921881022824078 149.44462709697  0.0170976809519557 174.847161959815 0.0170976809519558 174.847161959815 0.934839806185152 160.757943583559 
16                             0.918647150192089 147.917670751913 0.0184162626608429 174.345342735087 0.018416262660843 174.345342735087 0.932279835536958 159.434730433158 
16.05                          0.915161775537725 146.351081666527 0.0198857812053469 173.766032660365 0.019885781205347 173.766032660365 0.929522716829196 158.0819297913   
16.1                           0.911395668509189 144.742000132374 0.0215269163464936 173.102008745632 0.0215269163464936 173.102008745632 0.926545391899191 156.697435198901 
16.15                          0.907315110612217 143.087285815905 0.0233636557731217 172.345607102941 0.0233636557731218 172.345607102941 0.923321225978905 155.278936754326 
16.2                           0.902881049664845 141.383486994339 0.0254239011557434 171.488639624926 0.0254239011557434 171.488639624926 0.91981932600471 153.823900005658 
16.25                          0.898048070242998 139.626807540318 0.0277401956890374 170.522291339416 0.0277401956890374 170.522291339416 0.916003708710495 152.329543791704 
16.3                           0.892763136835373 137.813072416475 0.0303505977343699 169.436995581064 0.0303505977343699 169.436995581064 0.911832282677169 150.79281782791  
16.35                          0.886964056628925 135.93769315588  0.033299729223812 168.222283701996 0.0332997292238121 168.222283701997 0.907255600248397 149.210381452605 
16.4                           0.880577597703615 133.99563596389  0.036640031316198 166.866605607275 0.036640031316198 166.866605607276 0.90221532575626 147.578585931259 
16.45                          0.873517186647042 131.981396941637 0.0404332625260001 165.357117024851 0.0404332625260002 165.357117024851 0.89664235639096 145.893464264993 
16.5                           0.865680099003728 129.888991914841 0.0447522745312953 163.67942925184  0.0447522745312953 163.67942925184  0.890454522737812 144.15073488054  
16.55                          0.856944050409388 127.711973109852 0.0496830951507038 161.817317427824 0.0496830951507038 161.817317427824 0.883553790632837 142.34582938231  
16.6                           0.847163103414053 125.443492492252 0.0553273314116662 159.752384640406 0.0553273314116662 159.752384640406 0.875822890860704 140.473960477827 
16.65                          0.83616283949265 123.076443614088 0.0618048694887358 157.463682166959 0.0618048694887358 157.463682166959 0.867121330384982 138.530255393002 
16.7                           0.823734834470399 120.603732873176 0.0692567782007244 154.927292224489 0.0692567782007245 154.927292224489 0.857280810463702 136.509994279221 
16.75                          0.809630666532621 118.018761124156 0.0778481958694462 152.115890874804 0.0778481958694463 152.115890874804 0.846100232747268 134.409014717401 
16.8                           0.79355606194721 115.316243493144 0.0877707620994019 148.998328533317 0.087770762099402 148.998328533317 0.833340782306923 132.22437567575  
16.85                          0.775166481429406 112.493567349223 0.0992437982447911 145.539298716137 0.0992437982447913 145.539298716137 0.818722147802088 129.955420814051 
16.9                           0.754066681476928 109.552996109713 0.112512885550078 141.699218664148 0.112512885550078 141.699218664147 0.801921942356309 127.605444187912 
16.95                          0.729818842286746 106.505179461588 0.12784369414882 137.43452517552  0.12784369414882 137.43452517552  0.782582046145711 125.184237238521 
17                             0.701967050158377 103.374626718743 0.14550791361805 132.698698524159 0.14550791361805 132.698698524158 0.760328107074577 122.711861784691 
17.05                          0.670090348580935 100.207995858189 0.165757184233805 127.444455734475 0.165757184233805 127.444455734475 0.734811744710641 120.223980902631 
17.1                           0.633901447358855 97.0860852618304 0.188780762479212 121.627655672616 0.188780762479212 121.627655672616 0.705788144323364 117.778821731696 
17.15                          0.593410495798322 94.1398348370064 0.21464477795495 115.213420306185 0.21464477795495 115.213420306185 0.673241635990264 115.465001849779 
17.2                           0.549165715920881 91.5683435072733 0.243217556384964 108.184599693873 0.243217556384963 108.184599693873 0.6375618134531  113.407472038723 
17.25                          0.50255145694712 89.6505887905994 0.274098133703819 100.551758822748 0.274098133703818 100.551758822748 0.599742467675888 111.765198664704 
17.3                           0.456050883484369 88.7288044239556 0.306580994276348 92.3623053952066 0.306580994276347 92.3623053952065 0.561518237827111 110.709639099093 
17.35                          0.413255821682516 89.1213790971813 0.339697803031885 83.7047888661614 0.339697803031885 83.7047888661614 0.525287039842412 110.372359881346 
17.4                           0.378283743960862 90.9250300490596 0.37235895648424 74.7041901622103 0.37235895648424 74.7041901622102 0.493661324702787 110.764558915567 
17.45                          0.354382278027018 93.7701759404995 0.403568443358024 65.506612624997  0.403568443358024 65.5066126249969 0.468658376037909 111.708347280111 
17.5                           0.342235503871681 96.7979278529496 0.432632156041502 56.2567257665932 0.432632156041502 56.2567257665932 0.450877704414765 112.850237435041 
17.55                          0.339367305160048 99.054166512542  0.459270445628659 47.0754368969557 0.45927044562866 47.0754368969556 0.439210274164046 113.784396233171 
17.6                           0.341358603783864 99.966751876386  0.48359676397728 38.0451924161992 0.48359676397728 38.0451924161991 0.431305440569904 114.207495554842 
17.65                          0.34372649725825 99.4538398344912 0.505994352813649 29.2061102422878 0.505994352813649 29.2061102422876 0.424433309429329 113.996574631824 
17.7                           0.34306036821888 97.7315537632341 0.526958194081414 20.561253323823  0.526958194081415 20.5612533238229 0.416199278995248 113.189815615081 
17.75                          0.337227884762768 95.1118589102469 0.54695804297008 12.0868653793566 0.54695804297008 12.0868653793564 0.404876405429981 111.927171586483 
17.8                           0.3251346627025  91.9054881813156 0.566346783051542 3.74365914115238 0.566346783051542 3.74365914115222 0.389444050831306 110.403190435608 
17.85                          0.306426144154365 88.4082345806195 0.585313541462977 -4.51318453626477 0.585313541462976 -4.51318453626489 0.369510487075863 108.848962411435 
17.9                           0.281285979451748 84.9343000603532 0.603871295880418 -12.7261734538706 0.603871295880419 -12.7261734538707 0.34524429999283 107.539658525076 
17.95                          0.250362391220307 81.8868389654185 0.62186939418212 -20.9298540145727 0.62186939418212 -20.9298540145727 0.317371917875553 106.819939338833 
18                             0.214832733624545 79.8896264379496 0.639025346563362 -29.1471420505609 0.639025346563363 -29.1471420505609 0.287259574110565 107.137820226338 
18.05                          0.176676277583044 80.0537264146098 0.654972763766111 -37.3874793266678 0.654972763766113 -37.3874793266678 0.257074965355282 109.062504698277 
18.1                           0.139419468403791 84.5021944315818 0.669321673114897 -45.6467710611022 0.669321673114898 -45.6467710611022 0.229965209434952 113.210005652477 
18.15                          0.109913663697509 96.7626410644284 0.68172419633803 -53.9090616564239 0.681724196338033 -53.9090616564239 0.209984132650866 119.913257137153 
18.2                           0.099558157255889 117.776044343516 0.691934909108792 -62.1497446380546 0.691934909108795 -62.1497446380546 0.20115379767611 128.579229564854 
18.25                          0.114483701136191 137.25867207575  0.699853946086653 -70.3398338004206 0.699853946086655 -70.3398338004207 0.205416144108413 137.421712924862 
18.3                           0.145780870168988 147.200832910752 0.705543911542236 -78.4505808194657 0.705543911542238 -78.4505808194658 0.221229266308983 144.499072901105 
18.35                          0.182890389405597 149.915383898734 0.709218359555036 -86.4576501353042 0.709218359555038 -86.4576501353043 0.244718923210081 148.9539811474   
18.4                           0.220186868520937 148.656453347887 0.711207171803617 -94.3442130302691 0.711207171803618 -94.3442130302691 0.271854871125714 150.966481519921 
18.45                          0.254979820341443 145.225443789943 0.711909242962019 -102.102640018158 0.711909242962019 -102.102640018158 0.299563321083199 151.097921892247 
18.5                           0.285931174320311 140.529605447754 0.711743758497099 -109.734819904513 0.711743758497099 -109.734819904513 0.325819222976023 149.890339165533 
18.55                          0.312392481428467 135.038338400243 0.711108637319116 -117.251391006622 0.711108637319115 -117.251391006621 0.349403011878139 147.755094388049 
18.6                           0.334115107044179 129.001811901208 0.710350447129466 -124.670280320844 0.710350447129465 -124.670280320844 0.369650302879414 144.978241595652 
18.65                          0.351102600873414 122.553145785927 0.709746256101343 -132.014927982196 0.709746256101343 -132.014927982195 0.386265968199872 141.751251337595 
18.7                           0.363526540180973 115.75891012191  0.709495490403585 -139.312483113858 0.709495490403585 -139.312483113858 0.399197659318952 138.198966608107 
18.75                          0.371677550287711 108.64595302851  0.709718989612354 -146.59214905018 0.709718989612355 -146.59214905018 0.408552731616979 134.399722311783 
18.8                           0.375939328043192 101.216834747012 0.710462629119762 -153.8837668264  0.710462629119763 -153.8837668264  0.414545169670365 130.39851532638  
18.85                          0.37677868499557 93.4596386889679 0.711703548266808 -161.216669537692 0.711703548266809 -161.216669537692 0.41746263883706 126.214938990438 
18.9                           0.374746231789423 85.3551747318247 0.713357749599882 -168.618815074782 0.713357749599884 -168.618815074781 0.417646323297825 121.847256121788 
18.95                          0.37048261859249 76.8833882736648 0.715288357679673 -176.116201384381 0.715288357679675 -176.116201384381 0.415478029344452 117.273562087536 
19                             0.364724975995607 68.0302088291366 0.717314026442393 176.267425612092 0.717314026442395 176.267425612092 0.411370654845527 112.450731708328 
19.05                          0.358307798292607 58.7956128741314 0.719216846251037 168.510558931489 0.719216846251037 168.510558931489 0.405760035279275 107.311789337232 
19.1                           0.352152575190268 49.2029407401495 0.72074869803973 160.593613303731 0.720748698039729 160.593613303731 0.399098753827057 101.762484881149 
19.15                          0.347241947665095 39.3081700397661 0.721634501080409 152.498344646307 0.721634501080406 152.498344646307 0.391855852417792 95.6781914906885 
19.2                           0.344578049335318 29.2059240249923 0.721570478417348 144.207119585682 0.721570478417342 144.207119585682 0.384530012641199 88.9027831161306 
19.25                          0.345130980776677 19.0273530715841 0.720215797161133 135.702253619347 0.720215797161125 135.702253619347 0.377686170392686 81.2520015172595 
19.3                           0.34978924272759 8.92554977320574 0.717177179350061 126.965765157098 0.717177179350052 126.965765157098 0.372023614662974 72.5251523970628 
19.35                          0.359323434409445 -0.951515390562504 0.711988782680778 117.980021267888 0.711988782680767 117.980021267889 0.36847232123037 62.5306484290252 
19.4                           0.374362674440272 -10.4934573251123 0.704094134788741 108.72983248784  0.704094134788731 108.729832487841 0.368287365034614 51.131273292996  
19.45                          0.395364123187261 -19.6528362612289 0.692842924973104 99.2065026503404 0.692842924973096 99.2065026503412 0.3730681717044  38.3090398595384 
19.5                           0.422545612596269 -28.4516815033251 0.677521290281441 89.4140204563259 0.677521290281437 89.4140204563266 0.384594213121217 24.2306361951614 
19.55                          0.455767207583953 -36.9648458641896 0.65743539114186 79.3768423126492 0.657435391141859 79.3768423126498 0.40440670476698 9.26895154351782 
19.6                           0.49439103279678 -45.2860499415161 0.632057155836798 69.1475381765714 0.632057155836799 69.1475381765717 0.433230368118163 -6.0606958349389 
19.65                          0.537195904933804 -53.4901974835931 0.601212184285559 58.8113221421633 0.60121218428556 58.8113221421631 0.470523880854824 -21.2312162822119 
19.7                           0.582434108987745 -61.6067617758012 0.565249396593973 48.4840924874844 0.565249396593973 48.4840924874837 0.514443921255633 -35.8212287165534 
19.75                          0.628065117659396 -69.6130497851948 0.525107437952145 38.3021199315274 0.525107437952141 38.3021199315261 0.562259985869588 -49.558991555913 
19.8                           0.672105088478061 -77.4464410561017 0.482218123812557 28.404960137805  0.482218123812549 28.4049601378033 0.611004286174484 -62.3030766810252 
19.85                          0.712958931254329 -85.0269129879444 0.438263484148545 18.9166609725723 0.438263484148532 18.9166609725705 0.658074025301737 -74.0028045102704 
19.9                           0.749612753506845 -92.2791817667777 0.394879306742961 9.93129765860392 0.394879306742944 9.93129765860213 0.701596955367893 -84.6656183237062 
19.95                          0.78164747780575 -99.1472882713362 0.353415316716351 1.50652252354978 0.353415316716331 1.50652252354831 0.740518761249288 -94.3359501437423 
20                             0.809120274127983 -105.599924091376 0.314814617350677 -6.33496143487933 0.314814617350657 -6.3349614348803 0.774485645083608 -103.081334628589 
20.05                          0.832394805272344 -111.628737608638 0.279609346015483 -13.5987603743525 0.279609346015463 -13.5987603743529 0.803635967750851 -110.982142703957 
20.1                           0.851984954578491 -117.243090309403 0.247990092461591 -20.3102925112007 0.247990092461572 -20.3102925112004 0.828392555331476 -118.123620930573 
20.15                          0.868441896829604 -122.46406809953 0.219902267790565 -26.5068403942888 0.219902267790548 -26.506840394288 0.84930202354253 -124.590040733397 
20.2                           0.882286914085539 -127.319302879899 0.195137590045619 -32.2313029880774 0.195137590045605 -32.2313029880761 0.866930496850015 -130.460856972506 
20.25                          0.893979454206527 -131.839137376326 0.173406262976616 -37.5278570399852 0.173406262976605 -37.5278570399834 0.881806075128585 -135.808570763348 
20.3                           0.903907656043892 -136.054087265036 0.154387342532657 -42.4392528759153 0.154387342532648 -42.4392528759132 0.894393304295073 -140.697861647575 
20.35                          0.912391083396792 -139.993327276831 0.137760524516771 -47.0053213785162 0.137760524516764 -47.005321378514 0.905086727941157 -145.185558380034 
20.4                           0.919688912157095 -143.683897260962 0.123224217138854 -51.2622953436001 0.123224217138849 -51.2622953435979 0.914214402130434 -149.321099681564 
20.45                          0.926009696773359 -147.150374538318 0.110504393605313 -55.2426368692588 0.110504393605309 -55.2426368692567 0.92204573860018 -153.147237648729 
20.5                           0.931520768874613 -150.414827483777 0.0993576887845237 -58.9751551199198 0.0993576887845215 -58.9751551199179 0.928800541398726 -156.700825178998 
20.55                          0.936356454292331 -153.49692590479 0.0895711534470741 -62.4852740359309 0.0895711534470727 -62.4852740359293 0.934657675231422 -160.013594661587 
20.6                           0.940624895246162 -156.414129319936 0.0809602373551602 -65.7953636354162 0.0809602373551594 -65.7953636354149 0.939762706747304 -163.112879410912 
20.65                          0.944413547719843 -159.181905570439 0.0733659704103087 -68.9250846889116 0.0733659704103084 -68.9250846889108 0.944234337423098 -166.022256824388 
20.7                           0.947793534538487 -161.813952570751 0.0666519093936478 -71.8917194901993 0.0666519093936478 -71.8917194901989 0.948169675824694 -168.762108200846 
20.75                          0.950823058791066 -164.322408711868 0.0607011624960242 -74.7104754224368 0.0607011624960243 -74.7104754224368 0.951648490695119 -171.350098691613 
20.8                           0.953550067801662 -166.718045076117 0.0554136477834381 -77.3947561959333 0.0554136477834382 -77.3947561959338 0.954736610953439 -173.801584888184 
20.85                          0.956014329502025 -169.010437051589 0.0507036499421179 -79.9564001952088 0.0507036499421179 -79.9564001952099 0.957488631178687 -176.129958988546 
20.9                           0.958249052572728 -171.208115380822 0.0464976880175085 -82.4058877462815 0.0464976880175086 -82.4058877462828 0.959950060930239 -178.346938517503 
20.95                          0.960282154095449 -173.31869793358 0.0427326796332269 -84.7525202032662 0.0427326796332269 -84.7525202032679 0.962159032958268 179.537190085244 
21                             0.962137255324598 -175.349004052666 0.0393543743548212 -87.0045741124611 0.0393543743548211 -87.0045741124632 0.964147663357628 177.51336664538  
21.05                          0.963834467627528 -177.305153487513 0.0363160242684004 -89.1694336773363 0.0363160242684001 -89.1694336773388 0.965943137681772 175.573584854389 
21.1                           0.965391016123936 -179.192651884833 0.0335772597347595 -91.2537045167477 0.0335772597347592 -91.2537045167504 0.967568581313261 173.710746910238 
21.15                          0.966821737366822 178.98353534417  0.0311031404390803 -93.2633113946798 0.0311031404390799 -93.2633113946823 0.969043759755241 171.918540688508 
21.2                           0.96813947886091 177.218919153125 0.0288633550044596 -95.2035822656924 0.0288633550044592 -95.2035822656954 0.970385644523182 170.191335689288 
21.25                          0.969355421716308 175.509431561033 0.0268315458600379 -97.0793206589147 0.0268315458600373 -97.0793206589176 0.971608872501085 168.524094646479 
21.3                           0.970479342803701 173.851377691304 0.0249847393733639 -98.8948681304205 0.0249847393733633 -98.8948681304233 0.972726120544075 166.91229822353  
21.35                          0.971519829034299 172.241394092021 0.0233028642899322 -100.654158254955 0.0233028642899315 -100.654158254958 0.973748412388566 165.351880665715 
21.4                           0.972484453542391 170.676412435239 0.0217683441999997 -102.360763403697 0.0217683441999991 -102.360763403699 0.974685371270094 163.839174647482 
21.45                          0.973379921379835 169.15362782786  0.0203657520640397 -104.017935362886 0.0203657520640391 -104.017935362888 0.975545428807678 162.370863856605 
21.5                           0.974212190673602 167.670471082143 0.0190815167947777 -105.628640685332 0.0190815167947771 -105.628640685334 0.976335998504989 160.943942105992 
21.55                          0.974986573924606 166.224584392343 0.0179036735509274 -107.195591529364 0.0179036735509269 -107.195591529366 0.977063620497562 159.555677968604 
21.6                           0.975707823144791 164.813799947316 0.0168216507851458 -108.721272624067 0.0168216507851454 -108.721272624069 0.977734082830321 158.203584099045 
21.65                          0.976380201769505 163.436121079369 0.0158260882453374 -110.207964902384 0.015826088245337 -110.207964902386 0.978352523495006 156.885390543685 
21.7                           0.977007545690871 162.089705609057 0.0149086810900978 -111.65776626192 0.0149086810900975 -111.657766261921 0.978923516627189 155.59902145502  
21.75                          0.977593315295494 160.772851095712 0.0140620460774588 -113.072609844584 0.0140620460774586 -113.072609844585 0.97945114560693 154.342574720012 
21.8                           0.97814064002652 159.483981745754 0.0132796064484884 -114.454280168388 0.0132796064484883 -114.454280168388 0.979939065287257 153.114304089891 
21.85                          0.978652356703097 158.221636766498 0.0125554926769005 -115.804427395984 0.0125554926769004 -115.804427395984 0.980390555160733 151.912603463326 
21.9                           0.979131042602574 156.984459983298 0.0118844567120682 -117.124579983443 0.0118844567120682 -117.124579983443 0.980808564943489 150.735993028459 
21.95                          0.979579044129111 155.771190563395 0.011261797721919 -118.416155917965 0.0112617977219191 -118.416155917965 0.981195753790586 149.583107013909 
22                             0.979998501746752 154.580654711479 0.0106832976575428 -119.680472723795 0.010683297657543 -119.680472723794 0.981554524142569 148.452682836128 
22.05                          0.980391371737779 153.411758220325 0.0101451652240434 -120.918756390612 0.0101451652240437 -120.918756390611 0.98188705103003 147.343551461731 
22.1                           0.980759445252234 152.263479775534 0.0096439870613528 -122.132149357379 0.00964398706135311 -122.132149357378 0.982195307522414 146.25462882963  
22.15                          0.981104365037343 151.134864926761 0.00917668512191745 -123.321717666559 0.00917668512191781 -123.321717666558 0.982481086892715 145.184908199885 
22.2                           0.981427640172579 150.025020649202 0.00874047938555054 -124.488457388107 0.00874047938555093 -124.488457388106 0.982746021975955 144.133453314848 
22.25                          0.981730659084388 148.933110428918 0.00833285518040622 -125.633300399444 0.0083328551804067 -125.633300399443 0.982991602122341 143.099392273929 
22.3                           0.982014701072022 147.858349813955 0.00795153448717048 -126.75711959627 0.00795153448717095 -126.757119596269 0.983219188082492 142.081912036744 
22.35                          0.982280946540696 146.800002380453 0.00759445069462112 -127.86073359936 0.0075944506946216 -127.86073359936 0.983430025109687 141.080253480765 
22.4                           0.982530486109008 145.757376069182 0.00725972635154357 -128.944911014114 0.00725972635154408 -128.944911014113 0.983625254520448 140.093706949345 
22.45                          0.982764328733148 144.729819853304 0.00694565352494135 -130.010374292441 0.00694565352494184 -130.010374292441 0.983805923918544 139.121608234303 
22.5                           0.982983408970016 143.716720702878 0.00665067642950499 -131.057803240362 0.00665067642950547 -131.057803240362 0.98397299625716 138.16333494436  
22.55                          0.983188593484158 142.717500815616 0.00637337604000258 -132.087838209307 0.00637337604000305 -132.087838209306 0.984127357888573 137.218303216867 
22.6                           0.983380686889005 141.731615086984 0.00611245643797149 -133.101083004501 0.00611245643797196 -133.101083004501 0.984269825729346 136.285964735533 
22.65                          0.983560437000594 140.758548795776 0.00586673267793108 -134.098107539791 0.00586673267793152 -134.09810753979 0.984401153651001 135.365804021404 
22.7                           0.98372853957161 139.797815483992 0.00563511998722776 -135.079450264748 0.00563511998722816 -135.079450264748 0.984522038190949 134.4573359683   
22.75                          0.98388564256469 138.848955012189 0.00541662413833511 -136.045620386921 0.00541662413833544 -136.045620386921 0.984633123665525 133.560103597324 
22.8                           0.984032350016381 137.911531773556 0.00521033285360831 -136.997099909397 0.00521033285360859 -136.997099909396 0.984735006755984 132.673676008024 
22.85                          0.984169225536671 136.985133051736 0.00501540812067391 -137.934345501601 0.00501540812067415 -137.934345501602 0.984828240628976 131.797646506369 
22.9                           0.984296795483436 136.069367509055 0.004831079312274 -138.857790219211 0.00483107931227417 -138.857790219211 0.984913338645013 130.931630891975 
22.95                          0.984415551846339 135.163863793192 0.00465663701785767 -139.767845087328 0.00465663701785778 -139.767845087328 0.984990777701561 130.075265888949 
23                             0.984525954870589 134.268269251563 0.00449142750584512 -140.664900559516 0.00449142750584512 -140.664900559516 0.985061001251532 129.228207706495 
