! Touchstone file exported from HFSS 3D Layout Design 2026.1.0
!        File:           D:/Work/ADS/SIMADS_EM_PAR/HFSS_VERDICT/sma_ideal_100mm_50r_hfss_solve.aedt
!        Generated:      11:14:23 PM Aug  3, 2026
!        Design:         SMA_IDEAL_100MM_50R
!        Project:        sma_ideal_100mm_50r_hfss_solve
!
# GHz S MA R 50.000000
! Terminal data exported
! Port[1] = Port1
! Port[2] = Port2
4                              0.0249105627161324 -157.220836741052 0.824508275560149 -176.00480136832 0.824508275560149 -176.00480136832 0.00599550427677144 -72.9109323573614 
4.1                            0.036014985231079 -142.701515534291 0.821057078292345 161.718308722173 0.821057078292339 161.718308722171 0.0256672969554544 -110.767410990281 
4.2                            0.0487809038918424 -147.697805454607 0.81700059905543 139.471673658101 0.817000599055424 139.471673658099 0.0418026869031283 -135.666552520386 
4.3                            0.0553388039431587 -159.476937616458 0.813159664842275 117.253007263446 0.813159664842273 117.253007263445 0.0500545776957692 -159.442713858169 
4.4                            0.053260080930246 -172.076370135097 0.80981724584917 95.0378145455472 0.809817245849171 95.0378145455473 0.0487688057546625 177.579014397347 
4.5                            0.0432977924027566 178.536759041702 0.806824911406964 72.8024013472693 0.806824911406965 72.8024013472694 0.0383883342952619 155.149614552453 
4.6                            0.0291547642427103 -178.666665585259 0.803818565079807 50.5387014670333 0.803818565079807 50.5387014670333 0.0205115046609948 132.995491202329 
4.7                            0.0234648456734878 -144.823322825055 0.800462798871218 28.2581241176997 0.800462798871218 28.2581241176997 0.00232699787221703 -72.6137949717229 
4.8                            0.0376879927545397 -123.046969308625 0.796639381287822 5.98481000420588 0.796639381287822 5.98481000420597 0.0266648027522885 -92.411921423032 
4.9                            0.0568601217343297 -126.998192264698 0.792509178980066 -16.2576513597201 0.792509178980067 -16.25765135972  0.0486625229141962 -114.738113147503 
5                              0.0720306704004458 -138.686829017412 0.788426336700161 -38.4592319941252 0.788426336700163 -38.4592319941251 0.0649298100017013 -137.084726174103 
5.1                            0.0798597535839405 -152.479115512609 0.784752686430569 -60.6295060537607 0.784752686430569 -60.6295060537607 0.0731271176415651 -159.483126996675 
5.2                            0.0791872769199602 -166.188290015339 0.781668255549279 -82.7934474590597 0.781668255549277 -82.7934474590596 0.0721176187416707 177.842046541379 
5.3                            0.0705669728799377 -177.967740597054 0.779074407610946 -104.978840480316 0.779074407610943 -104.978840480316 0.0619994910463995 154.462958180607 
5.4                            0.0566600597358691 175.322671390113 0.776642900565507 -127.201642691773 0.776642900565505 -127.201642691773 0.0442246364353628 129.27324878488  
5.5                            0.0434532061550963 179.522648665605 0.773992616012262 -149.457369351582 0.773992616012262 -149.457369351582 0.0218495356703294 96.3880125851204 
5.6                            0.0403146573707613 -164.766696851601 0.770900419582177 -171.723961910139 0.770900419582177 -171.72396191014 0.00889566273392122 -23.8626319007668 
5.7                            0.048730832126047 -155.941851656857 0.767419791489807 166.025031870617 0.767419791489806 166.025031870616 0.0280862223327444 -90.5078392713064 
5.8                            0.0592016561004371 -159.585831444639 0.763832062630795 143.804940205913 0.763832062630793 143.804940205913 0.0449979226883701 -118.211208279223 
5.9                            0.0648476830597206 -169.634107865086 0.760465425867289 121.611709505399 0.760465425867288 121.6117095054   0.0545139773420704 -141.327404994404 
6                              0.0629058916853513 177.985120472569 0.757499523357497 99.4255129642208 0.757499523357499 99.425512964221  0.0552352292618306 -162.524676168707 
6.1                            0.0531322991657721 166.058663724431 0.754870293724874 77.2233220712809 0.754870293724877 77.223322071281  0.0472848121308351 178.284346199973 
6.2                            0.03747669486799 159.072855309986 0.752320774098675 54.9926593620999 0.752320774098676 54.9926593620998 0.0323719065393034 163.629412599262 
6.3                            0.0218957795344833 172.542272986829 0.749560976570311 32.7386488903469 0.749560976570311 32.7386488903468 0.0150126754402483 170.5234883758   
6.4                            0.0230000735720898 -143.994906244744 0.746442111329557 10.4805131599207 0.746442111329556 10.4805131599208 0.0162722172331308 -121.897472460592 
6.5                            0.0380916620142264 -134.875942204067 0.74304261553147 -11.760260902184 0.743042615531469 -11.7602609021839 0.0335214933342369 -118.39399036041 
6.6                            0.0512993364726476 -143.505436722859 0.739615726948153 -33.9729529465808 0.739615726948153 -33.9729529465808 0.0475366644881731 -132.329469136412 
6.7                            0.0576271092246739 -156.79022839883 0.736433201959275 -56.1640300533294 0.736433201959276 -56.1640300533295 0.054499587028703 -149.336957649928 
6.8                            0.0555141169484443 -170.955211699545 0.733620951068226 -78.35321369136  0.733620951068227 -78.3532136913601 0.0531351652528529 -166.424363389375 
6.9                            0.0452888930627783 176.577117556368 0.7310830254213  -100.561584815894 0.7310830254213  -100.561584815894 0.0438452847623376 178.682341193892 
7                              0.0293318192045791 171.861257754404 0.728557709962116 -122.798725217257 0.728557709962115 -122.798725217256 0.0290737821315202 171.914335923485 
7.1                            0.0163044408471502 -157.125954391499 0.725774397806128 -145.056582391177 0.725774397806129 -145.056582391177 0.0172754234512797 -162.16650384721 
7.2                            0.026461376119057 -114.090441531299 0.722618693272513 -167.313975433869 0.722618693272513 -167.313975433869 0.0262291545777617 -125.715970402659 
7.3                            0.0448332575473178 -114.605745624034 0.719203682601208 170.45080869766  0.719203682601208 170.45080869766  0.0431119279519863 -128.963847900793 
7.4                            0.0595189981678338 -125.327154684691 0.715803050892885 148.247027031082 0.715803050892884 148.247027031082 0.056273758697836 -143.790596589061 
7.5                            0.0673346073396308 -137.931083371071 0.712689892762545 126.065941214014 0.712689892762543 126.065941214014 0.0620970010619047 -162.323553417306 
7.6                            0.0675104975697657 -149.556900073368 0.709979150807803 103.885783601023 0.709979150807802 103.885783601023 0.0592221343293325 177.219331524387 
7.7                            0.0613509819518929 -157.709100347257 0.707561688294464 81.6841700697127 0.707561688294463 81.6841700697127 0.0478500573552952 154.806967771256 
7.8                            0.052795642300039 -158.972210042726 0.705164000072303 59.4510132906776 0.705164000072302 59.4510132906775 0.0296715978056051 127.68288990487  
7.9                            0.0487763161534411 -151.673068845245 0.70250224653752 37.1947762707462 0.70250224653752 37.1947762707462 0.0100719180872595 64.3158743936945 
8                              0.0543873328778486 -144.113176320864 0.699447428331346 14.9382869331141 0.699447428331346 14.9382869331141 0.0214395775055568 -52.4154216088391 
8.1                            0.0658747148370753 -145.155336158879 0.696105985395156 -7.2939215225931 0.696105985395156 -7.29392152259311 0.0430060373183496 -85.0288675142889 
8.2                            0.0763161347035775 -153.514935999664 0.692765291065713 -29.4896081964457 0.692765291065713 -29.4896081964457 0.0600724137637855 -108.350780541462 
8.3                            0.0811987171548805 -165.865930695514 0.689735647112557 -51.6559603811526 0.689735647112556 -51.6559603811526 0.0699332073123034 -128.967092445326 
8.4                            0.0784792551867867 179.895090057913 0.687182637732546 -73.8157618911519 0.687182637732548 -73.815761891152 0.0715166902327909 -147.728297019668 
8.5                            0.0679665618140898 165.166873632636 0.685044797047223 -95.9950234205509 0.685044797047224 -95.9950234205509 0.0651668065104758 -164.195589357112 
8.6                            0.0510211159143332 151.617860472161 0.683078174025795 -118.209345001828 0.683078174025797 -118.209345001828 0.052791359783487 -176.584155576025 
8.7                            0.0305387383269587 143.837744148943 0.680996873723852 -140.456759344764 0.680996873723852 -140.456759344764 0.038352427080287 179.793861991121 
8.8                            0.0133672642397125 168.880259604371 0.678625088222408 -162.720762635265 0.67862508822241 -162.720762635265 0.0290943459344244 -167.510451695717 
8.9                            0.0193496454417717 -134.112233907863 0.675972472028739 175.018967529285 0.675972472028741 175.018967529285 0.0314921698629262 -150.210374410636 
9                              0.0326052098897948 -133.786727904781 0.673196647850189 152.775067064696 0.67319664785019 152.775067064696 0.03925835139866 -148.232364103193 
9.1                            0.0402047542528496 -145.195027596733 0.670488280487241 130.546814636647 0.670488280487242 130.546814636647 0.0442334201533047 -156.008409567763 
9.2                            0.0401547955130625 -158.521860658408 0.667954188205975 108.322687221648 0.667954188205975 108.322687221648 0.0431912546881028 -166.747615255317 
9.3                            0.0327497655846678 -169.891657679101 0.665563046554672 86.088711068562  0.66556304655467 86.088711068562  0.0360228650849985 -175.536059746447 
9.4                            0.0204980733004274 -170.995266627308 0.663176429543103 63.8375258455827 0.663176429543101 63.8375258455826 0.0256947946702198 -174.14226935899 
9.5                            0.0129089498919887 -129.2127112512  0.660643389310522 41.5732316399579 0.660643389310522 41.5732316399577 0.020648435170746 -149.852065732401 
9.6                            0.0235098251459543 -96.2043321974017 0.657905793431296 19.3093650697821 0.657905793431296 19.3093650697819 0.0280869649335562 -129.957337113207 
9.7                            0.0374592890076152 -99.207022723833 0.655052905316042 -2.93928565538369 0.655052905316042 -2.93928565538376 0.0393550361859281 -132.202549032393 
9.8                            0.0473112217136388 -109.788027164127 0.652281554735881 -25.1671595373826 0.652281554735881 -25.1671595373826 0.0472467454597381 -143.896485453786 
9.9                            0.0506275080905471 -121.235342142933 0.649755517902796 -47.3851931950941 0.649755517902794 -47.3851931950939 0.0484740765600555 -159.048784683245 
10                             0.0473407866296204 -129.872889893115 0.647396452748413 -69.6197795075712 0.647396452748413 -69.6197795075712 0.0421116157062865 -174.35491579235 
