! Touchstone file exported from HFSS 3D Layout Design 2026.1.0
!        File:           D:/Work/ADS/BFP_parallel/BFP_HFSS.aedt
!        Generated:      01:00:25 PM Aug  9, 2026
!        Design:         I7_FR4_HFSS_VERDICT
!        Project:        BFP_HFSS
!
# GHz S MA R 50.000000
! Terminal data exported
! Port[1] = Port1
! Port[2] = Port2
4                              0.973977451035719 75.173568671445  0.00877941566968591 -21.2160738730289 0.00877941566968593 -21.2160738730289 0.973749620680917 75.1625648523231 
4.15384615384615               0.970541309053444 69.3391778750609 0.0110782920814092 -27.7769359051599 0.0110782920814079 -27.7769359051591 0.970290797025148 69.3210102518207 
4.30769230769231               0.966255075953567 63.0809276700984 0.0143561067092599 -34.8761851663029 0.0143561067092581 -34.8761851663014 0.965979360358968 63.0540882848822 
4.46153846153846               0.960713425238844 56.2739408874373 0.019228884771513 -42.6891585139281 0.0192288847715115 -42.6891585139261 0.960409655523155 56.2369094809568 
4.61538461538461               0.953175000444191 48.7258382261184 0.0268518867822071 -51.4914156310618 0.0268518867822061 -51.491415631061 0.952840366638716 48.6772406276877 
4.76923076923077               0.942124849182686 40.1178442879911 0.039563467403621 -61.7476082552179 0.0395634674036211 -61.7476082552185 0.941757488353774 40.0567457094643 
4.92307692307692               0.92396655993597 29.8692000516874 0.0625683251167376 -74.3213180395255 0.062568325116738 -74.3213180395272 0.923567731220397 29.7956535743972 
5.07692307692308               0.888237183168919 16.790945981368  0.108840765875991 -91.047469739029 0.108840765875991 -91.0474697390299 0.887816780054678 16.7070500656006 
5.23076923076923               0.795997955120349 -1.73161150980152 0.213579263617857 -116.496059280845 0.213579263617858 -116.496059280844 0.795589150369712 -1.8195329797404 
5.38461538461539               0.505883087074151 -26.2329378426146 0.437231784898502 -161.488564432863 0.437231784898513 -161.488564432862 0.505565225363876 -26.3058682422875 
5.53846153846154               0.277078312981425 7.09595480576878 0.608412589377019 136.580020852139 0.608412589377015 136.58002085214  0.277140449477988 7.11050055308086 
5.69230769230769               0.356930507623109 0.752193176769233 0.639329163308738 86.707922209215  0.639329163308739 86.7079222092166 0.357601324202557 0.908332152796409 
5.84615384615385               0.203989126311392 -9.54291065589729 0.683869650560669 41.9489339923694 0.683869650560673 41.9489339923696 0.207038306564511 -8.91314676793296 
6                              0.212924894696047 49.5025502145243 0.688304922985   -3.17393081479393 0.688304922984988 -3.17393081479391 0.216356166293736 48.0312463655931 
6.15384615384615               0.399902999843531 37.4394382993983 0.64653255652402 -43.556540944725 0.646532556524015 -43.5565409447246 0.401449521943661 36.4437854844989 
6.30769230769231               0.451063767933925 13.2192608927196 0.627248103698251 -79.0172429114723 0.627248103698251 -79.0172429114727 0.452994084784398 12.6116625790974 
6.46153846153846               0.37005167218641 -10.6671638384315 0.651053913873835 -114.262542597998 0.651053913873831 -114.262542597998 0.374827318001761 -10.5306794820164 
6.61538461538461               0.184095190389115 -19.7926718907136 0.688224337630776 -152.935120476351 0.688224337630778 -152.935120476351 0.199182409946595 -18.1191452114412 
6.76923076923077               0.18608127196142 39.491028383004  0.685061926624747 166.220102968948 0.685061926624753 166.220102968947 0.199893402416303 31.0133427403472 
6.92307692307692               0.357433046285466 29.3092256616321 0.643660110126247 127.846051294149 0.643660110126247 127.846051294149 0.35954847047986 22.0540867001441 
7.07692307692308               0.430836324749099 5.27111784480981 0.612525336107555 92.9062720556349 0.612525336107557 92.9062720556351 0.4272724845022  -2.11950828266955 
7.23076923076923               0.404553664399749 -19.3825126033712 0.613585456103312 58.6626382441514 0.613585456103315 58.6626382441513 0.39595370993397 -28.0818035984445 
7.38461538461539               0.290789109405714 -40.7265245200387 0.637897903109386 21.9824077477301 0.637897903109386 21.9824077477299 0.274250314241906 -52.4451963577528 
7.53846153846154               0.15328778404783 -32.4382006043717 0.652560662026373 -18.4678666798431 0.652560662026374 -18.4678666798429 0.115542256930479 -44.0609311892961 
7.69230769230769               0.227519065061411 -2.45384400473621 0.626786131424213 -60.7024112976099 0.626786131424214 -60.7024112976098 0.203922913583157 -1.39827490562711 
7.84615384615385               0.35335636690779 -22.0110501930572 0.574820077004827 -101.898630749957 0.574820077004828 -101.898630749957 0.338345333939479 -25.4813312597422 
8                              0.403920582343109 -51.5816984405043 0.529807693389694 -142.455735817038 0.529807693389698 -142.455735817038 0.391141600423262 -58.1658870905031 
8.15384615384615               0.368781172942844 -82.0161692459115 0.503163883643017 173.695616805909 0.503163883643017 173.695616805909 0.355449810652252 -91.2989994674994 
8.30769230769231               0.266365577629482 -94.7580265905349 0.459840814915045 119.717296156932 0.459840814915044 119.717296156932 0.241899339645449 -104.796405869395 
8.46153846153846               0.404976328256791 -92.5194762777271 0.309538744129284 56.6932174739302 0.309538744129282 56.6932174739299 0.388372924434753 -97.9789079695313 
8.61538461538462               0.590553628007823 -126.937564033224 0.149046125682586 4.95354864147675 0.149046125682595 4.95354864147709 0.588614151466671 -132.941109504243 
8.76923076923077               0.678963995678468 -159.708272451277 0.0672929487105582 -32.0705813253186 0.0672929487105629 -32.0705813253221 0.684196524964161 -165.441909043   
8.92307692307692               0.731113545669385 173.105552394874 0.0311435897615348 -60.9226377719577 0.0311435897615348 -60.922637771956 0.739077063550188 168.06327924576  
9.07692307692308               0.769423262207291 150.362632315374 0.0148702633105452 -86.0922217798526 0.0148702633105459 -86.0922217798381 0.77772175149117 146.093079461415 
9.23076923076923               0.799742745437884 131.070846570518 0.00734695999552094 -111.278385698009 0.00734695999552114 -111.278385698002 0.807245424995359 127.505010650924 
9.38461538461539               0.82405741533529 114.484810419376 0.00388925355743478 -140.508198198573 0.00388925355743112 -140.508198198636 0.830355246912817 111.504143023771 
9.53846153846154               0.843524897329364 100.031289977499 0.00245256384931657 -175.277397067038 0.00245256384930938 -175.277397067263 0.848570471606   97.5134134798994 
9.69230769230769               0.859071808282574 87.2671310148852 0.00199057346001719 151.479452293369 0.00199057346000897 151.479452293012 0.86297251656878 85.1029968339916 
9.84615384615385               0.871476846582881 75.8504017225213 0.00187599022393034 126.513986323607 0.00187599022392389 126.513986323317 0.874390151758028 73.9484640609892 
10                             0.881377361174392 65.5174458570902 0.00183172919854833 108.622870671708 0.00183172919854899 108.622870671686 0.883463325662787 63.8026964333697 
