! Touchstone file exported from HFSS 3D Layout Design 2026.1.0
!        File:           D:/Work/ADS/SIMADS_EM_PAR/SP8T/RF-PPA-SP10T-4F4H-ENIG-V1.0.aedt
!        Generated:      10:44:44 PM Aug  7, 2026
!        Design:         RF-PPA-SP10T-4F4H-ENIG-V1.0_cutout
!        Project:        RF-PPA-SP10T-4F4H-ENIG-V1.0
!
! Variables:
!        BendModel = 0
!
# GHz S MA R 50.000000
! Terminal data exported
! Port[1] = Port1
! Port[2] = Port2
! Port[3] = Port3
! Port[4] = Port4
0                              1.00010051465512 0                9.99289249826398E-05 180              8.27905351256052E-11 0                3.24843575670098E-11 180              
                               9.99289249822485E-05 180              1.00009861206084 0                1.4828065950326E-10 0                8.65315824602594E-11 0                
                               8.27928303409467E-11 0                1.48270352735207E-10 0                1.00009828588307 0                9.99226376787732E-05 180              
                               3.2474041651001E-11 180              8.65294306475958E-11 0                9.99226376791062E-05 180              1.00009916656175 0                
0.05                           0.305876757331946 -75.9278392874364 0.950343589761788 15.518321604125  1.45619324950226E-05 108.28405224432  9.07866595038092E-06 -42.0586908940456 
                               0.950343589761788 15.518321604125  0.306079328235403 -72.6627644442953 7.7797257081987E-06 -55.6263113651854 1.48465636309601E-05 113.184551191214 
                               1.45619324950224E-05 108.284052244319 7.77972570819565E-06 -55.6263113651466 0.308557611887473 -75.7295066147756 0.948190156835582 13.387267130733  
                               9.07866595038861E-06 -42.0586908940192 1.4846563630954E-05 113.184551191192 0.948190156835582 13.3872671307328 0.308148344468778 -76.9860823886541 
0.1                            0.163663604208504 -88.0198180335   0.984309874516376 4.84690152396808 3.16894496815433E-05 91.6061501622595 1.82781328383076E-05 -68.5529429673078 
                               0.984309874516376 4.84690152396807 0.163871033811578 -81.6752488811386 1.69435243528691E-05 -78.0571078703174 3.2195717377394E-05 100.090079052787 
                               3.16894496815432E-05 91.6061501622599 1.69435243528681E-05 -78.0571078703117 0.169725837673632 -87.8072278420721 0.981045580031755 0.667772058773466 
                               1.82781328383103E-05 -68.5529429673073 3.21957173773917E-05 100.090079052787 0.981045580031752 0.667772058773375 0.169263919022096 -90.1150523586034 
0.15                           0.11562517407939 -94.4288423402038 0.990630541895302 -0.198909529291395 4.79757386109991E-05 82.3157129206759 2.7301666736196E-05 -78.7639339239515 
                               0.990630541895302 -0.198909529291391 0.115811068877327 -85.2930002494597 2.56458524130496E-05 -88.4521228682801 4.87624810181352E-05 94.9340677416371 
                               4.79757386109992E-05 82.3157129206762 2.56458524130497E-05 -88.452122868282 0.12479360338735 -94.5523343472812 0.986440298238614 -6.41297373450585 
                               2.73016667361958E-05 -78.7639339239486 4.87624810181357E-05 94.9340677416365 0.986440298238612 -6.41297373450584 0.124300457207425 -97.6273445756822 
0.2                            0.0929381042526665 -99.2640207833968 0.992576946141401 -3.76259254154463 6.39076699207413E-05 75.1807146177104 3.63692030737881E-05 -84.6736341322817 
                               0.992576946141401 -3.76259254154462 0.0930825899361632 -87.6812483816296 3.41633617030856E-05 -95.4789323489358 6.51020267437627E-05 91.915488236673  
                               6.39076699207414E-05 75.1807146177106 3.41633617030858E-05 -95.4789323489387 0.105013891925199 -100.08906264216 0.987520875014231 -12.003625357827 
                               3.63692030737874E-05 -84.6736341322778 6.51020267437637E-05 91.9154882366716 0.98752087501423 -12.003625357827 0.104547345838853 -103.642407731255 
0.25                           0.0805559339001224 -103.384332373024 0.993234842630054 -6.72425408006113 7.96166239026383E-05 68.912688424835  4.55322233499433E-05 -88.9054925984835 
                               0.993234842630054 -6.72425408006113 0.0806494447387949 -89.7120681075549 4.26131055221567E-05 -101.109614308452 8.13105967285438E-05 89.7382915931839 
                               7.96166239026385E-05 68.9126884248351 4.26131055221565E-05 -101.109614308455 0.0953560611014636 -105.227779080712 0.987327361271649 -16.9855860238859 
                               4.55322233499428E-05 -88.9054925984797 8.13105967285446E-05 89.7382915931824 0.987327361271648 -16.9855860238859 0.0949647945437251 -109.024301530543 
0.3                            0.0733424598986968 -107.081151228514 0.993377659090595 -9.38208768576858 9.51260044249906E-05 63.0702951402374 5.48122669164257E-05 -92.3316693880926 
                               0.993377659090595 -9.38208768576858 0.0733803894717356 -91.6562249250648 5.10463539623902E-05 -106.041066147796 9.7404981946398E-05 87.9772811183457 
                               9.51260044249909E-05 63.0702951402374 5.10463539623897E-05 -106.041066147798 0.0906879780675724 -110.189404508249 0.986625334466733 -21.6575483720115 
                               5.48122669164254E-05 -92.3316693880895 9.74049819463985E-05 87.9772811183444 0.986625334466732 -21.6575483720115 0.0904017345777236 -114.059277878878 
0.35                           0.0690746867269985 -110.488195121215 0.993273767678248 -11.864881699001 0.000110429063589302 57.468158196148  6.4224423826553E-05 -95.3231999873394 
                               0.993273767678248 -11.864881699001 0.0690553657743349 -93.6049316809538 5.94866996083389E-05 -110.578118158841 0.000113384858888566 86.4529764114761 
                               0.000110429063589302 57.468158196148  5.94866996083383E-05 -110.578118158842 0.0887845953696117 -115.040603207849 0.985685202777527 -26.1488916716187 
                               6.42244238265529E-05 -95.323199987337 0.000113384858888567 86.4529764114751 0.985685202777527 -26.1488916716187 0.0886175581096636 -118.868141914069 
0.4                            0.0666352703343992 -113.682459734571 0.99303676140057 -14.2374033946877 0.000125511843705684 52.0162380448417 7.37805783800421E-05 -98.0656413113176 
                               0.99303676140057 -14.2374033946877 0.0665597184012621 -95.5834219940391 6.79462544942151E-05 -114.872655508664 0.000129244744018315 85.0758514540591 
                               0.000125511843705684 52.0162380448418 6.79462544942144E-05 -114.872655508665 0.0885215221255361 -119.803482562288 0.984623006131025 -30.5249739870257 
                               7.3780578380042E-05 -98.0656413113158 0.000129244744018315 85.0758514540585 0.984623006131025 -30.5249739870257 0.0884788436142303 -123.51199549497 
0.45                           0.065401151966358 -116.7154277152  0.992721241066486 -16.5358238919085 0.000140360170356359 46.6656454335895 8.34893178774449E-05 -100.662925827838 
                               0.992721241066487 -16.5358238919085 0.0652730235768046 -97.5916434798401 7.64324771969414E-05 -119.007828788501 0.000144976427182288 83.795695861693  
                               0.000140360170356359 46.6656454335896 7.64324771969407E-05 -119.007828788501 0.0892650938505031 -124.487249635709 0.983494931429163 -34.8224446389141 
                               8.34893178774448E-05 -100.662925827837 0.000144976427182288 83.7956958616926 0.983494931429164 -34.8224446389141 0.0893475838217082 -128.028260472108 
0.5                            0.0649972517524537 -119.624371656082 0.992355761091033 -18.7819454461592 0.00015496162636712 41.3873013232007 9.33552971506604E-05 -103.178224172621 
                               0.992355761091033 -18.7819454461592 0.064822527776398 -99.6208811112698 8.49510320943247E-05 -123.032695673863 0.0001605692763576 82.5818821140169 
                               0.00015496162636712 41.3873013232008 8.49510320943242E-05 -123.032695673863 0.0906278054365895 -129.097304634167 0.982330972657383 -39.0634541457618 
                               9.33552971506603E-05 -103.17822417262 0.0001605692763576 82.5818821140167 0.982330972657384 -39.0634541457619 0.0908340241351701 -132.446291915344 
0.55                           0.065184112400798 -122.437259070433 0.99195621094986 -20.9896907581707 0.000169305715598975 36.1624857704431 0.000103378592592823 -105.652203344255 
                               0.99195621094986 -20.9896907581707 0.0649705762475988 -101.660710552447 9.35069795920415E-05 -126.97808509427 0.000176010144327821 81.414599352063  
                               0.000169305715598975 36.1624857704432 9.35069795920412E-05 -126.978085094271 0.0923575415369499 -133.637718785742 0.981148973062896 -43.2621782826879 
                               0.000103378592592823 -105.652203344254 0.000176010144327821 81.4145993520629 0.981148973062897 -43.2621782826879 0.0926878851517879 -136.795192547896 
0.6                            0.0658016160662812 -125.175399836182 0.991531943854559 -23.1683622916274 0.000183383260433032 30.9782598099326 0.000113554191470367 -108.111985348187 
                               0.991531943854559 -23.1683622916274 0.0655582508426232 -103.701713610188 0.000102105247942273 -130.864486811737 0.000191283333480926 80.2805404237552 
                               0.000183383260433032 30.9782598099327 0.000102105247942273 -130.864486811738 0.0942824640469004 -138.111935845149 0.979960980217622 -47.42812483747  
                               0.000113554191470367 -108.111985348187 0.000191283333480926 80.2805404237552 0.979960980217622 -47.4281248374701 0.0947514953335972 -141.103091024472 
0.65                           0.066738636037611 -127.855172491244 0.991088826117372 -25.3244076686434 0.000197185426447345 25.825095903303  0.000123871702594794 -110.575867739936 
                               0.991088826117372 -25.3244076686434 0.0664750488697244 -105.736314871886 0.000110750779775569 -134.706246836272 0.000206370720032644 79.1705914690494 
                               0.000197185426447345 25.825095903303  0.000110750779775569 -134.706246836272 0.0962813401152564 -142.523071986267 0.978776176825316 -51.5679405797201 
                               0.000123871702594793 -110.575867739935 0.000206370720032645 79.1705914690494 0.978776176825315 -51.5679405797201 0.0969290094092832 -145.387143412707 
0.7                            0.0679156634398888 -130.489278234922 0.990630837893826 -27.4624354310148 0.000210702556894051 20.695596605825  0.000134315373487072 -113.055961262005 
                               0.990630837893826 -27.4624354310148 0.0676415969995052 -107.758824209435 0.000119448518392404 -138.513926116425 0.000221252031523066 78.0784988456042 
                               0.000210702556894051 20.695596605825  0.000119448518392405 -138.513926116425 0.0982663825583757 -146.874125761542 0.977602169477724 -55.6864572536257 
                               0.000134315373487072 -113.055961262004 0.000221252031523067 78.0784988456042 0.977602169477723 -55.6864572536257 0.0991473347334279 -149.65021865839 
0.75                           0.0692743515172124 -133.087689617498 0.990160940002394 -29.5858288985388 0.000223922926591787 15.5837890754924 0.000144864501024072 -115.559752262243 
                               0.990160940002394 -29.5858288985388 0.0689993096016673 -109.765185430784 0.000128203304185441 -142.295689715418 0.000235905242663485 77.0000473175759 
                               0.000223922926591787 15.5837890754924 0.000128203304185442 -142.295689715418 0.100172637911236 -151.168119913217 0.976445461358391 -59.7873245585615 
                               0.000144864501024073 -115.559752262242 0.000235905242663485 77.000047317576  0.976445461358389 -59.7873245585615 0.101332327858463 -153.891825971735 
0.8                            0.0707709475360278 -135.658372538674 0.989681549205037 -31.6971324797349 0.000236831498912072 10.484743873663  0.000155494311769989 -118.091101425194 
                               0.989681549205037 -31.6971324797349 0.0705039427485715 -111.752653622505 0.000137019711221806 -146.058156956604 0.000250307051844122 75.9325224955425 
                               0.000236831498912072 10.484743873663  0.000137019711221808 -146.058156956604 0.101951018425155 -155.408144482532 0.975311515997819 -63.873406474598 
                               0.000155494311769989 -118.091101425194 0.000250307051844122 75.9325224955425 0.975311515997817 -63.8734064745979 0.103411418367778 -158.115310723064 
0.85                           0.0723720088619006 -138.207831414761 0.989194797102464 -33.7983031667333 0.000249408761302014 5.39438659965389 0.00016617735868449 -120.650958252719 
                               0.989194797102464 -33.7983031667333 0.0721214313194714 -113.719492073025 0.00014590183631631 -149.806937712676 0.000264433405239289 74.8743401357771 
                               0.000249408761302014 5.39438659965386 0.000145901836316311 -149.806937712676 0.103563515674372 -159.597282338318 0.974204619918571 -67.947035790501 
                               0.000166177358684491 -120.650958252719 0.000264433405239289 74.8743401357771 0.974204619918569 -67.9470357905009 0.105319909490268 -162.325845636523 
0.9                            0.0740515133171207 -140.741515635047 0.988702666552322 -35.890879042861 0.000261629713904094 0.30942941438639 0.000176885431000191 -123.237953075839 
                               0.988702666552322 -35.890879042861 0.0738251155814911 -115.664719039466 0.000154853044984238 -153.546978039501 0.000278260040957841 73.8247782809825 
                               0.000261629713904094 0.309429414386373 0.000154853044984239 -153.546978039501 0.104979845697281 -163.738420850883 0.973127652470284 -72.0101803914302 
                               0.000176885431000192 -123.237953075839 0.000278260040957841 73.8247782809825 0.973127652470282 -72.0101803914301 0.107001628162545 -166.526894794749 
0.95                           0.0757888494148704 -143.264118142433 0.988207057657315 -37.9760950144628 0.000273463087887023 -4.77262080281769 0.000187591906807508 -125.848962522012 
                               0.988207057657315 -37.9760950144628 0.0755938417371646 -117.587908312641 0.000163875675132532 -157.282785204812 0.000291763030262038 72.7837756628561 
                               0.000273463087887023 -4.77262080281767 0.000163875675132533 -157.282785204812 0.10617513512587 -167.833972641212 0.972081820048033 -76.0645527820253 
                               0.000187591906807508 -125.848962522012 0.000291763030262038 72.783775662856  0.972081820048033 -76.0645527820252 0.108407722748344 -170.718414208738 
1                              0.0775673784680521 -145.779790979428 0.987709812858159 -40.0549640216288 0.000284870872250628 -9.85340556161364 0.000198274401625055 -128.47970258302 
                               0.987709812858159 -40.0549640216288 0.077410628424543 -119.489037416342 0.000172970697993053 -161.018573245828 0.000304919296433012 71.7517746224556 
                               0.000284870872250628 -9.85340556161354 0.000172970697993053 -161.018573245828 0.107128435439587 -171.885541501536 0.971066385303273 -80.1116819778176 
                               0.000198274401625054 -128.47970258302 0.000304919296433012 71.7517746224555 0.971066385303274 -80.1116819778176 0.109496300267695 -174.896349139091 
1.05                           0.079368606392415 -148.285328398534 0.98719531687884 -42.1281043866872 0.000296261666652798 -14.9453712743983 0.000209225933599658 -131.183475283007 
                               0.98719531687884 -42.1281043866872 0.0792541728257312 -121.367382141392 0.000182197536549575 -164.875840396351 0.000317619382784412 70.7140668668695 
                               0.000296261666652798 -14.9453712743982 0.000182197536549575 -164.875840396351 0.107838039896953 -175.904410562481 0.9700833782525  -84.151043228683 
                               0.000209225933599658 -131.183475283007 0.000317619382784412 70.7140668668694 0.9700833782525  -84.1510432286829 0.110464001083847 -179.096306411201 
1.1                            0.0811852649231985 -150.788057200179 0.986686259694883 -44.1963724480714 0.000307139767362218 -20.0307834146644 0.000219931965004298 -133.90432695811 
                               0.986686259694883 -44.1963724480714 0.0811233982547395 -123.225836157663 0.000191474129442562 -168.648305020283 0.000329966949012886 69.6866166725285 
                               0.000307139767362217 -20.0307834146644 0.000191474129442562 -168.648305020283 0.108273731058113 -179.860933042372 0.969139992861085 -88.1848282413042 
                               0.000219931965004298 -133.90432695811 0.000329966949012886 69.6866166725285 0.969139992861086 -88.1848282413042 0.111157694961903 176.69020499517  
1.15                           0.0830073159402033 -153.289504645114 0.986180045238073 -46.2603232049932 0.000317495497925254 -25.1062698296069 0.000230394241743435 -136.638826606383 
                               0.986180045238072 -46.2603232049933 0.0830067572680451 -125.06502198913 0.000200801932017676 -172.35037334064 0.000341942833038708 68.6674735804125 
                               0.000317495497925255 -25.1062698296068 0.000200801932017675 -172.35037334064 0.108436899688186 176.241005060208 0.96823529240255 -92.2138027696333 
                               0.000230394241743434 -136.638826606383 0.000341942833038709 68.6674735804126 0.968235292402551 -92.2138027696333 0.111571427741301 172.461011000683 
1.2                            0.08482642000691 -155.790880207961 0.985674972354737 -48.3204140676905 0.000327328683222016 -30.1690951730133 0.000240620010998704 -139.385937905371 
                               0.985674972354737 -48.3204140676905 0.0848945879918052 -126.885367042923 0.000210186182980071 -175.995597577692 0.000353525366224604 67.6547348616599 
                               0.000327328683222016 -30.1690951730133 0.000210186182980071 -175.995597577692 0.108328001485464 172.399028954236 0.967368105239947 -96.2386574976187 
                               0.000240620010998703 -139.385937905371 0.000353525366224604 67.65473486166   0.967368105239948 -96.2386574976187 0.11170145383243 168.213208075859 
1.25                           0.0866356266513898 -158.293158984087 0.985169974639766 -50.3770263606014 0.00033664908061657 -35.217316185413 0.000250622182440195 -142.146808945392 
                               0.985169974639765 -50.3770263606014 0.0867788014717812 -128.687163388816 0.000219636060878657 -179.5968726143  0.000364689594275246 66.6465127439142 
                               0.000336649080616572 -35.2173161854132 0.000219636060878657 -179.5968726143  0.107947203801541 168.612360145844 0.966536982517769 -100.260017862168 
                               0.000250622182440194 -142.146808945392 0.000364689594275246 66.6465127439143 0.966536982517769 -100.260017862168 0.111545956297546 163.943242575253 
1.3                            0.0884291341236873 -160.797143822298 0.984664440054545 -52.4304816324609 0.000345476568229198 -40.2499263547288 0.000260419879385887 -144.924778810318 
                               0.984664440054544 -52.4304816324609 0.0886526360819832 -130.470614978132 0.000229164861856102 176.833387323887 0.000375406300453187 65.6409132569666 
                               0.000345476568229198 -40.2499263547288 0.000229164861856102 176.833387323887 0.107295025693108 164.881878979904 0.965740181336657 -104.278451498842 
                               0.000260419879385885 -144.924778810317 0.000375406300453187 65.6409132569666 0.965740181336658 -104.278451498842 0.111104846263323 159.64695009762  
1.35                           0.0902021006687604 -163.303511531182 0.984158083498129 -54.4810541291926 0.00035384115071419 -45.266988731435 0.000270039459038632 -147.725630085694 
                               0.984158083498129 -54.4810541291926 0.0905104604029683 -132.235874975898 0.000238790215495885 173.283082591008 0.00038564076146793 64.6360278548487 
                               0.000353841150714191 -45.2669887314348 0.000238790215495885 173.283082591008 0.106372955456431 161.210167133719 0.9649756650067  -108.294473956334 
                               0.000270039459038631 -147.725630085693 0.00038564076146793 64.6360278548487 0.964975665006701 -108.294473956334 0.110379627060375 155.319561126431 
1.4                            0.0919504945217726 -165.812847127569 0.983650855172357 -56.5289804090273 0.000361782868061042 -50.26975806856  0.000279516111437268 -150.558170681364 
                               0.983650855172357 -56.5289804090273 0.0923476115038379 -133.983075132427 0.000248534358206052 169.740264437481 0.000395351136408804 63.6299419145733 
                               0.000361782868061043 -50.26975806856  0.000248534358206052 169.740264437481 0.105184025980045 157.601532754655 0.964241114740948 -112.308553132906 
                               0.000279516111437267 -150.558170681363 0.000395351136408805 63.6299419145733 0.964241114740949 -112.308553132906 0.109373312130658 150.955676216639 
1.45                           0.0936709733948143 -168.325669074503 0.983142873561813 -58.5744668112993 0.000369351714664233 -55.260795966611 0.000288896146573247 -153.435319183919 
                               0.983142873561813 -58.5744668112993 0.0941602593905674 -135.71234863325 0.00025842448723805 166.192965728523 0.000404486344421929 62.6207688142704 
                               0.000369351714664233 -55.260795966611 0.00025842448723805 166.192965728523 0.103733326510532 154.062021783472 0.963533949018695 -116.32111275745 
                               0.000288896146573247 -153.435319183918 0.000404486344421929 62.6207688142704 0.963533949018696 -116.32111275745 0.108090388404816 146.549211734476 
1.5                            0.0953607867181589 -170.842447699796 0.982634375616464 -60.6176952995697 0.000376607695914601 -60.2440852978373 0.000298239951592796 -156.37603710893 
                               0.982634375616464 -60.6176952995697 0.095945291061405 -137.423847542001 0.000268493223921646 162.629017379012 0.000412983219571998 61.6067261997191 
                               0.000376607695914602 -60.2440852978372 0.000268493223921646 162.629017379012 0.10202843041612 150.599420383156 0.962851348115025 -120.332535149077 
                               0.000298239951592795 -156.376037108929 0.000412983219571998 61.6067261997191 0.962851348115026 -120.332535149077 0.106536818926894 142.093315330247 
1.55                           0.0970176956721021 -173.363618424304 0.982125679138352 -62.6588280633901 0.00038362117153182 -65.2251529397707 0.00030762502353226 -159.408788453471 
                               0.982125679138352 -62.6588280633901 0.0977002094929608 -139.117755728918 0.000278779223105359 159.035840106532 0.000420762629342631 60.5862854239111 
                               0.000383621171531823 -65.2251529397706 0.000278779223105359 159.035840106531 0.10007972264909 147.223255056253 0.962190282150896 -124.343163428458 
                               0.000307625023532259 -159.40878845347 0.000420762629342631 60.5862854239111 0.962190282150897 -124.343163428458 0.104720080270339 137.58024873587  
1.6                            0.0986399073261889 -175.889591009096 0.981617153943925 -64.6980111650965 0.00039047366481995 -70.2112129858075 0.000317146378470033 -162.577909660311 
                               0.981617153943925 -64.6980111650965 0.0994230442048939 -140.794298020373 0.000289327978831072 155.400198080604 0.000427724088701563 59.5584523819841 
                               0.000390473664819951 -70.2112129858074 0.000289327978831071 155.400198080604 0.0979006178342071 143.944798629339 0.961547541593554 -128.353303312328 
                               0.000317146378470032 -162.577909660311 0.000427724088701562 59.558452381984  0.961547541593554 -128.353303312328 0.102649231952264 133.001234008669 
1.65                           0.100226020145507 -178.420755713162 0.981109199408309 -66.7353774473063 0.000397259364238579 -75.2113465384608 0.000326904250377216 -165.955771414847 
                               0.981109199408309 -66.7353774473062 0.101112270977109 -142.453746188802 0.000300192896727834 151.707896156185 0.000433738171592937 58.5232914955124 
                               0.000397259364238583 -75.2113465384607 0.000300192896727833 151.707896156185 0.0955076697341424 140.777091347924 0.960919769516124 -132.363224593469 
                               0.000326904250377211 -165.955771414849 0.000433738171592936 58.5232914955122 0.960919769516125 -132.363224593469 0.100335016777158 128.346257934173 
1.7                            0.101774978835947 179.042512991827 0.980602226685899 -68.7710488655088 0.00040408762250681 -80.2367396304566 0.000336942607477014 -169.666697806272 
                               0.980602226685899 -68.7710488655088 0.102766738930921 -144.096422313302 0.000311436736219944 147.943394653703 0.000438635698440309 57.4829137532774 
                               0.000404087622506814 -80.2367396304565 0.000311436736219943 147.943394653702 0.0929205842724423 137.734986273884 0.960303495167104 -136.3731623879  
                               0.000336942607476997 -169.666697806277 0.000438635698440307 57.4829137532772 0.960303495167105 -136.3731623879  0.0977899929686968 123.603827970811 
1.75                           0.103286037060052 176.49985470012  0.980096644359868 -70.8051383729347 0.000411086892312579 -85.301008907567 0.000347004678104791 -173.933368989581 
                               0.980096644359869 -70.8051383729347 0.104385603609716 -145.722699970327 0.000323133578733385 144.089303413285 0.000442192300218931 56.4433810443597 
                               0.000411086892312583 -85.3010089075669 0.000323133578733383 144.089303413285 0.0901621599807243 134.835226267885 0.959695168546551 -140.3833182161  
                               0.000347004678104746 -173.93336898959 0.000442192300218928 56.4433810443594 0.959695168546552 -140.3833182161  0.0950287012070656 118.7606719966   
1.8                            0.104758727024368 173.950923064221 0.979592846574291 -72.8377514581253 0.000418410766989235 -90.4206573471212 0.000355617323550953 -179.14886181305 
                               0.979592846574291 -72.8377514581253 0.105968264954549 -147.333003656606 0.000335371566766941 140.125697188551 0.000444106824740824 55.4184892427354 
                               0.000418410766989239 -90.4206573471213 0.000335371566766939 140.12569718855  0.0872581901629183 132.09655508822  0.959091195765443 -144.393860973865 
                               0.000355617323550841 -179.148861813061 0.000444106824740819 55.418489242735  0.959091195765444 -144.393860973865 0.0920678723910984 113.801373516387 
1.85                           0.106192835375081 171.395387386234 0.979091202890314 -74.8689874169376 0.000426247192762758 -95.6157227304387 0.000357075527060577 174.177409198291 
                               0.979091202890313 -74.8689874169376 0.107514309194276 -148.927806800247 0.000348256811359751 136.029162143396 0.000443973492391034 54.4375614543433 
                               0.000426247192762761 -95.6157227304384 0.000348256811359748 136.029162143396 0.0842373687398469 129.539856179216 0.958487974999113 -148.40492783968 
                               0.000357075527060333 174.177409198285 0.000443973492391027 54.4375614543429 0.958487974999114 -148.40492783968 0.0889266851666058 108.707934548573 
1.9                            0.107588385305498 168.832935881193 0.978592049206478 -76.8989404288055 0.000434832626744635 -100.910715615044 0.000337251714012982 166.703773622029 
                               0.978592049206478 -76.8989404288055 0.109023453666277 -150.507628679934 0.000361919137485504 131.771428685972 0.000441256061892036 53.5621329521355 
                               0.00043483262674464 -100.910715615044 0.000361919137485501 131.771428685972 0.0811312452720317 127.188297606342 0.957881932849974 -152.416625158141 
                               0.000337251714012662 166.703773622064 0.000441256061892025 53.5621329521351 0.957881932849976 -152.416625158141 0.0856270859989825 103.459261345875 
1.95                           0.108945625366286 166.263280939051 0.978095679100968 -78.9277005016229 0.000444474212649296 -106.336001860244 0.00029617281477469 163.523196877709 
                               0.978095679100968 -78.9277005016229 0.110495493437105 -152.07303054553 0.000376520840727926 127.317350851176 0.000435308321993817 52.9227867727651 
                               0.0004444742126493 -106.336001860243 0.000376520840727922 127.317350851176 0.077974272707841 125.067437588495 0.957269560920121 -156.429029332638 
                               0.00029617281477467 163.523196877781 0.000435308321993803 52.922786772765  0.957269560920122 -156.429029332638 0.0821941886272948 98.0305756167947 
2                              0.110265026325203 163.68616710859  0.977602334882858 -80.9553543515975 0.000455585524949734 -111.929888039193 0.000275600077348349 166.449359181306 
                               0.977602334882858 -80.9553543515975 0.111930248253109 -153.624611214219 0.000392270603877065 122.621820704688 0.000425628263680598 52.799794173632  
                               0.000455585524949739 -111.929888039193 0.000392270603877062 122.621820704688 0.0748039823346896 123.205208650313 0.956647452368808 -160.442187754538 
                               0.000275600077348522 166.449359181338 0.000425628263680582 52.7997941736325 0.956647452368809 -160.442187754538 0.0786567735308444 92.3927698593103 
2.05                           0.111547288818836 161.101383217443 0.977112197452472 -82.9819862968192 0.000468746405203058 -117.741858366761 0.000280754131765782 168.48845200752  
                               0.977112197452472 -82.9819862968192 0.113327507715754 -155.163002397936 0.000409446707491678 117.624882604809 0.000413050072505837 53.7715243025346 
                               0.000468746405203059 -117.741858366761 0.000409446707491676 117.624882604808 0.0716613017839925 121.631645853916 0.956012338199236 -164.456119790362 
                               0.000280754131765885 168.488452007523 0.000413050072505823 53.7715243025358 0.956012338199237 -164.456119790361 0.0750479101859248 86.5117562919099 
2.1                            0.112793367012831 158.508781348141 0.976625373708519 -85.0076792727764 0.00048480799682662 -123.837779560884 0.000292580112510332 167.832341435484 
                               0.976625373708519 -85.0076792727764 0.114686971445549 -156.688863980601 0.000428437952468268 112.243672193591 0.000403836685861392 56.7386552252236 
                               0.000484807996826621 -123.837779560884 0.000428437952468267 112.243672193591 0.0685909999504265 120.378154113946 0.955361122987448 -168.470817842605 
                               0.000292580112510357 167.832341435483 0.000403836685861388 56.7386552252248 0.955361122987449 -168.470817842605 0.0714057224956261 80.3479150361447 
2.15                           0.11400451817283 155.908308036474 0.976141879587994 -87.032516138948 0.000505088255602971 -130.308644029602 0.000303795635474752 165.544613343522 
                               0.976141879587994 -87.032516138948 0.116008178994976 -158.202879355714 0.000449820610000244 106.358466662861 0.000416158271890767 61.4876707313385 
                               0.000505088255602967 -130.308644029602 0.000449820610000246 106.358466662861 0.0656421920268966 119.476026698972 0.954690919736364 -172.486248493806 
                               0.000303795635474733 165.544613343524 0.000416158271890765 61.4876707313365 0.954690919736366 -172.486248493806 0.0677743052340921 73.8558437987446 
2.2                            0.115182397479022 153.300058811689 0.975661615671778 -89.0565815689672 0.000531763401169276 -137.286087183585 0.000313268127019711 162.329668194661 
                               0.975661615671778 -89.0565815689672 0.117290420674417 -159.705750621588 0.000474514523674491 99.7871434079397 0.000463013846553043 63.7529287685109 
                               0.000531763401169268 -137.286087183585 0.000474514523674499 99.7871434079401 0.0628687630433609 118.953854637038 0.95399908351116 -176.50235373699 
                               0.000313268127019673 162.329668194666 0.000463013846552995 63.7529287685074 0.953999083511162 -176.50235373699 0.0642047666080146 66.9847667869726 
2.25                           0.11632923761763 150.684380727312 0.975184330243682 -91.0799650731518 0.000568727757209647 -144.97197278965 0.00032126144605629 158.46797391834  
                               0.975184330243681 -91.0799650731518 0.118532613864621 -161.198192565572 0.000504130174609878 92.2351184708758 0.0005127392723941 60.7028017481207 
                               0.000568727757209628 -144.97197278965 0.000504130174609896 92.2351184708768 0.0603294682827608 118.833461147036 0.95328324348838 179.480947711362 
                               0.000321261446056238 158.467973918348 0.000512739272394013 60.7028017481227 0.953283243488382 179.480947711362 0.0607563028192254 59.6801878755406 
2.3                            0.117448198975689 148.06208246756  0.974709561062572 -93.1027662605797 0.000623727402256202 -153.700668058649 0.000328270919065233 154.02899427752  
                               0.974709561062572 -93.1027662605797 0.119733117028029 -162.680922036068 0.000541833767131234 83.1885976746122 0.000534625517362462 55.4119041264744 
                               0.00062372740225616 -153.700668058649 0.000541833767131272 83.1885976746144 0.0580873572810048 119.124160276729 0.952541333028402 175.463759027402 
                               0.000328270919065173 154.02899427753  0.000534625517362391 55.4119041264817 0.952541333028403 175.463759027402 0.0574970826341383 51.8876524345561 
2.35                           0.118544090340703 145.434912955593 0.974236540853941 -95.1251047438812 0.000714632653649948 -164.091246877775 0.00033485544131043 148.971579015073 
                               0.97423654085394 -95.1251047438812 0.120889429940666 -164.154633019295 0.000594847951347461 71.6610262183424 0.000532426152946966 50.2398816884339 
                               0.000714632653649865 -164.091246877777 0.000594847951347541 71.6610262183473 0.0562080886402778 119.815613817432 0.951771617354816 171.446203845283 
                               0.000334855441310365 148.971579015084 0.000532426152946926 50.2398816884431 0.951771617354818 171.446203845283 0.0545045138578342 43.5597009760315 
2.4                            0.119624960372323 142.806810964807 0.973764042195017 -97.1471403405382 0.000893264882462536 -177.527342496416 0.000341715462069807 143.179713745219 
                               0.973764042195016 -97.1471403405382 0.12199768273279 -165.619930476032 0.000683282499452402 55.4954426862583 0.000515678644469561 45.505936058037  
                               0.00089326488246234 -177.527342496419 0.000683282499452578 55.4954426862692 0.0547567418513088 120.870432689237 0.950972718387337 167.428424801891 
                               0.000341715462069739 143.179713745231 0.000515678644469546 45.5059360580467 0.950972718387338 167.428424801891 0.0518641907905775 34.6669545792822 
2.45                           0.120705842571536 140.187837639244 0.973290133175521 -99.1691181681547 0.00138677146126446 161.330445235586 0.000349887121002505 136.471376829819 
                               0.97329013317552 -99.1691181681547 0.123051729017496 -167.077146875098 0.000881052592283418 28.9354906552178 0.000488292370135277 40.8850616916111 
                               0.00138677146126374 161.330445235578 0.000881052592283918 28.9354906552443 0.0537930007795071 122.218777220733 0.950143636213936 163.410582102327 
                               0.000349887121002434 136.47137682983  0.00048829237013528 40.8850616916204 0.950143636213937 163.410582102327 0.0496665849406481 25.2132214852058 
2.5                            0.121816485231968 137.610446308565 0.972811888498621 -101.191480622603 0.00380253179407871 83.6046895315589 0.000361096486470189 128.600076614688 
                               0.97281188849862 -101.191480622603 0.12404151255233 -168.525819501578 0.00151004350366006 -30.6713288862042 0.000449883089777904 35.9142271681438 
                               0.00380253179407195 83.6046895316241 0.00151004350366264 -30.6713288861492 0.0533651356168177 123.757936974133 0.949283766582546 159.39285216065  
                               0.000361096486470115 128.600076614699 0.00044988308977792 35.9142271681527 0.949283766582548 159.39285216065  0.0480006058265145 15.2520045008457 
2.55                           0.122954693546762 135.230127366266 0.972325802290078 -103.215181937422 0.00109000394200331 -24.0195351244595 0.000378424198951981 119.267264434417 
                               0.972325802290077 -103.215181937422 0.124950280405904 -169.963157867847 0.00129416699363809 -147.112705697997 0.00039719857611245 29.9476217917257 
                               0.00109000394200339 -24.0195351244165 0.00129416699364009 -147.112705698026 0.0535039093638655 125.35926242812  0.94839291361019 155.375426385399 
                               0.000378424198951907 119.267264434427 0.00039719857611247 29.9476217917339 0.948392913610191 155.375426385399 0.0469439189991914 4.89815037902007 
2.6                            0.121687369384066 133.166206395283 0.971835572105291 -105.242671563576 0.000520746395536624 -64.5541457256346 0.000407595660262262 108.173642091065 
                               0.97183557210529 -105.242671563576 0.125751285436848 -171.379474380206 0.000825943476745961 155.137422441454 0.000324241182824504 21.7038865925722 
                               0.000520746395536592 -64.554145725617 0.00082594347674635 155.137422441446 0.0542179978981467 126.882375353663 0.947471296597846 151.35851019616  
                               0.000407595660262196 108.173642091071 0.000324241182824523 21.7038865925799 0.947471296597847 151.35851019616  0.0465515438807689 -5.67393627911951 
2.65                           0.122582524744489 129.284451637631 0.971426508492576 -107.280198876847 0.0003973943857847 -98.1624377629277 0.000459573119949575 95.140950599081  
                               0.971426508492576 -107.280198876847 0.126414179464744 -172.74547065875 0.000740989659592404 125.262630717758 0.000222553503318061 7.01238685598138 
                               0.000397394385784675 -98.1624377629235 0.00074098965959249 125.262630717757 0.0554923146935008 128.193243535697 0.946519549326807 147.342322374665 
                               0.000459573119949533 95.1409505990836 0.000222553503318079 7.01238685598811 0.946519549326808 147.342322374665 0.046846113421929 -16.2510561231094 
2.7                            0.124069224027715 126.486606708281 0.971573233416052 -109.317948413524 0.000381537803113826 -123.665421094344 0.000556202807149077 80.273571801023  
                               0.971573233416051 -109.317948413524 0.126978657583419 -173.991752778554 0.000742309198195578 106.028115558717 0.000105494794283039 -44.6342865636645 
                               0.00038153780311383 -123.665421094346 0.000742309198195558 106.028115558717 0.0572897164072609 129.180669074797 0.945538709385193 143.327094868359 
                               0.000556202807149101 80.2735718010222 0.000105494794283042 -44.6342865636661 0.945538709385194 143.327094868359 0.0478136903968288 -26.616981305656 
2.75                           0.125144978392666 123.767203476148 0.971577532205629 -111.303391463031 0.000398875384696486 -142.619196583436 0.000745105680084914 63.9238228778326 
                               0.971577532205628 -111.303391463031 0.127766346223435 -175.073244675643 0.000770446687331697 91.5049993270662 0.000236839917312362 -140.884984162805 
                               0.000398875384696509 -142.61919658344 0.000770446687331629 91.504999327066  0.0595554249532219 129.766586229176 0.944530193775714 139.313073168361 
                               0.000745105680085102 63.9238228778296 0.000236839917312421 -140.884984162807 0.944530193775714 139.313073168361 0.049407074062109 -36.589512470374 
2.8                            0.12607575906312 121.0428557353   0.971002845455439 -113.302806258393 0.00042918334040114 -157.653411116842 0.00115260523990063 45.9160367738702 
                               0.97100284545544 -113.302806258393 0.129073013849412 -176.198773524632 0.00081012142830066 79.2199045856699 0.000601407446856001 -172.594587308456 
                               0.000429183340401178 -157.653411116844 0.000810121428300564 79.2199045856697 0.0622228029259571 129.908616039737 0.943495755088429 135.300517361438 
                               0.00115260523990131 45.9160367738668 0.000601407446856162 -172.59458730846 0.943495755088429 135.300517361438 0.0515551230966861 -46.044207118658 
2.85                           0.126934504109974 118.306913009491 0.970453025430244 -115.31557872357 0.000467349500471178 -170.5044811064  0.00225632923948657 22.0849260117809 
                               0.970453025430245 -115.315578723571 0.130441232192513 -177.530434162809 0.000855913349279783 68.014999827275  0.00107838905907448 160.043585494966 
                               0.000467349500471224 -170.504481106402 0.00085591334927967 68.0149998272747 0.0652191464325117 129.596367895738 0.942437409678982 131.28970387574  
                               0.00225632923948938 22.0849260117703 0.00107838905907472 160.043585494958 0.942437409678981 131.28970387574  0.0541743120849789 -54.9190037680835 
2.9                            0.127747828916475 115.559280304211 0.969959884467582 -117.33198073347 0.000512911789681432 177.842897299132 0.00574611303442739 -42.3501315520868 
                               0.969959884467583 -117.33198073347 0.131557291315232 -178.946326142627 0.000904978546938579 57.291970097992  0.00145798833353787 132.167007409731 
                               0.000512911789681488 177.84289729913  0.000904978546938457 57.2919700979919 0.0684706764602724 128.844386586963 0.941357325488804 127.280927745423 
                               0.00574611303443718 -42.3501315522278 0.00145798833353804 132.167007409722 0.941357325488803 127.280927745422 0.0571789141694645 -63.204128737317 
2.95                           0.128528026078104 112.800589462861 0.969500855360324 -119.349490449862 0.000567164225359665 166.818815338924 0.00336404501528504 -121.238544190763 
                               0.969500855360325 -119.349490449862 0.132472542296332 179.643179970086 0.000955039814591308 46.7242343391634 0.00159029544555105 109.315101702228 
                               0.000567164225359723 166.818815338922 0.000955039814591184 46.7242343391636 0.0719064889541464 127.684380339691 0.940257652755935 123.274504812451 
                               0.00336404501528258 -121.238544190837 0.0015902954455511 109.315101702219 0.940257652755934 123.274504812451 0.0604879828129045 -70.925834423423 
3                              0.12928185356336 110.031485430727 0.969062428462426 -121.367423112737 0.000632366846573264 156.065521370297 0.00203528965952227 -143.678189647408 
                               0.969062428462427 -121.367423112737 0.133267528671794 178.259371579732 0.00100375798951218 36.139170012317  0.00157740719876437 93.3342867671698 
                               0.000632366846573328 156.065521370295 0.00100375798951206 36.1391700123175 0.0754615884076828 126.158321634836 0.939140277499568 119.27077251771  
                               0.00203528965952134 -143.678189647439 0.00157740719876436 93.3342867671643 0.939140277499566 119.27077251771  0.0640290574066275 -78.1307865897597 
3.05                           0.130013541541361 107.2525511132   0.968637361172858 -123.385577488947 0.000711589197439075 145.328617208754 0.00155333568838854 -155.409020762128 
                               0.968637361172859 -123.385577488947 0.133986728994059 176.903060564839 0.0010486354005982 25.4664761291105 0.00152742059666003 82.3283206220143 
                               0.000711589197439141 145.328617208753 0.0010486354005981 25.4664761291113 0.0790792349153404 124.313003673467 0.938006479633415 115.270086633248 
                               0.00155333568838812 -155.409020762145 0.00152742059666001 82.3283206220108 0.938006479633416 115.270086633248 0.0677394199234623 -84.8742607043065 
3.1                            0.13072598674052 104.464320889573 0.968221506955293 -125.403905705924 0.000808752937143551 134.395235670564 0.00132315489000489 -163.703492386163 
                               0.968221506955294 -125.403905705924 0.134652492256313 175.571674790869 0.00108723525386088 14.7117501866662 0.00147935680907447 74.3481167457538 
                               0.000808752937143611 134.395235670563 0.00108723525386079 14.7117501866671 0.0827127653758441 122.196005164113 0.936856494147227 111.272809374213 
                               0.00132315489000468 -163.703492386173 0.00147935680907445 74.3481167457517 0.936856494147226 111.272809374213 0.0715658758316816 -91.2125527536728 
3.15                           0.131421267625796 101.667298672302 0.967812263636508 -127.422418701403 0.000928676940907396 123.054719699653 0.00119789454771645 -170.317998718339 
                               0.967812263636509 -127.422418701403 0.135276926961949 174.262906874549 0.00111760035996642 3.93674460899634 0.00144201037090987 68.1674905042782 
                               0.000928676940907451 123.054719699652 0.00111760035996636 3.93674460899718 0.0863269104568717 119.852756165995 0.935689020985353 107.279282178254 
                               0.00119789454771635 -170.317998718344 0.00144201037090985 68.1674905042771 0.935689020985355 107.279282178253 0.0754638185456054 -97.1987543508529 
3.2                            0.132100860561892 98.8619681896386 0.967407826358816 -129.441156130391 0.00107689158440485 111.071712962005 0.0011269611270751 -175.941436233185 
                               0.967407826358817 -129.441156130391 0.135867538935138 172.975164110232 0.00113870876258469 -6.7618234321773 0.00141575321791281 63.0647347020393 
                               0.00107689158440488 111.071712962004 0.00113870876258466 -6.76182343217674 0.0898984936601333 117.324375072989 0.934500825919709 103.289775608581 
                               0.00112696112707507 -175.941436233187 0.00141575321791281 63.0647347020388 0.93450082591971 103.289775608581 0.0793960577596377 -102.880795112396 
3.25                           0.132765694812005 96.0487950714898 0.96700679786853 -131.460177608577 0.00125875737869021 98.1720418094452 0.00108904756027149 179.06689119262  
                               0.96700679786853 -131.460177608577 0.136429696719685 171.707428713597 0.00115077091413774 -17.2760050759248 0.00139923301424363 58.5967854112972 
                               0.00125875737869021 98.1720418094452 0.00115077091413774 -17.2760050759248 0.0934163064368985 114.64603889058  0.933286721528905 99.3044129188628 
                               0.00108904756027149 179.06689119262  0.00139923301424362 58.5967854112971 0.933286721528905 99.3044129188627 0.0833316730333456 -108.300841384196 
3.3                            0.133416088282885 93.2282219158883 0.966607952498224 -133.479563102195 0.00147702010084926 84.0546836397212 0.00107426057544787 174.478908974587 
                               0.966607952498224 -133.479563102195 0.136967692567825 170.459089154871 0.00115524237171525 -27.5093054619337 0.00139113030803928 54.4668966494998 
                               0.00147702010084921 84.0546836397216 0.00115524237171528 -27.5093054619344 0.0968799227473223 111.845780545344 0.932040346962053 95.3230779161047 
                               0.0010742605754479 174.478908974588 0.00139113030803928 54.4668966495001 0.932040346962052 95.3230779161048 0.0872450163922561 -113.495418762174 
3.35                           0.134051550945343 90.4006580106121 0.966210049679652 -135.499419395854 0.00172680776873428 68.4611567844863 0.00107812639606935 170.12339547938  
                               0.966210049679652 -135.499419395854 0.137485176051223 169.229849549594 0.00115458010147372 -37.3936281113075 0.0013905602433345 50.4505804888964 
                               0.00172680776873415 68.4611567844875 0.00115458010147378 -37.3936281113091 0.100297262384309 108.943739550901 0.930756089689525 91.3453432556802 
                               0.00107812639606941 170.123395479383 0.00139056024333451 50.4505804888968 0.93075608968952 91.3453432556804 0.0911149146394031 -118.495859164202 
3.4                            0.13467038442571 87.5664680939871 0.965811619967143 -137.519893354243 0.00198908250874544 51.3396603928107 0.00109934972178554 165.847835812958 
                               0.965811619967143 -137.519893354243 0.137985301718941 168.019739170445 0.00115190370495568 -46.8981922146469 0.00139713858331941 46.3498106775862 
                               0.00198908250874518 51.3396603928133 0.00115190370495576 -46.8981922146494 0.10368085440127 105.952001315931 0.929431974081376 87.3704788323964 
                               0.00109934972178562 165.847835812961 0.00139713858331943 46.3498106775867 0.92943197408137 87.3704788323967 0.0949240912139181 -123.328828956819 
3.45                           0.135268901907045 84.7259755445943 0.965410621683777 -139.541195724114 0.00223015644220106 33.0716048204565 0.00113908239848878 161.489687004891 
                               0.965410621683777 -139.541195724114 0.138470766231259 166.82924683481  0.001150756018209 -56.0319085901165 0.00141099262805586 41.9576574761004 
                               0.00223015644220067 33.0716048204612 0.00115075601820909 -56.03190859012  0.107043009954588 102.875216413772 0.928072435966889 83.3975891229248 
                               0.00113908239848888 161.489687004895 0.00141099262805587 41.957657476101  0.928072435966878 83.397589122925  0.0986588199639092 -128.016775780999 
3.5                            0.135839855428931 81.879536115892  0.965003759112695 -141.563643696574 0.00241910625228674 14.5508983287097 0.00120104002999084 156.843311223746 
                               0.965003759112696 -141.563643696574 0.138943885201992 165.659640718676 0.00115511470312604 -64.8436586245814 0.00143278757778133 37.020867382376  
                               0.00241910625228624 14.5508983287175 0.00115511470312615 -64.8436586245858 0.110390482229619 99.7121550433483 0.926689328409542 79.4258603181161 
                               0.00120104002999096 156.84331122375  0.00143278757778135 37.0208673823765 0.926689328409529 79.4258603181162 0.102308816589952 -132.578138965177 
3.55                           0.13636905473965 79.0278954697419 0.964584929489364 -143.58773848415 0.00255701341613493 -3.09959749166555 0.00129237540706881 151.607445165272 
                               0.964584929489364 -143.58773848415 0.139406985631589 164.513608190528 0.00116977799915018 -73.4269250761769 0.00146375206348057 31.1869420043077 
                               0.00255701341613434 -3.09959749165553 0.0011697779991503 -73.4269250761822 0.113719595984474 96.4581906714685 0.925300200433113 75.454810835752  
                               0.00129237540706896 151.607445165276 0.00146375206348059 31.1869420043084 0.925300200433097 75.454810835752  0.10586730285975 -137.027073266831 
3.6                            0.136827531770456 76.173715418191  0.964141244251238 -145.614305837766 0.00269096659454627 -18.9090943811365 0.00142546166422602 145.284676092704 
                               0.964141244251238 -145.614305837766 0.139863882216846 163.396491849691 0.00120132917300236 -81.9387351205268 0.00150554184798836 23.9141010660971 
                               0.00269096659454559 -18.9090943811251 0.00120132917300248 -81.9387351205328 0.117013098133487 93.108430525824  0.923924676624428 71.4844203402472 
                               0.00142546166422619 145.284676092707 0.00150554184798838 23.9141010660977 0.923924676624415 71.4844203402469 0.109330768409647 -141.372145068386 
3.65                           0.1371525139094  73.3284666804345 0.963641496670196 -147.644710523385 0.00291499012076563 -31.8475897361546 0.00162025429314518 136.969244577557 
                               0.963641496670196 -147.644710523385 0.140324893023461 162.31860365531  0.001260198164892 -90.6543011471848 0.00155925120008626 14.3032768049225 
                               0.00291499012076473 -31.8475897361441 0.00126019816489211 -90.6543011471912 0.120239879875393 89.6609077668267 0.922581061803738 67.5150939286879 
                               0.00162025429314538 136.96924457756  0.00155925120008628 14.3032768049231 0.922581061803727 67.5150939286876 0.112695963922682 -145.612828067258 
3.7                            0.137211404753817 70.5476811439888 0.962998469004276 -149.680744755916 0.00338937195615443 -39.0181111342436 0.00190136968969824 124.89898709126  
                               0.962998469004276 -149.680744755916 0.140823617936597 161.298818693157 0.00136516138784381 -100.117419817712 0.00162081459071284 0.783663120300344 
                               0.00338937195615313 -39.0181111342387 0.0013651613878439 -100.117419817719 0.123358095504583 86.1190781373072 0.921284983134857 63.5475187987571 
                               0.00190136968969847 124.898987091261 0.00162081459071286 0.783663120300839 0.921284983134849 63.5475187987568 0.115942844220497 -149.732415176157 
3.75                           0.136984711453068 68.0969736119014 0.961949885480491 -151.719327058111 0.00405402736399083 -30.3505097885693 0.0022492455143374 105.838885785607 
                               0.96194988548049 -151.719327058111 0.141470804131634 160.363915598512 0.0015532179088086 -111.585410361764 0.00166337011233687 -19.349084747716 
                               0.00405402736398965 -30.3505097885786 0.00155321790880867 -111.585410361769 0.126321161422384 82.4929660326755 0.920050654941398 59.5824951914197 
                               0.00224924551433758 105.838885785606 0.00166337011233688 -19.3490847477153 0.920050654941393 59.5824951914195 0.11896390400114 -153.697093986566 
3.8                            0.138470344862092 66.1083858735038 0.960177488078285 -153.710971232616 0.0030939349888194 -9.51485242012781 0.00239830607612746 77.0410456269705 
                               0.960177488078284 -153.710971232616 0.142573620973369 159.499128047136 0.0018917029019404 -128.474217524459 0.00159589623077431 -49.6947393781655 
                               0.00309393498881942 -9.51485242013113 0.00189170290194041 -128.47421752446 0.129085088077073 78.7986949542618 0.918894505512712 55.6207571252316 
                               0.0023983060761275 77.04104562697   0.0015958962307743 -49.6947393781644 0.918894505512712 55.6207571252315 0.121440176852879 -157.541282666524 
3.85                           0.140944661968658 63.1507245184607 0.959782954841208 -155.618084576669 0.00188940682063534 -13.8545011809896 0.0019870193365392 45.763327157224  
                               0.959782954841207 -155.618084576669 0.144431853595494 158.451843273141 0.00232402539680159 -159.778485933806 0.0013126218518045 -90.8922013562986 
                               0.00188940682063521 -13.8545011809864 0.00232402539680174 -159.778485933799 0.131615114834764 75.0566531193131 0.917840491618703 51.6626690933852 
                               0.00198701933653916 45.7633271572266 0.00131262185180447 -90.8922013562968 0.917840491618708 51.6626690933853 0.123266049454634 -161.53644941649 
3.9                            0.142056804749076 60.0045515780031 0.960503563815523 -157.608635963576 0.00143571051021307 -29.8276919491605 0.00139619177838355 22.8962356944758 
                               0.960503563815522 -157.608635963576 0.1461008545601  156.9501681451   0.00191740271077291 154.987142251735 0.000976154437003231 -136.87750379089 
                               0.00143571051021295 -29.8276919491596 0.00191740271077346 154.987142251738 0.133889958737117 71.2889387089065 0.916924227113867 47.7075128574331 
                               0.00139619177838354 22.8962356944806 0.000976154437003204 -136.877503790888 0.916924227113874 47.7075128574332 0.125113714817683 -165.765508589364 
3.95                           0.142762070442971 57.0003333030566 0.960685440296196 -159.637311804639 0.00127766177495345 -44.9727015021254 0.000965165379049101 7.74154743671359 
                               0.960685440296195 -159.637311804639 0.146790015643446 155.39357795191  0.00109177673890363 128.972653705957 0.000816735582524962 -178.829409583857 
                               0.00127766177495338 -44.9727015021259 0.0010917767389039 128.97265370595  0.13590295126944 67.516831952213  0.916184018664946 43.7521046764532 
                               0.000965165379049114 7.74154743671782 0.00081673558252494 -178.829409583856 0.916184018664956 43.7521046764532 0.127195376712639 -169.99084623219 
4                              0.143388152337074 54.0811614804644 0.960549477245598 -161.66809814666 0.00122074528915567 -57.2775413827709 0.000688317655136266 -3.70054208266836 
                               0.960549477245598 -161.66809814666 0.147110311945439 154.015754208118 0.000660436663172397 121.61519916833  0.0008049853850958 150.781339584423 
                               0.00122074528915563 -57.2775413827713 0.000660436663172476 121.615199168322 0.137660396984124 63.7588617234996 0.915614252895692 39.7898898792703 
                               0.000688317655136285 -3.7005420826655 0.000804985385095786 150.781339584423 0.915614252895699 39.7898898792701 0.129329847474835 -174.117617432659 
4.05                           0.144000498488852 51.209787835409  0.960276496609851 -163.69677051912 0.00120355825197141 -67.334776474851 0.000510761847054812 -14.2127108517692 
                               0.96027649660985 -163.69677051912 0.147440307530703 152.754843763773 0.000468491322664892 122.983282395963 0.000847703539531029 131.515887542962 
                               0.00120355825197139 -67.3347764748515 0.000468491322664906 122.983282395958 0.139178170035837 60.0297185992824 0.915099048821324 35.8148269066475 
                               0.000510761847054827 -14.2127108517678 0.000847703539531023 131.515887542962 0.915099048821328 35.8148269066473 0.131634648090318 -178.138841843423 
4.1                            0.144611262647442 48.3699148923513 0.959935583594417 -165.723690898314 0.00120638201051485 -75.861179192507 0.000397868346987378 -25.6653211140637 
                               0.959935583594417 -165.723690898314 0.147847529465582 151.547417159332 0.000393536921099578 126.607076809245 0.00090375218849678 119.50604241266  
                               0.00120638201051485 -75.8611791925071 0.000393536921099576 126.607076809245 0.140477709672059 56.3399782842758 0.914466649140292 31.8295399860577 
                               0.000397868346987374 -25.6653211140639 0.00090375218849678 119.50604241266  0.914466649140291 31.8295399860577 0.134055698079924 177.208336096674 
4.15                           0.145220478641822 45.5549887965443 0.959553318934663 -167.749533589275 0.00122302022102028 -83.3532310855697 0.000332845011086058 -39.1976423998276 
                               0.959553318934662 -167.749533589275 0.148323299303358 150.362546170496 0.000378044824726028 127.996136771221 0.000963820055963808 111.976179307358 
                               0.00122302022102028 -83.3532310855698 0.000378044824726032 127.996136771225 0.141582321967523 52.6964302228931 0.913660429712484 27.843734710097  
                               0.000332845011086066 -39.1976423998309 0.00096382005596381 111.976179307357 0.913660429712484 27.8437347100972 0.134548912260128 173.150748701227 
4.2                            0.145825171161432 42.7635537075069 0.959139186985927 -169.774813640459 0.00125247309242542 -90.1312034909534 0.000309768739753488 -54.5791250122532 
                               0.959139186985926 -169.774813640459 0.148850105600785 149.186193480119 0.000395099023708129 125.522721084467 0.00103031861847304 107.404819829593 
                               0.00125247309242542 -90.1312034909533 0.000395099023708142 125.522721084471 0.14251429254416 49.1027612867084 0.91275046436423 23.8639598930283 
                               0.000309768739753493 -54.5791250122579 0.00103031861847305 107.404819829592 0.91275046436423 23.8639598930286 0.135738122606193 169.168293829979 
4.25                           0.14642252004208 39.9978207274038 0.958693791430595 -171.799876505441 0.00129659770215899 -96.4036130699128 0.000328051505999244 -69.8197194379386 
                               0.958693791430594 -171.799876505441 0.149413249294344 148.01189757134  0.000435135211830928 119.401321777736 0.00111208468236768 104.974226692249 
                               0.00129659770215899 -96.4036130699124 0.000435135211830946 119.40132177774  0.143292958908973 45.5603804404604 0.911819596770246 19.8909975691753 
                               0.000328051505999254 -69.8197194379431 0.00111208468236769 104.974226692249 0.911819596770246 19.8909975691756 0.136832672396742 165.125071539669 
4.3                            0.147013617624322 37.2637562561276 0.958210807167863 -173.824882823501 0.0013599923792596 -102.307037599763 0.000390137788655229 -82.7643208624401 
                               0.958210807167863 -173.824882823501 0.150001374632922 146.836908861827 0.000498868072794712 110.258105556676 0.00122668019982108 104.166655035574 
                               0.00135999237925961 -102.307037599763 0.00049886807279473 110.258105556679 0.143933664669692 42.069237659438  0.91091340716582 15.9231356220511 
                               0.000390137788655242 -82.7643208624437 0.00122668019982108 104.166655035574 0.910913407165821 15.9231356220514 0.137741979824074 161.046227463188 
4.35                           0.147612407110404 34.5714332616831 0.95767601529017 -175.849657101735 0.00145144362749466 -107.922768140184 0.000505723264218952 -92.9315975264243 
                               0.95767601529017 -175.849657101735 0.15060543977884 145.660822209174 0.000594143517821759 98.5171479653686 0.00141032301312814 104.373181624497 
                               0.00145144362749467 -107.922768140184 0.000594143517821769 98.5171479653695 0.14444741820707 38.6285553846583 0.910048114403652 11.9584666383887 
                               0.00050572326421897 -92.9315975264255 0.00141032301312815 104.373181624497 0.910048114403653 11.9584666383888 0.138449695223091 156.936145444723 
4.4                            0.14826480686781 31.9319126272283 0.957065607187749 -177.873191450586 0.0015879892971774 -113.267627586898 0.00070283424858332 -101.355978354242 
                               0.957065607187749 -177.873191450586 0.151218000771049 144.485527296328 0.000735563117618055 84.1763128996081 0.00174414162160545 104.126732297877 
                               0.00158798929717741 -113.267627586899 0.000735563117618048 84.1763128996063 0.144841064653274 35.2374386264949 0.909225798912124 7.99551594703943 
                               0.000702834248583318 -101.355978354239 0.00174414162160546 104.126732297878 0.909225798912124 7.99551594703948 0.138951385001529 152.793133421959 
4.45                           0.149066791867042 29.3406490242772 0.956352379956966 -179.892395095038 0.00180603662785056 -118.229752434249 0.0010543222010905 -110.019817186188 
                               0.956352379956967 -179.892395095038 0.151833778039378 143.316425439429 0.000943673369156233 66.5908619620397 0.00240634844809149 98.987875890312  
                               0.00180603662785056 -118.229752434251 0.00094367336915618 66.5908619620355 0.145117809064233 31.8953585064097 0.908443153528638 4.0332299487022  
                               0.00105432220109048 -110.019817186181 0.00240634844809152 98.987875890313  0.908443153528638 4.03322994870215 0.139245955057584 148.613475647504 
4.5                            0.150105811834374 26.747667353187  0.955553784447839 178.099663654047 0.00219749005483461 -122.309376595573 0.0017623875096702 -122.905524969884 
                               0.95555378444784 178.099663654047 0.152455006990997 142.165952610368 0.00123049875891903 44.2954096150767 0.00343325400858016 77.7530500053321 
                               0.00219749005483461 -122.309376595575 0.00123049875891889 44.2954096150698 0.145277969740494 28.6025175507276 0.907695278910561 0.0708493716690878 
                               0.00176238750967019 -122.90552496987 0.00343325400858029 77.7530500053326 0.90769527891056 0.070849371668945 0.139333866216565 144.392626773302 
4.55                           0.151294310263367 24.0809639879471 0.954856978587139 176.109866469065 0.00306792430166282 -123.321545823224 0.00330106585754747 -152.328098738006 
                               0.95485697858714 176.109866469065 0.153119315691799 141.061725842755 0.00153390995312359 15.9049636382809 0.00326767046643166 44.368062022427  
                               0.00306792430166284 -123.321545823229 0.0015339099531233 15.9049636382744 0.145319876951638 25.3601087652    0.906977115218324 -3.89219419027781 
                               0.00330106585754819 -152.328098737982 0.00326767046643176 44.3680620224261 0.906977115218323 -3.8921941902779 0.139216702744058 140.125607505316 
4.6                            0.152414153037929 21.3385841523048 0.954549010359096 174.127377463609 0.00591509832551854 -106.019160446907 0.00389498722899241 149.642288086831 
                               0.954549010359095 174.127377463609 0.154038803046515 140.048459277535 0.00166049565300381 -15.9597730942964 0.00239064149822988 28.9558827986961 
                               0.00591509832551935 -106.019160446918 0.00166049565300344 -15.9597730942986 0.145240857258129 22.1704790061032 0.906283907332377 -7.85634381627328 
                               0.00389498722899445 149.642288086834 0.00239064149822991 28.9558827986951 0.906283907332377 -7.85634381627337 0.138897099669552 135.80713862783  
4.65                           0.153370993284721 18.5769842175311 0.95453816771611 172.129717591481 0.00478314550020214 -25.39249879076  0.00257152155930528 116.674213874455 
                               0.954538167716108 172.129717591481 0.155896676275333 138.982515193857 0.00154498319251915 -44.1421311306807 0.0018841343202282 25.3233224784915 
                               0.00478314550020319 -25.3924987907459 0.00154498319251886 -44.142131130679 0.145038256585104 19.0372036815711 0.905611304860544 -11.8219552142667 
                               0.00257152155930594 116.674213874447 0.00188413432022821 25.3233224784909 0.905611304860544 -11.8219552142669 0.138378786427749 131.431677880222 
4.7                            0.154200488448166 15.8361507702131 0.954515320106987 170.114992795457 0.00172668006092079 -15.1558315053711 0.00185661273232509 103.902461881781 
                               0.954515320106985 170.114992795457 0.157732695660967 137.30321458801  0.00135044902568531 -65.4415172758417 0.00161795589696075 25.2429476632782 
                               0.00172668006092081 -15.1558315053621 0.00135044902568514 -65.4415172758387 0.144710458547441 15.9650764366113 0.904955334714962 -15.7893177608557 
                               0.00185661273232532 103.902461881775 0.00161795589696076 25.2429476632777 0.904955334714963 -15.7893177608558 0.137666675019524 126.993417735548 
4.75                           0.154957273866157 13.1280026333971 0.954372085931297 168.092482607539 0.000891533263713746 -29.5031281054665 0.00149336985765545 97.4012016482451 
                               0.954372085931296 168.092482607539 0.158125384992375 135.653842933011 0.00118083320894112 -81.2939933805703 0.00146701640721691 26.0122069481761 
                               0.000891533263713706 -29.5031281054612 0.00118083320894102 -81.2939933805676 0.144257851874887 12.960015391446  0.90431233617624 -19.7586658498659 
                               0.00149336985765555 97.4012016482407 0.00146701640721692 26.0122069481759 0.904312336176241 -19.758665849866 0.136766968261538 122.48626738984  
4.8                            0.155675991832421 10.4522273314375 0.954128312936074 166.067994729741 0.000594572162696183 -53.5070362509982 0.00128382435370105 93.2899333062841 
                               0.954128312936074 166.067994729741 0.15838632297129 134.238530216336 0.0010526575657433 -93.63959065413  0.00137441161096812 26.8200077556823 
                               0.000594572162696146 -53.5070362509955 0.00105265756574325 -93.639590654128 0.143683696111709 10.028887298579  0.903678891175648 -23.730184944607 
                               0.0012838243537011 93.2899333062813 0.00137441161096813 26.8200077556821 0.903678891175649 -23.730184944607 0.135687278804919 117.903829860831 
4.85                           0.156373896036944 7.80571544866576 0.95381972269901 164.043670020438 0.000509066380813004 -79.0887707503569 0.00115106450375068 90.2788808360587 
                               0.953819722699009 164.043670020438 0.158787357945278 132.893610944118 0.000958070845696064 -103.757620647105 0.00131367568119161 27.4416283884542 
                               0.000509066380812992 -79.0887707503569 0.000958070845696041 -103.757620647103 0.142994831829738 7.17925279642094 0.903051761224492 -27.7040149127137 
                               0.0011510645037507 90.2788808360572 0.00131367568119161 27.4416283884541 0.903051761224493 -27.7040149127138 0.134436754842762 113.239380556937 
4.9                            0.157058515756925 5.18554369002351 0.953471397349614 162.020092165953 0.000511560550217492 -99.5571265783474 0.00106145465510208 87.8349501352289 
                               0.953471397349614 162.020092165953 0.159280561323027 131.560151466301 0.000887623526720175 -112.406621793944 0.00127150594415848 27.838343790282  
                               0.000511560550217482 -99.5571265783479 0.000887623526720166 -112.406621793943 0.142202183463354 4.41903954855388 0.902427834842099 -31.6802521288333 
                               0.00106145465510208 87.8349501352285 0.00127150594415849 27.8383437902818 0.902427834842101 -31.6802521288333 0.133026210203641 108.485852263134 
4.95                           0.157732527972222 2.58953403428938 0.953098543436607 159.997324895989 0.000544245722953756 -114.409107749282 0.000998314576044654 85.702346152842  
                               0.953098543436607 159.997324895989 0.159822240945615 130.220952648418 0.000834250809516059 -120.044206283757 0.00124070626865914 28.0282551928254 
                               0.000544245722953756 -114.409107749282 0.00083425080951606 -120.044206283757 0.141321011437555 1.75615495861163 0.901804086772542 -35.6589511773421 
                               0.000998314576044651 85.7023461528423 0.00124070626865914 28.0282551928252 0.901804086772543 -35.658951177342 0.13146825688012 103.635831493647 
5                              0.158396250284177 0.0161712286731073 0.952710244627152 157.975284551543 0.000584841497766452 -125.499567234092 0.000952520306973612 83.7451485086354 
                               0.952710244627152 157.975284551543 0.160387132861143 128.870419492541 0.000793115148032694 -126.959714932007 0.00121713197182883 28.0432825066854 
                               0.000584841497766454 -125.499567234093 0.000793115148032701 -126.959714932008 0.140370885837935 -0.801944383701764 0.90117754938701 -39.6401265939935 
                               0.000952520306973604 83.7451485086363 0.00121713197182883 28.0432825066852 0.901177549387011 -39.6401265939935 0.129777437638571 98.6815719208981 
5.05                           0.159048848653259 -2.53558063345911 0.952312071139309 155.953860842414 0.000626038947603279 -134.321458816289 0.00091869161041648 81.8856573093668 
                               0.952312071139309 155.953860842413 0.16096045002419 127.506486705539 0.000760938721529568 -133.345549055965 0.00119826628350183 27.915123248072  
                               0.000626038947603284 -134.32145881629 0.000760938721529579 -133.345549055965 0.139375375092362 -3.24870417624157 0.90054529621901 -43.6237548476824 
                               0.000918691610416469 81.885657309368  0.00119826628350184 27.9151232480718 0.90054529621901 -43.6237548476824 0.127970355392158 93.6150318177549 
5.1                            0.159688919896565 -5.06643340238697 0.951907582995873 153.932952254758 0.000665758575372206 -141.766049832335 0.000893464788981545 80.0768889199931 
                               0.951907582995873 153.932952254758 0.161532876762245 126.128297391563 0.000735472197022396 -139.33572603353 0.00118251079214039 27.6712418770584 
                               0.000665758575372212 -141.766049832334 0.000735472197022409 -139.335726033531 0.138361467186771 -5.57891835025921 0.899904437184309 -47.6097766224139 
                               0.000893464788981533 80.0768889199947 0.00118251079214039 27.6712418770582 0.899904437184309 -47.6097766224138 0.126065794501803 88.427943973806  
5.15                           0.160314776303987 -7.57688565106153 0.951499166464616 151.912473710128 0.000703645631405506 -148.34738283054 0.000874637183277736 78.2890386582366 
                               0.951499166464616 151.912473710128 0.162098040727726 124.735451014749 0.000715140627112425 -145.027485774822 0.00116881044041433 27.3343029933952 
                               0.000703645631405513 -148.347382830541 0.000715140627112439 -145.027485774823 0.137358764207304 -7.78914073147908 0.899252124626898 -51.598099380686 
                               0.000874637183277724 78.2890386582383 0.00116881044041433 27.334302993395  0.899252124626898 -51.5980993806859 0.124084827038268 83.1119281866594 
5.2                            0.16092458730783 -10.0672975053267 0.951088503388195 149.892355765169 0.00073988293340261 -154.370779863555 0.000860711820334321 76.5022848061666 
                               0.951088503388195 149.892355765169 0.162651229902694 123.327733215539 0.000698816456166698 -150.493930599247 0.00115644508922117 26.9226939457905 
                               0.000739882933402615 -154.370779863555 0.000698816456166712 -150.493930599248 0.136398509933713 -9.87803361947785 0.898585568939719 -55.5886001512713 
                               0.000860711820334309 76.5022848061684 0.00115644508922117 26.9226939457904 0.898585568939719 -55.5886001512711 0.122050894220355 77.6586579183544 
5.25                           0.161516451425051 -12.5379403098245 0.950676840536032 147.872541718599 0.000774786117874481 -160.025740888068 0.000850640462256853 74.7027107777801 
                               0.950676840536032 147.872541718599 0.163188712979237 121.905010641693 0.000685673974671007 -155.791734650004 0.00114490852233297 26.4512966101116 
                               0.000774786117874485 -160.025740888068 0.000685673974671019 -155.791734650005 0.135512522136251 -11.8466269532167 0.897902062186573 -59.5811284722598 
                               0.000850640462256842 74.7027107777818 0.00114490852233297 26.4512966101115 0.897902062186572 -59.5811284722597 0.119989849712433 72.0600936183336 
5.3                            0.162088433587822 -14.9890294605988 0.950265148335486 145.852984636034 0.000808666204844014 -165.435182800291 0.000843671559609742 72.8798535678694 
                               0.950265148335487 145.852984636034 0.163707361611445 120.467187579989 0.000675094652628617 -160.966025436257 0.00113383552032452 25.9322239378456 
                               0.000808666204844018 -165.43518280029 0.000675094652628628 -160.966025436258 0.13473210490191 -13.6984666936698 0.897199007935142 -63.5755094237824 
                               0.000843671559609732 72.879853567871  0.00113383552032452 25.9322239378455 0.897199007935142 -63.5755094237823 0.117929947305657 66.3087949010799 
5.35                           0.16263858504023 -17.4207461092052 0.949854216896885 143.833644837791 0.000841786127421756 -170.682066888927 0.000839256840839148 71.0251322109389 
                               0.949854216896885 143.833644837791 0.164204430751624 119.014187434317 0.000666604342309472 -166.05357459878 0.00112295644886305 25.3754415552283 
                               0.000841786127421757 -170.682066888927 0.00066660434230948 -166.05357459878 0.134087012006625 -15.4396382807632 0.896473955414032 -67.5715466965326 
                               0.000839256840839139 71.0251322109403 0.00112295644886305 25.3754415552282 0.896473955414033 -67.5715466965324 0.115901751014727 60.398321325665  
5.4                            0.163164954372401 -19.8332514930555 0.949444715516945 141.814487917403 0.000874350609724735 -175.824313028431 0.000836992407433386 69.1307541477073 
                               0.949444715516945 141.814487917403 0.164677425702292 117.545944754663 0.00065983071221929 -171.08493661991 0.00111206816623098 24.7892675268261 
                               0.000874350609724737 -175.824313028431 0.000659830712219297 -171.08493661991 0.133604521546176 -17.078660043791 0.895724636121994 -71.5690256567586 
                               0.00083699240743338 69.1307541477083 0.00111206816623098 24.789267526826  0.895724636121994 -71.5690256567585 0.113937941410481 54.3237258307504 
5.45                           0.163665594043416 -22.2266963387342 0.949037230328497 139.795483220107 0.00090650745948433 179.096534311447 0.000836581291269187 67.1888632310829 
                               0.949037230328497 139.795483220107 0.165124018855261 116.062401929    0.000654473754863171 -176.085907255501 0.00110101492034732 24.1807664201687 
                               0.00090650745948433 179.096534311448 0.000654473754863176 -176.085907255501 0.133308666911767 -18.6262515414574 0.894949001125469 -75.5677163823718 
                               0.000836581291269184 67.1888632310834 0.00110101492034732 24.1807664201686 0.894949001125468 -75.5677163823718 0.112072989127468 48.082134752181  
5.5                            0.164138564631252 -24.6012269377374 0.948632288531925 137.776602685723 0.000938352258767107 174.050097659637 0.000837810404099843 65.1907724195346 
                               0.948632288531925 137.776602685723 0.165541996067758 114.563507987763 0.000650284915900995 178.921474831094 0.00108967553556825 23.5560584255771 
                               0.000938352258767108 174.050097659637 0.000650284915900997 178.921474831094 0.133219652052531 -20.0949920002036 0.894145257455481 -79.5673766562358 
                               0.000837810404099844 65.1907724195346 0.00108967553556825 23.5560584255771 0.89414525745548 -79.5673766562357 0.110342666480254 41.6733929383641 
5.55                           0.164581937969546 -26.9569889501544 0.948230374187318 135.757819970111 0.000969933645882634 169.013942830956 0.000840538411865716 63.1261566253709 
                               0.948230374187318 135.757819970111 0.165929221382585 113.049218371296 0.000647052041882258 173.918244954059 0.00107795466173014 22.9205626221653 
                               0.000969933645882633 169.013942830956 0.000647052041882257 173.918244954059 0.133353461847872 -21.4988931287395 0.893311902230875 -83.5677549107505 
                               0.000840538411865722 63.1261566253702 0.00107795466173014 22.9205626221653 0.893311902230876 -83.5677549107505 0.108783372950499 35.1007318995086 
5.6                            0.16499379977206 -29.2941296416152 0.947831938580258 133.739109776865 0.00100125837925744 163.971532856892 0.000844693767437129 60.9820840501013 
                               0.947831938580259 133.739109776865 0.166283613499186 111.519495125809 0.000644588368676332 168.888059874762 0.00106577670819604 22.2791901541923 
                               0.00100125837925744 163.971532856892 0.000644588368676327 168.888059874762 0.133721662901485 -22.8529173940728 0.8924477533697  -87.5685931224539 
                               0.000844693767437143 60.9820840500996 0.00106577670819604 22.2791901541924 0.892447753369699 -87.5685931224539 0.107431261994532 28.3713951159518 
5.65                           0.165372252052621 -31.6127990313584 0.947437407027865 131.720447347289 0.00103229613633829 158.910900035578 0.000850285028986977 58.7417462305727 
                               0.947437407027865 131.72044734729  0.166603130018565 109.974307273577 0.00064272442489767 163.816918210693 0.00105308159085972 21.6364997562408 
                               0.00103229613633829 158.910900035578 0.000642724424897664 163.816918210694 0.134331377268472 -24.1724763374231 0.891551975986481 -91.5696296569779 
                               0.000850285028987002 58.74174623057   0.00105308159085972 21.6364997562408 0.89155197598648 -91.5696296569779 0.10632117656074 21.4971321072452 
5.7                            0.16571541549364 -33.913150279738 0.947047183307292 129.701808070023 0.00106298426822292 153.823764072429 0.000857430054532686 56.3827194869486 
                               0.947047183307292 129.701808070023 0.166885756989999 108.413631234384 0.000641302150604437 158.693014342376 0.00103982172802198 20.996825253654  
                               0.00106298426822292 153.823764072429 0.000641302150604429 158.693014342376 0.135185402212032 -25.4729431439539 0.890624103798606 -95.5706020639742 
                               0.000857430054532726 56.3827194869445 0.00103982172802198 20.9968252536541 0.890624103798606 -95.5706020639743 0.105485428631892 14.4944588566492 
5.75                           0.166021431834635 -36.1953395438448 0.946661652471047 127.683167181711 0.0010932327891094 148.70492878394  0.000866419308530796 53.8745953063947 
                               0.946661652471048 127.683167181711 0.167129502179534 106.83745123801  0.000640170816030965 153.506696893766 0.00102595991325043 20.3643824460089 
                               0.0010932327891094 148.70492878394  0.000640170816030952 153.506696893767 0.136282443363293 -26.7692095629106 0.889664055072454 -99.5712498193304 
                               0.000866419308530859 53.874595306389  0.00102595991325043 20.3643824460091 0.889664055072453 -99.5712498193304 0.104952491031516 7.38458540764082 
5.8                            0.166288466309377 -38.4595254625329 0.946281182552964 125.664499537614 0.00112292984033681 143.551850066784 0.00087784727055004 51.176019387081  
                               0.946281182552964 125.664499537614 0.16733239102317 105.245759697936 0.000639184515860456 148.2505081923   0.00101146781592142 19.7433610892247 
                               0.00112292984033681 143.551850066784 0.00063918451586044 148.250508192302 0.137617426598151 -28.0753101696423 0.888672142825848 -103.571317008791 
                               0.00087784727055014 51.1760193870734 0.00101146781592142 19.7433610892249 0.888672142825848 -103.571317008791 0.104745701434834 0.192939095146372 
5.85                           0.166514710138215 -40.705868385907 0.945906125503031 123.645779436466 0.00115194777656346 138.364303949544 0.000892889041693951 48.2322065080169 
                               0.945906125503031 123.645779436466 0.167492464566137 103.63855753126  0.000638201136634727 142.919282775908 0.000996324939950071 19.1380064235039 
                               0.00115194777656346 138.364303949544 0.00063820113663471 142.91928277591  0.139181855205623 -29.4041281209046 0.887649079166854 -107.57055494362 
                               0.00089288904169411 48.2322065080071 0.000996324939950067 19.1380064235041 0.887649079166852 -107.57055494362 0.104882100316023 -7.05173459918068 
5.9                            0.166698383071185 -42.9345294320982 0.945536817582009 121.626980487893 0.00118014989764316 133.14410639461  0.000913900066588545 44.9782066249399 
                               0.945536817582009 121.626980487893 0.167607778905152 102.015854416947 0.000637082759386427 137.5102820745   0.000980517924202519 18.5526937507224 
                               0.00118014989764315 133.144106394611 0.000637082759386412 137.510282074502 0.140964182887189 -30.7671874185839 0.886595973790326 -111.568724695593 
                               0.000913900066588804 44.9782066249281 0.000980517924202515 18.5526937507227 0.886595973790327 -111.568724695593 0.105371527722287 -14.3186399627039 
5.95                           0.166837735972328 -45.1456694313585 0.945173579376049 119.608075513565 0.00120739770954134 127.894852091312 0.000945736055919971 41.3692564588465 
                               0.94517357937605 119.608075513565 0.167676405790287 100.377668987984 0.000635697469601954 132.023339811022 0.000964040103958127 17.9919988622069 
                               0.00120739770954133 127.894852091312 0.000635697469601936 132.023339811024 0.1429501789874  -32.1745285634976 0.885514326774582 -115.565599535767 
                               0.000945736055920403 41.3692564588342 0.000964040103958124 17.9919988622072 0.885514326774583 -115.565599535767 0.106216083102456 -21.57644155687  
6                              0.166931053433506 -47.3394478011186 0.944816715544236 117.589036475412 0.0012335584582034 122.621651090355 0.000998463856459328 37.5160979123211 
                               0.944816715544237 117.589036475412 0.167696434135242 98.7240289545738 0.000633922502757542 126.460989498813 0.000946891277563445 17.4607665874556 
                               0.0012335584582034 122.621651090356 0.000633922502757524 126.460989498815 0.145123269226123 -33.6346582625687 0.884406015922486 -119.560967259302 
                               0.000998463856460055 37.5160979123145 0.000946891277563442 17.4607665874559 0.884406015922487 -119.560967259303 0.107410009395751 -28.79483908063  
6.05                           0.166976656405291 -49.5160213837   0.944466514379757 115.569834425752 0.00125851256153969 117.330851517619 0.00109059596080527 34.1497053741579 
                               0.944466514379758 115.569834425752 0.16766597224634 97.0549711563216 0.000631648559334896 120.828542899709 0.00092907763988877 16.9641793195328 
                               0.00125851256153968 117.330851517619 0.000631648559334878 120.828542899712 0.147464842240681 -35.1545599673302 0.883273278976166 -123.554632377236 
                               0.0010905959608064 34.1497053741736 0.000929077639888767 16.9641793195331 0.883273278976167 -123.554632377236 0.108940006035527 -35.9460140216447 
6.1                            0.166972904832453 -51.6755432695088 0.944123247243166 113.550439475354 0.00128216048716534 112.029744543083 0.00123594136400382 33.5236791168336 
                               0.944123247243166 113.550439475354 0.167583150622237 95.3705415417026 0.000628784989859159 115.134087820101 0.000910611856787303 16.5078270240481 
                               0.00128216048716533 112.029744543084 0.000628784989859148 115.134087820104 0.149954518754725 -36.73975042465  0.882118691103579 -127.546418155547 
                               0.00123594136400497 33.5236791168963 0.000910611856787301 16.5078270240484 0.882118691103579 -127.546418155547 0.110785919016405 -43.0057838452792 
6.15                           0.166918200281782 -53.8181616218668 0.94378716791068 111.530820776303 0.00130442860407611 106.726254432822 0.00136681587481898 37.9898189378816 
                               0.94378716791068 111.530820776303 0.167446125204785 93.6707950734159 0.000625265401209935 109.388376433988 0.000891513264027551 16.0977799084994 
                               0.0013044286040761 106.726254432823 0.000625265401209923 109.38837643399  0.152570385673449 -38.3943677320773 0.880945138109747 -131.536168482075 
                               0.00136681587481882 37.9898189379676 0.000891513264027551 16.0977799084997 0.880945138109748 -131.536168482075 0.112921713061813 -49.9543607682251 
6.2                            0.166810988550186 -55.9440185145295 0.943458511869373 109.510946517156 0.00132527358340031 101.428621707441 0.00136346506235596 43.6634852123391 
                               0.943458511869373 109.510946517156 0.167253080981216 91.9557955584887 0.000621053104984887 103.604582247994 0.00087180818111686 15.7406645669587 
                               0.0013252735834003 101.428621707441 0.000621053104984879 103.604582247997 0.15528920157416 -40.1212780583967 0.879755785866744 -135.523749542768 
                               0.00136346506235482 43.6634852123827 0.000871808181116859 15.7406645669591 0.879755785866746 -135.523749542768 0.115316609553027 -56.7766867715235 
6.25                           0.166649762241203 -58.0532487889738 0.943137495583118 107.490783928352 0.00134468503316866 96.14509088931   0.00128854993635544 45.6797126810461 
                               0.94313749558312 107.490783928352 0.167002235851588 90.225615402338  0.000616145757954257 97.7979148099956 0.000851530335661973 15.4437439625543 
                               0.00134468503316866 96.1450908893103 0.000616145757954248 97.7979148099981 0.158086582809947 -41.9221906372363 0.878554046485175 -139.509051290275 
                               0.00128854993635457 45.6797126810539 0.000851530335661972 15.4437439625546 0.878554046485175 -139.509051290275 0.117936275328179 -63.462383551488 
6.3                            0.166433063298172 -60.1459789354025 0.942824315747288 105.470299296181 0.0013626862086707 90.8836158418314 0.0012265980721582 44.7922528275212 
                               0.94282431574729 105.470299296181 0.166691844685337 88.4803352864285 0.000610578569583857 91.9850951050512 0.000830721397729526 15.2150009927739 
                               0.0013626862086707 90.8836158418316 0.000610578569583848 91.9850951050537 0.160937180798566 -43.7977733658873 0.877343541767067 -143.49198868991 
                               0.00122659807215771 44.7922528275175 0.000830721397729527 15.2150009927743 0.87734354176707 -143.491988689911 0.120743966573946 -70.0054013009913 
6.35                           0.166159485482389 -62.2223259989026 0.942519148545796 103.449457983848 0.00137933281792015 85.651595291215  0.00118998245617861 42.6569386261304 
                               0.942519148545797 103.449457983848 0.166320203498137 86.720043769708  0.000604425589294319 86.1837089570953 0.000809431626127329 15.0632245038083 
                               0.00137933281792014 85.6515952912152 0.000604425589294314 86.1837089570976 0.1638148611394  -45.7477639666736 0.876128064486592 -147.472502730406 
                               0.00118998245617836 42.6569386261253 0.00080943162612733 15.0632245038086 0.876128064486592 -147.472502730406 0.123701560535849 -76.4034691099578 
6.4                            0.165827676784543 -64.2823965101448 0.942222148920547 101.428224458348 0.00139471011178509 80.4556490351217 0.00117167337903021 40.0769365837009 
                               0.942222148920548 101.428224458348 0.165885653685987 84.9448368146686 0.000597798823650299 80.4114676924295 0.000787720629418991 14.998095353593  
                               0.00139471011178509 80.4556490351219 0.000597798823650301 80.4114676924316 0.166692894146477 -47.7710739523377 0.874911538041729 -151.450561189514 
                               0.00117167337903008 40.0769365836969 0.000787720629418992 14.9980953535932 0.874911538041728 -151.450561189514 0.12677043760478 -82.6574462399044 
6.45                           0.16543634175772 -66.3262854383304 0.941933449860597 99.4065623219324 0.00140892858419082 75.3014420664675 0.00116511321944511 37.3542949696263 
                               0.941933449860597 99.4065623219324 0.165386586258365 83.1548172396894 0.000590845225996862 74.6854120506231 0.000765658243302454 15.0302683059559 
                               0.00140892858419082 75.3014420664678 0.000590845225996859 74.6854120506248 0.169544164387776 -49.865884454684 0.873697975008209 -155.426159147308 
                               0.00116511321944505 37.3542949696237 0.000765658243302456 15.0302683059561 0.873697975008211 -155.426159147308 0.129912201807752 -88.7706557051984 
6.5                            0.164984243760188 -68.3540751626818 0.94165316171569 97.384434346995  0.00142211869180109 70.1935599863666 0.00116616161408221 34.5931016245685 
                               0.941653161715692 97.384434346995  0.164821446016883 81.3500941002907 0.000583741880933663 69.0210952429771 0.000743325521843523 15.1714429683409 
                               0.00142211869180109 70.1935599863667 0.000583741880933666 69.0210952429783 0.172341404081081 -52.0297342895583 0.87249143510766 -159.399319242847 
                               0.00116616161408218 34.5931016245671 0.000743325521843526 15.1714429683412 0.872491435107662 -159.399319242847 0.13308924612254 -94.7482579427616 
6.55                           0.164470207095988 -70.3658344576008 0.941381371536332 95.3618025131489 0.00143442502852094 65.1354352642319 0.0011723336756852 31.824537931548  
                               0.941381371536332 95.3618025131488 0.164188735630626 79.5307820031015 0.000576689903318981 63.4317744418093 0.000720815831591381 15.4344134304175 
                               0.00143442502852094 65.135435264232  0.000576689903318979 63.4317744418102 0.175057451935497 -54.2596014618065 0.871295983076287 -163.370091672676 
                               0.00117233367568519 31.8245379315474 0.000720815831591384 15.4344134304176 0.871295983076289 -163.370091672676 0.136265180082048 -100.596699245832 
6.6                            0.16389311904114 -72.3616174856253 0.941118142439609 93.3386280451251 0.00144600036293363 60.1293206354593 0.00118210873685623 29.0532582547449 
                               0.941118142439609 93.3386280451251 0.163487019564792 77.697000357757  0.000569907634249062 57.9276292180339 0.000698236022841235 15.8330814895442 
                               0.00144600036293363 60.1293206354593 0.000569907634249061 57.9276292180342 0.17766553549291 -56.5519797159151 0.870115646890109 -167.338553932306 
                               0.00118210873685623 29.0532582547449 0.000698236022841236 15.8330814895442 0.87011564689011 -167.338553932306 0.139405142044334 -106.32325066657 
6.65                           0.16325193174271 -74.3414627914857 0.940863512996295 91.3148714499095 0.00145699987941071 55.1763035394702 0.00119451736431641 26.2745716568112 
                               0.940863512996295 91.3148714499095 0.162714927825748 75.8488725736834 0.000563623624767311 52.5150146501809 0.00067570762857148 16.3824122100199 
                               0.00145699987941071 55.1763035394703 0.000563623624767312 52.5150146501807 0.180139571490933 -58.9029517834316 0.868954376768544 -171.304810304319 
                               0.00119451736431641 26.2745716568115 0.000675707628571482 16.3824122100199 0.868954376768546 -171.304810304319 0.142476019053429 -111.935639483827 
6.7                            0.162545663977214 -76.3053922898749 0.940617496629377 89.2904925511483 0.0014675758730382 50.2763541258525 0.00120890981323375 23.4809013034933 
                               0.940617496629377 89.2904925511483 0.161871159493835 73.9865252108587 0.000558069666170429 47.1957511127024 0.000653368005500584 17.0983031423513 
                               0.0014675758730382 50.2763541258526 0.000558069666170425 47.1957511127021 0.182454475536149 -61.3082607454744 0.86781600534215 -175.268991099072 
                               0.00120890981323376 23.4809013034939 0.000653368005500587 17.0983031423512 0.86781600534215 -175.268991099072 0.145446595130369 -117.441766792027 
6.75                           0.161773402753365 -78.2534102389698 0.940380081006178 87.2654505182938 0.00147787305141727 45.4283989519728 0.00122482520146927 20.6642113610332 
                               0.94038008100618 87.2654505182938 0.160954486025975 72.1100870963124 0.000553473794152086 41.9664573337004 0.00063137127952969 17.997330435957  
                               0.00147787305141727 45.4283989519728 0.000553473794152085 41.9664573336997 0.184586469745418 -63.7633804969717 0.866704209333073 -179.231251656035 
                               0.00122482520146928 20.664211361034  0.000631371279529693 17.9973304359568 0.866704209333073 -179.231251656035 0.148287645488596 -122.849500275555 
6.8                            0.160934304741993 -80.1855021912635 0.940151227393403 85.2397038871197 0.00148802450642467 40.6304128973262 0.00124191537866698 17.8168829407669 
                               0.940151227393405 85.2397038871197 0.159963754324528 70.2196884214446 0.000550052818598571 36.8179526460919 0.000609888886333662 19.0963279107447 
                               0.00148802450642467 40.6304128973262 0.000550052818598563 36.817952646091  0.186513375261142 -66.2635857457577 0.865622473060048 176.808228884345 
                               0.00124191537866699 17.8168829407678 0.000609888886333664 19.0963279107446 0.865622473060045 176.808228884345 0.150971990511688 -128.166529601257 
6.85                           0.160027597512487 -82.1016339128225 0.939930869923394 83.2132105669922 0.00149814834521508 35.8795228012934 0.00125989895789347 14.9319919001098 
                               0.939930869923395 83.2132105669923 0.158897889588619 68.315459839392  0.000548003578111328 31.7347911039729 0.000589109406337869 20.4117521520969 
                               0.00149814834521509 35.8795228012934 0.00054800357811132 31.734791103972  0.188214875891582 -68.8040213768185 0.864574054044275 172.849249026771 
                               0.00125989895789348 14.9319919001107 0.000589109406337869 20.4117521520966 0.864574054044274 172.849249026771 0.153474519933883 -133.400272032815 
6.9                            0.159052580549995 -84.0017502616024 0.939718914684298 81.1859278284546 0.00150834491657827 31.1721176555252 0.00127853245770627 12.0033654233546 
                               0.939718914684298 81.1859278284546 0.157755897992074 66.3975315867046 0.000547491871931358 26.6950435868451 0.000569237287319222 21.9587934967394 
                               0.00150834491657828 31.1721176555252 0.000547491871931348 26.695043586844  0.189672739693815 -71.379770425575 0.863561950959451 168.891586572343 
                               0.00127853245770628 12.0033654233554 0.000569237287319224 21.9587934967391 0.863561950959451 168.891586572343 0.155772194809458 -138.557817035338 
6.95                           0.158008626020132 -85.8857740147705 0.939515238485226 79.1578122620226 0.00151869453696564 26.503961640539  0.0012975914924625 9.02556912294152 
                               0.939515238485229 79.1578122620227 0.156536869272321 64.4660326594793 0.000548638000683478 21.6705075487144 0.000550489945155001 23.750217880932  
                               0.00151869453696564 26.503961640539  0.000548638000683468 21.6705075487137 0.190870987108484 -73.9859193901898 0.86258887413901 164.935000460888 
                               0.00129759149246251 9.02556912294223 0.000550489945154999 23.7502178809317 0.862588874139008 164.935000460888 0.157844032639616 -143.645900240019 
7                              0.15689517923736 -87.7536046338434 0.939319687038103 77.1288196952618 0.00152925560833971 21.8703077246712 0.00131685811568721 5.99388550192102 
                               0.939319687038105 77.1288196952619 0.155239979373791 62.5210900802594 0.00055149822525144 16.6275817314423 0.000533092671803045 25.7949786353935 
                               0.00152925560833971 21.8703077246712 0.000551498225251432 16.6275817314415 0.191795997145007 -76.6176192149488 0.861657218827165 160.979232789306 
                               0.00131685811568721 5.99388550192167 0.000533092671803043 25.7949786353931 0.861657218827165 160.979232789306 0.159671079425343 -148.670898830902 
7.05                           0.155711758778594 -89.6051169543854 0.939132072099276 75.0989050499526 0.00154006302450993 17.266010828091  0.00133611214204902 2.90430700893564 
                               0.939132072099276 75.0989050499526 0.153864493377632 60.562828296861  0.000556042457898329 11.5290665192723 0.000517270825860981 28.0967302565643 
                               0.00154006302450993 17.2660108280909 0.000556042457898318 11.5290665192718 0.192436546854222 -79.2701400228763 0.860769041337797 157.024010990058 
                               0.00133611214204903 2.90430700893618 0.00051727082586098 28.0967302565641 0.860769041337796 157.024010990058 0.161236371352615 -153.638842005841 
7.1                            0.154457956163898 -91.4401597833182 0.938952166744345 73.0680221145807 0.00155112678056413 12.6856406237462 0.0013551252398592 -0.246448965467593 
                               0.938952166744346 73.0680221145808 0.152409769082735 58.5913687537678 0.000562130346203758 6.33709884643791 0.000503239033836693 30.6525100620323 
                               0.00155112678056413 12.6856406237461 0.000562130346203751 6.3370988464376  0.1927837835702  -81.9389175771037 0.859926038266547 153.069050153108 
                               0.0013551252398592 -0.246448965467138 0.000503239033836693 30.6525100620321 0.859926038266544 153.069050153108 0.162524888188827 -158.555431561848 
7.15                           0.153133435000517 -93.2585543803584 0.938779697245365 71.0361232014475 0.00156243072847734 8.12359486056572 0.00137365714717437 -3.46090271515455 
                               0.938779697245365 71.0361232014475 0.150875261804078 56.6068296616713 0.000569490609289196 1.01725878556331 0.000491187714845669 33.4520126135725 
                               0.00156243072847734 8.12359486056564 0.000569490609289191 1.0172587855631  0.192831133763417 -84.6195895015819 0.859129528887243 149.114055474018 
                               0.00137365714717437 -3.46090271515419 0.000491187714845669 33.4520126135725 0.85912952888724 149.114055474018 0.163523500169252 -163.42606883398 
7.2                            0.151737929454241 -95.0600927889226 0.938614328649845 69.0031586604057 0.00157393145862052 3.57421462975312 0.00139145369854313 -6.74075528231627 
                               0.938614328649844 69.0031586604057 0.149260531254947 54.609325941072  0.000577711502169233 -4.4564335219403 0.000481268293927079 36.4780229950585 
                               0.00157393145862052 3.57421462975305 0.000577711502169236 -4.45643352194073 0.192574156435614 -87.3080194723062 0.858380440853028 145.158724810222 
                               0.00139145369854313 -6.74075528231601 0.000481268293927081 36.4780229950586 0.858380440853024 145.158724810222 0.164220910079781 -168.255885185036 
7.25                           0.150271241873768 -96.8445359632259 0.938455638461078 66.9690762602087 0.00158555732980724 -0.968096762758353 0.00140824654717813 -10.0868166024725 
                               0.938455638461079 66.9690762602089 0.147565251815572 52.5989691894564 0.000586252173796717 -10.0963473809106 0.000473580131517995 39.7086297399123 
                               0.00158555732980724 -0.968096762758432 0.000586252173796721 -10.0963473809108 0.192010352466384 -90.000307869266 0.857679299315564 141.202751326911 
                               0.00140824654717812 -10.0868166024723 0.000473580131518 39.7086297399124 0.85767929931556 141.202751326911 0.164607592309905 -173.049774025912 
7.3                            0.148733239351613 -98.6116116082119 0.938303067526382 64.9338206128251 0.00159720771794915 -5.50874972202042 0.00142375457460791 -13.4989246988892 
                               0.938303067526382 64.9338206128253 0.145789228080992 50.5758672324279 0.000594483149009126 -15.8970394356143 0.000468164676878246 43.1217298009285 
                               0.00159720771794915 -5.5087497220205 0.000594483149009133 -15.8970394356147 0.191138943945398 -92.6927877198806 0.857026219571643 137.245826213362 
                               0.0014237545746079 -13.4989246988891 0.000468164676878252 43.1217298009283 0.857026219571641 137.245826213362 0.164675730784919 -177.812422975219 
7.35                           0.147123848965376 -100.361011601708 0.938155827417913 62.8973333853737 0.00160875260322132 -10.0528378899318 0.00143768701877676 -16.9758630311196 
                               0.938155827417916 62.8973333853738 0.143932418255875 48.5401221990572 0.000601757180327475 -21.8333466541918 0.00046501612244172 46.7020010888979 
                               0.00160875260322132 -10.0528378899318 0.000601757180327481 -21.8333466541922 0.189960639152709 -95.3820051290008 0.856420903345051 133.28764144991  
                               0.00143768701877675 -16.9758630311196 0.000465016122441729 46.7020010888975 0.856420903345048 133.28764144991  0.164419157830244 177.451654725914 
7.4                            0.145443051418473 -102.092388796313 0.938012729021873 60.8595568642765 0.001620032664795 -14.6050008240922 0.00144974833267839 -20.5152840642438 
                               0.938012729021873 60.8595568642766 0.141994968363085 46.4918248034897 0.000607499837372674 -27.8617994935154 0.000464123943942639 50.4498576124719 
                               0.001620032664795 -14.6050008240922 0.000607499837372685 -27.861799493516 0.18847739944994 -98.0646837445978 0.855862638812032 129.327892605184 
                               0.00144974833267838 -20.5152840642438 0.000464123943942651 50.4498576124711 0.855862638812027 129.327892605184 0.163833296128938 172.738090012014 
7.45                           0.143690872812326 -103.805352893028 0.937871896637878 58.8204488026927 0.00163086009607176 -19.1692805040761 0.00145964471559284 -24.1136477605411 
                               0.93787189663788 58.8204488026929 0.139977259203138 44.4310401316686 0.000611297407366158 -33.925519732132 0.000465572785319093 54.3905827783475 
                               0.00163086009607176 -19.1692805040762 0.000611297407366171 -33.9255197321329 0.186692223973107 -100.7376731243  0.855350304480798 125.36628164267  
                               0.00145964471559283 -24.1136477605412 0.000465572785319105 54.3905827783458 0.855350304480794 125.36628164267  0.162915105974088 168.042629120832 
7.5                            0.141867374370159 -105.499464930549 0.937730469042617 56.780029393887  0.0016410203853894 -23.7489738302008 0.00146709214605946 -27.7661837588965 
                               0.937730469042622 56.780029393887  0.137879962530103 42.3577762083332 0.00061295574445086 -39.9616207688501 0.000469739284558942 58.5788214582907 
                               0.0016410203853894 -23.7489738302008 0.000612955744450869 -39.961620768851 0.184608966787105 -103.397881124727 0.854882377038697 121.402519715228 
                               0.00146709214605945 -27.7661837588965 0.000469739284558952 58.5788214582882 0.854882377038693 121.402519715228 0.161663039971221 163.361105854629 
7.55                           0.139972640152376 -107.174229738062 0.937585139600309 54.7384921264817 0.00165027531880061 -28.3464850998914 0.00147182560358703 -31.4668852179862 
                               0.937585139600316 54.7384921264817 0.135704086496207 40.2719213490601 0.000612512341754286 -45.9092531882194 0.000477632501589986 63.086804472433  
                               0.00165027531880061 -28.3464850998914 0.000612512341754295 -45.9092531882205 0.182232199209874 -106.042190614538 0.854456943285021 117.436329926008 
                               0.00147182560358702 -31.4668852179863 0.00047763250158999 63.0868044724296 0.854456943285015 117.436329926008 0.160077007204711 158.689414483906 
7.6                            0.138006763231051 -108.829085460831 0.937436126690019 52.6963079357797 0.00165836744277305 -32.9631844969847 0.00147360901631349 -35.2085403950026 
                               0.937436126690027 52.6963079357795 0.133450953083094 38.173134223815  0.000610201498942993 -51.716320012387 0.000491373986233928 67.9531710920838 
                               0.00165836744277305 -32.9631844969847 0.000610201498942998 -51.7163200123879 0.179567127471112 -108.667360888118 0.854071716273266 113.467450034463 
                               0.00147360901631348 -35.2085403950027 0.000491373986233922 67.9531710920802 0.854071716273261 113.467450034463 0.158158348652584 154.023482499697 
7.65                           0.135969831511702 -110.463389015613 0.937293956442491 50.6538654118542 0.0016650261656385 -37.5992807320456 0.00147224534385604 -38.9828048197044 
                               0.937293956442495 50.6538654118539 0.131121990053716 36.0606867540194 0.000606388870416367 -57.3435595164038 0.000514576156602984 73.0661999036188 
                               0.0016650261656385 -37.5992807320457 0.00060638887041637 -57.3435595164045 0.176619572842022 -111.269914078329 0.853724055794826 109.495635087195 
                               0.00147224534385603 -38.9828048197045 0.000514576156602966 73.0661999036161 0.853724055794822 109.495635087195 0.155909825339721 149.359242084472 
7.7                            0.133861915467631 -112.076396135573 0.937172395837099 48.6106396760678 0.00166997557010063 -42.2537178621981 0.00146758613347992 -42.7803123062116 
                               0.937172395837097 48.6106396760676 0.128718187319378 33.9333229299183 0.000601498295668669 -62.7657263922989 0.000551855401293784 78.0120323014376 
                               0.00166997557010063 -42.2537178621982 0.00060149829566867 -62.7657263922993 0.173396017949429 -113.846006516665 0.853410993347921 105.520659955695 
                               0.00146758613347991 -42.7803123062117 0.000551855401293764 78.0120323014366 0.853410993347918 105.520659955695 0.153335620410601 144.692598768726 
7.75                           0.131683061460608 -113.667234647822 0.937070022167125 46.5656411013149 0.00167294385401956 -46.9241076576158 0.00145953990975 -46.5908169812057 
                               0.937070022167125 46.5656411013149 0.126239229307578 31.7893109358405 0.000595949668042873 -67.9704508609026 0.0006064874824323 82.0710472875158 
                               0.00167294385401956 -46.9241076576158 0.000595949668042873 -67.9704508609027 0.169903719313423 -116.391284099789 0.853129261753574 101.542321767558 
                               0.00145953990975 -46.5908169812058 0.000606487482432297 82.0710472875161 0.853129261753572 101.542321767558 0.150441356074929 140.01939522418  
7.8                            0.129433295842266 -115.234869975723 0.93697606265939 44.5185128754786 0.00167367412192761 -51.6067092984326 0.0014480789062832 -50.4033508483617 
                               0.936976062659389 44.5185128754786 0.123682830068708 29.6268982496017 0.000590117048607735 -72.9557294162779 0.000676917263276765 84.5639982816314 
                               0.00167367412192761 -51.6067092984326 0.000590117048607735 -72.9557294162777 0.166150882642642 -118.900718685863 0.852875329606333 97.5604422259372 
                               0.0014480789062832 -50.4033508483617 0.000676917263276792 84.5639982816308 0.852875329606329 97.560442225937  0.147234126414812 135.335367446643 
7.85                           0.127112646128549 -116.778062779049 0.936883449115464 42.4693849459315 0.00167193603720903 -56.2964673617942 0.00143324395314239 -54.2063714959174 
                               0.936883449115463 42.4693849459316 0.121045228295251 27.4450646478458 0.000584307397140012 -77.7269395794203 0.000755823015991107 85.3149901027555 
                               0.00167193603720903 -56.2964673617943 0.000584307397140013 -77.7269395794199 0.162146895486024 -121.368417969558 0.852645440781369 93.574869826344  
                               0.00143324395314239 -54.2063714959174 0.000755823015991155 85.3149901027524 0.852645440781367 93.5748698263439 0.143722547697445 130.636089597467 
7.9                            0.124721185315725 -118.295320253906 0.936789657426825 40.4184352372679 0.00166753765036666 -60.9871168466232 0.00141514783242242 -57.9878603290352 
                               0.936789657426827 40.418435237268  0.118323032379538 25.2439518009939 0.000578755247732693 -82.2939829552556 0.000833982454388423 84.7088001840288 
                               0.00166753765036666 -60.9871168466232 0.000578755247732694 -82.2939829552549 0.157902616190933 -123.78739091229 0.852435659254413 89.585482004896  
                               0.00141514783242243 -57.9878603290352 0.000833982454388467 84.7088001840226 0.85243565925441 89.585482004896  0.13991682984784 125.916902346947 
7.95                           0.122259102778573 -119.784844746757 0.936694045172756 38.3657670955898 0.00166033658947334 -65.6713605545115 0.00139397818742927 -61.7353076849479 
                               0.936694045172758 38.3657670955899 0.11551498383558 23.0244750489927 0.000573627334335871 -86.668841037918 0.000905193491142826 83.3395382387679 
                               0.00166033658947334 -65.6713605545116 0.000573627334335873 -86.668841037917 0.153430745115876 -126.149226931939 0.852241919495915 85.5921872954482 
                               0.00139397818742928 -61.7353076849479 0.000905193491142843 83.3395382387596 0.852241919495912 85.5921872954482 0.135828877699558 121.172817497138 
8                              0.119726799466277 -121.244485347628 0.936596425372096 36.3114231227956 0.00165024978794789 -70.3411201550206 0.0013700023269251 -65.4354733751802 
                               0.936596425372098 36.3114231227955 0.112622185533848 20.7874837982993 0.000569032096851655 -90.8635770474798 0.000967703373008082 81.6874824622726 
                               0.00165024978794788 -70.3411201550207 0.000569032096851658 -90.8635770474787 0.148746413492796 -128.443592401808 0.852060082585361 81.594927648726  
                               0.00137000232692511 -65.4354733751802 0.00096770337300806 81.6874824622633 0.852060082585357 81.594927648726  0.131472442224446 116.398388860365 
8.05                           0.117124996893231 -122.671698872781 0.936496607292059 34.2554119180579 0.00163726108630926 -74.9878590648283 0.00134357856489834 -69.0737029324108 
                               0.936496607292061 34.255411918058  0.109647086955001 18.5331860029023 0.00056503077494691 -94.8886489048791 0.00102258835110116 80.0295714948963 
                               0.00163726108630926 -74.9878590648284 0.000565030774946913 -94.8886489048779 0.143868548178271 -130.657336142889 0.8518859977054  77.5936811990533 
                               0.00134357856489837 -69.0737029324108 0.0010225883511011 80.029571494887  0.851885997705396 77.5936811990532 0.126863368998122 111.58753666048  
8.1                            0.114454841327627 -124.063524883878 0.936394295852194 32.1977248020385 0.00162142643726211 -79.6029753114881 0.00131518359045025 -72.632307594995 
                               0.936394295852196 32.1977248020384 0.106592399548727 16.2610495497631 0.000561648713246151 -98.7512792392084 0.00107175692864726 78.4934295822507 
                               0.00162142643726211 -79.6029753114882 0.000561648713246156 -98.7512792392073 0.138824204219975 -132.772916888069 0.851715567161954 73.5884659954274 
                               0.00131518359045028 -72.632307594995 0.00107175692864717 78.4934295822416 0.851715567161951 73.5884659954274 0.122020055889842 106.733315761763 
8.15                           0.111717980829995 -125.416574623373 0.936289092293723 30.1383443434148 0.00160287716234675 -84.1782704640239 0.0012854770560808 -76.0867535303888 
                               0.936289092293726 30.1383443434147 0.103460535793274 13.9699512500336 0.000558887625893835 -102.453504191733 0.00111673432660514 77.1383309369239 
                               0.00160287716234674 -84.178270464024 0.00055888762589384 -102.453504191732 0.133663509225453 -134.76739682327 0.851544808846896 69.5793456075824 
                               0.00128547705608084 -76.0867535303888 0.00111673432660504 77.138330936915  0.851544808846892 69.5793456075826 0.116964389885105 101.827655657759 
8.2                            0.108916597092009 -126.727027050626 0.936180513778926 28.0772481728111 0.00158182299373914 -88.706526656229 0.00125545623849068 -79.3959649919284 
                               0.936180513778929 28.0772481728111 0.100253494935544 11.6583388171704 0.000556742934576768 -105.989334317694 0.00115776780966899 76.0219787106586 
                               0.00158182299373914 -88.7065266562291 0.000556742934576774 -105.989334317693 0.128493272367726 -136.627499696962 0.851369898852253 65.5664381406743 
                               0.00125545623849071 -79.3959649919284 0.0011577678096689 76.0219787106495 0.851369898852251 65.5664381406744 0.111723801321944 96.8613128889118 
8.25                           0.106053386643378 -127.99061915567 0.936068005915044 26.0144100515137 0.00155855921481784 -93.182294449833 0.00122684898638408 -82.4736998488215 
                               0.93606800591505 26.0144100515136 0.0969729498634002 9.32431717224852 0.000555237926952835 -109.340179407296 0.0011914483642286 75.2373028808613 
                               0.00155855921481784 -93.1822944498331 0.000555237926952841 -109.340179407295 0.123396271874475 -138.413028207203 0.851187148376559 61.5499309663341 
                               0.00122684898638411 -82.4736998488214 0.00119144836422856 75.2373028808527 0.851187148376559 61.5499309663341 0.106335629792327 91.8253402359435 
8.3                            0.103131502430692 -129.202615241662 0.935950931294706 23.9497990370508 0.00153348847468072 -97.6031931947937 0.00120319109132077 -85.0818505290369 
                               0.935950931294707 23.9497990370508 0.0936203762281028 6.96565839460835 0.000554506735862074 -112.467555533577 0.00120309688397407 74.6102144536046 
                               0.00153348847468072 -97.6031931947937 0.000554506735862076 -112.467555533577 0.118152427493863 -140.163405154798 0.850992800075043 57.5301035195768 
                               0.00120319109132078 -85.0818505290368 0.0012030968839741 74.6102144536019 0.850992800075045 57.5301035195766 0.100852386914738 86.7200274327448 
8.35                           0.100154479841275 -130.357742087028 0.93582850049779 21.8833774997731 0.00150718652823579 -101.972661515205 0.00119211784718933 -86.2552916395387 
                               0.935828500497793 21.883377499773  0.0901971628767898 4.57975578312458 0.000555012778074842 -115.303954514372 0.00119138328374754 72.0489892160581 
                               0.00150718652823579 -101.972661515205 0.000555012778074839 -115.303954514372 0.11270488116372 -141.753177057698 0.850782381466825 53.5073557161517 
                               0.00119211784718924 -86.2552916395405 0.00119138328374736 72.0489892160581 0.850782381466828 53.5073557161515 0.0953121786700829 81.585083177938  
8.4                            0.097126175500621 -131.450082474225 0.935699574135692 19.8151017911284 0.00148061055333538 -106.30758609678 0.00114139474198441 -79.7795609349966 
                               0.93569957413569 19.8151017911283 0.0867046928069771 2.16353667287342 0.000558114843560504 -117.756450734449 0.00123071918619158 68.2842517617897 
                               0.00148061055333539 -106.30758609678 0.000558114843560496 -117.756450734449 0.107224742654502 -143.12367978805 0.850549137372666 49.4822159588501 
                               0.00114139474198429 -79.7795609350435 0.00123071918619149 68.2842517617818 0.850549137372664 49.4822159588502 0.0895815079241648 76.4771466158278 
8.45                           0.0940507421550639 -132.472925539538 0.935562300106183 17.7449419987317 0.00145589211977947 -110.667506060177 0.00081136182062876 -91.7592340654461 
                               0.935562300106184 17.7449419987315 0.083144400851512 -0.286661717551402 0.000567251467940074 -119.800988983365 0.001287413140806 66.0538205563913 
                               0.00145589211977949 -110.667506060177 0.000567251467940063 -119.800988983363 0.101808195952102 -144.268076328412 0.85028123515249 45.4552310629766 
                               0.000811361820628947 -91.7592340653966 0.00128741314080601 66.0538205563864 0.850281235152489 45.4552310629767 0.083526886979164 71.2498040521011 
8.5                            0.0909326527604946 -133.418576106359 0.935414189367943 15.6729518243668 0.00144088781515025 -115.344686575409 0.000861329853870553 -100.142927587139 
                               0.935414189367943 15.6729518243666 0.0795178172221735 -2.77525803452417 0.000588282320718072 -121.873688926748 0.00133580153894122 64.3862224685691 
                               0.00144088781515034 -115.344686575409 0.000588282320718068 -121.873688926745 0.0965055991111583 -145.176881608774 0.84995991097528 41.4265449829915 
                               0.000861329853870446 -100.142927587129 0.00133580153894124 64.386222468567  0.84995991097528 41.4265449829912 0.0773828447034398 65.7695251166775 
8.55                           0.0877767769680573 -134.278125642838 0.935254377909916 13.5993163999303 0.00149886822377064 -128.125829992374 0.000854541742088348 -103.478799541786 
                               0.935254377909916 13.5993163999303 0.0758266048650781 -5.30764649716414 0.000620913480870639 -125.206387217244 0.00137758642904103 62.7982724957529 
                               0.00149886822377168 -128.12582999242 0.000620913480870645 -125.206387217243 0.091357683276607 -145.835136171234 0.849566778749283 37.3952397652078 
                               0.000854541742088297 -103.478799541784 0.00137758642904104 62.7982724957523 0.849566778749284 37.3952397652076 0.0712853153918355 60.0580786133551 
8.6                            0.0845885072018493 -135.04118547033 0.935085580883963 11.5241379567181 0.00126955764565979 -120.737526990692 0.000826885847117372 -106.296548298097 
                               0.935085580883961 11.5241379567179 0.0720725970964991 -7.89049132052188 0.000648160227759724 -130.167228191708 0.00141510413458418 61.1747976011015 
                               0.00126955764565977 -120.737526990692 0.000648160227759718 -130.167228191708 0.0864036396982163 -146.226169254147 0.849103414129389 33.3595690883845 
                               0.000826885847117353 -106.296548298097 0.00141510413458419 61.1747976011017 0.84910341412939 33.3595690883845 0.0652537297519235 54.1124845277143 
8.65                           0.08137393033808 -135.695579923981 0.934909850411164 9.44727344026093 0.00127110308056585 -125.162825679838 0.000790874897892783 -108.948473099487 
                               0.934909850411165 9.44727344026095 0.0682578413300239 -10.5321278525224 0.000660430919674089 -135.350022233239 0.00144947777963472 59.4870177589042 
                               0.00127110308056581 -125.162825679838 0.000660430919674065 -135.350022233239 0.0816816585855624 -146.334361506954 0.848595549679392 29.3187379417296 
                               0.000790874897892779 -108.948473099488 0.00144947777963472 59.4870177589047 0.848595549679392 29.3187379417296 0.0593037399085832 47.8887209807813 
8.7                            0.0781400435130641 -136.226994924032 0.934726073034891 7.36856505855553 0.00124684936156705 -129.140796781258 0.000750678194516242 -111.474160883022 
                               0.934726073034889 7.36856505855551 0.0643846551980668 -13.2431193543083 0.000664922964673705 -139.934603677621 0.00148117071800789 57.7268551124225 
                               0.00124684936156702 -129.140796781258 0.00066492296467368 -139.93460367762 0.0772279420900063 -146.147284626075 0.848067115153644 25.27371220238   
                               0.00075067819451625 -111.474160883024 0.00148117071800789 57.7268551124233 0.848067115153647 25.27371220238   0.0534631040654119 41.3141506060713 
8.75                           0.0748950170767198 -136.618577177659 0.934532254450616 5.2879590398291  0.00121721107230184 -132.949603984917 0.000708043079417537 -113.866024531723 
                               0.934532254450616 5.2879590398291  0.0604557032911274 -16.0370453535663 0.000668176221591955 -143.979560932254 0.00151032269770385 55.8917385418924 
                               0.00121721107230181 -132.949603984917 0.000668176221591933 -143.979560932252 0.073075429093822 -145.657686584528 0.84752426140473 21.2260067255664 
                               0.00070804307941755 -113.866024531725 0.00151032269770385 55.8917385418932 0.847524261404731 21.2260067255661 0.047769687528541 34.2857821192228 
8.8                            0.0716485127198249 -136.85048231005 0.934326820310187 3.20545544442986 0.00118566805970208 -136.659855279606 0.000663834870365822 -116.102461724017 
                               0.934326820310183 3.20545544442975 0.0564741066929246 -18.9316421044371 0.000672534586770288 -147.694105426037 0.00153690636288302 53.9806633848907 
                               0.00118566805970205 -136.659855279606 0.000672534586770271 -147.694105426035 0.0692524648834613 -144.865440502702 0.846962509757928 17.1766984351415 
                               0.000663834870365839 -116.102461724019 0.00153690636288303 53.9806633848917 0.846962509757929 17.1766984351415 0.0422709585681953 26.6597697212932 
8.85                           0.068412069389747 -136.899378506858 0.934108611735693 1.12106676466075 0.00115332219567701 -140.302060855218 0.000618542798201092 -118.151703060571 
                               0.934108611735694 1.12106676466095 0.0524436047783877 -21.9504916424077 0.000678499683564727 -151.223079421518 0.00156080170417874 51.9930659810699 
                               0.00115332219567698 -140.302060855218 0.000678499683564715 -151.223079421516 0.0657814712764795 -143.779339661684 0.846375958864207 13.1263704152433 
                               0.000618542798201109 -118.151703060574 0.00156080170417874 51.9930659810708 0.846375958864208 13.1263704152432 0.0370263563141382 18.2342751102769 
8.9                            0.0651995730556423 -136.737928929563 0.933876686875908 -0.965194504205848 0.00112061616820275 -143.895664405211 0.000572483399516527 -119.969320175417 
                               0.933876686875907 -0.965194504205653 0.0483688020262738 -25.1255893364602 0.000686037021143 -154.650141429517 0.00158183404719809 49.9284805196618 
                               0.00112061616820273 -143.895664405211 0.000686037021142992 -154.650141429515 0.0626776752600291 -142.418458972418 0.845760668916223 9.07533186805589 
                               0.000572483399516543 -119.969320175421 0.00158183404719809 49.9284805196627 0.845760668916224 9.0753318680559  0.0321127351157833 8.72665012347596 
8.95                           0.0620278276854408 -136.334306542667 0.933630201729486 -3.05331753437284 0.00108772683635342 -147.456484014994 0.000525900493274844 -121.492645152802 
                               0.933630201729487 -3.05331753437284 0.0442555573572628 -28.5013621267841 0.000694999575881209 -158.023436820636 0.00159979521265556 47.7864286237416 
                               0.00108772683635339 -147.456484014993 0.000694999575881204 -158.023436820635 0.0599479992244414 -140.81270977193 0.845114894194365 5.02377208459367 
                               0.000525900493274861 -121.492645152806 0.00159979521265557 47.7864286237424 0.845114894194364 5.02377208459383 0.0276334440013409 -2.24827906253942 
9                              0.0589172419724456 -135.651847213666 0.933368355734943 -5.14329245971756 0.00105468815141074 -150.999095673769 0.00047902883888812 -122.631752236982 
                               0.933368355734941 -5.14329245971765 0.040111621382207 -32.1411657388226 0.000705241229334968 -161.372141565945 0.00161445659267535 45.5663781690299 
                               0.00105468815141072 -150.999095673769 0.000705241229334965 -161.372141565944 0.0575902614386588 -139.002227649588 0.844438551144464 0.971828357229567 
                               0.000479028838888134 -122.631752236986 0.00161445659267535 45.5663781690305 0.844438551144465 0.971828357229389 0.0237305725142411 -15.1701752693275 
9.05                           0.0558926355606572 -134.649032056643 0.933090368912752 -7.23510951519237 0.00102143668585829 -154.537593454067 0.000432150756770096 -123.25525623304 
                               0.933090368912751 -7.23510951519226 0.0359477237914918 -36.1381808855646 0.000716639330866462 -164.715267595759 0.00162557825335264 43.2677183323139 
                               0.00102143668585828 -154.537593454067 0.00071663933086646 -164.715267595758 0.0555928533528727 -137.035389239928 0.843732709342388 -3.08039179191113 
                               0.000432150756770109 -123.255256233045 0.00162557825335264 43.2677183323145 0.843732709342388 -3.08039179191112 0.0205938618527719 -30.4937184059535 
9.1                            0.0529841430064571 -133.280119540123 0.932795472738416 -9.32875841575796 0.000987829825424239 -158.085626087544 0.000385665396742738 -123.167958476384 
                               0.932795472738413 -9.32875841575794 0.0317795193660385 -40.6344383389983 0.00072909309284823 -168.066219888129 0.00163291609677166 40.8897315882539 
                               0.000987829825424227 -158.085626087543 0.000729093092848228 -168.066219888128 0.0539350283020664 -134.965543504919 0.84299923089494 -7.13280725689541 
                               0.000385665396742747 -123.16795847639 0.00163291609677166 40.8897315882543 0.84299923089494 -7.13280725689559 0.0184433069851378 -48.2862224669836 
9.15                           0.0502281429668278 -131.496925045769 0.932482906845052 -11.4242279612136 0.000953653241131714 -161.655934768067 0.000340192973152585 -122.076456920381 
                               0.932482906845052 -11.4242279612135 0.0276312656014205 -45.8554900465586 0.000742516809615727 -171.435187960763 0.00163622812592767 38.4315538503154 
                               0.000953653241131704 -161.655934768066 0.000742516809615726 -171.435187960762 0.0525878484610638 -132.846881351856 0.842240525113045 -11.1853666731791 
                               0.000340192973152588 -122.076456920386 0.00163622812592768 38.4315538503157 0.842240525113045 -11.1853666731791 0.0174482096257679 -67.6965771181176 
9.2                            0.0476680507599665 -129.252442484145 0.932151918191591 -13.5215057972094 0.000918624926306819 -165.259372512196 0.000296747329047494 -119.541265976629 
                               0.932151918191592 -13.5215057972092 0.0235432115642416 -52.1762059581633 0.000756832933129477 -174.830429154232 0.00163528035215429 35.8921168801909 
                               0.000918624926306815 -165.259372512196 0.000756832933129475 -174.830429154232 0.0515157138130189 -130.730117230871 0.841459372493975 -15.2380535759684 
                               0.000296747329047494 -119.541265976635 0.00163528035215429 35.8921168801911 0.841459372493973 -15.2380535759684 0.017600114935667 -86.9662295353107 
9.25                           0.0453546746791067 -126.507115957341 0.931801761259669 -15.6205782762308 0.000882400660483489 -168.903257580434 0.000257022178533937 -114.932927982032 
                               0.931801761259666 -15.6205782762307 0.0195874290423267 -60.248476598896 0.000771966065053257 -178.258967068004 0.00162985260987028 33.2700673636273 
                               0.00088240066048349 -168.903257580434 0.000771966065053256 -178.258967068004 0.0506782804085107 -128.658699852042 0.84065878606801 -19.2908916026238 
                               0.000257022178533934 -114.932927982038 0.00162985260987028 33.2700673636274 0.840658786068009 -19.2908916026239 0.0186740020359994 -104.45827573365 
9.3                            0.0433456622550116 -123.238361434171 0.931431698655277 -17.7214303816014 0.000844585881352583 -172.588823810407 0.000223800329388314 -107.486032606068 
                               0.931431698655274 -17.7214303816013 0.0159035265712517 -71.2363977713912 0.000787837872626004 178.273032545703 0.00161974438355451 30.5636562235887 
                               0.000844585881352588 -172.588823810406 0.000787837872626002 178.273032545703 0.0500325088152033 -126.666082657964 0.839841891165463 -23.3439491231535 
                               0.000223800329388309 -107.486032606074 0.00161974438355451 30.5636562235886 0.83984189116546 -23.3439491231536 0.020342431228677 -119.532934689915 
9.35                           0.0417034206310072 -119.45302626265 0.931041001839071 -19.8240456915382 0.000804760156625681 -176.3074718739  0.000201221679055038 -96.7245168923937 
                               0.93104100183907 -19.824045691538 0.0127774956572481 -87.09495790231  0.000804362730599775 174.760073726782 0.00160478065497871 27.7705902516082 
                               0.000804760156625689 -176.3074718739  0.000804362730599772 174.760073726782 0.0495345894364067 -124.774254153603 0.8390118130376  -27.3973431082282 
                               0.00020122167905503 -96.7245168923978 0.00160478065497871 27.7705902516081 0.839011813037598 -27.3973431082281 0.0223072703834639 -132.378852720389 
9.4                            0.0404909463344971 -115.200538853127 0.930628951861468 -21.9284063691337 0.000762521763035302 179.964469629503 0.000193928859850049 -83.475276554156 
                               0.930628951861466 -21.9284063691335 0.0107630302839973 -109.885162839732 0.000821443921302843 171.197258960435 0.00158481772182113 24.8878359975818 
                               0.000762521763035314 179.964469629503 0.00082144392130284 171.197258960435 0.0491415606551418 -122.993392082088 0.838171566645274 -31.4512421864282 
                               0.000193928859850044 -83.4752765541586 0.00158481772182113 24.8878359975816 0.838171566645273 -31.4512421864284 0.0243486393826213 -143.480816087893 
9.45                           0.0397654690672657 -110.581898636144 0.930194840046302 -24.034493169492 0.00071755984810703 176.272623546317 0.000204301811065227 -70.3298584667328 
                               0.930194840046301 -24.034493169492 0.0105704229750445 -137.450285612565 0.000838970310647161 167.580295746847 0.00155974891289006 21.9113628645963 
                               0.000717559848107047 176.272623546317 0.000838970310647157 167.580295746846 0.0488125389781963 -121.322273321815 0.837323945683865 -35.5058688816524 
                               0.000204301811065221 -70.329858466734 0.00155974891289006 21.911362864596  0.837323945683861 -35.5058688816527 0.0263169423512151 -153.312234066049 
9.5                            0.0395707970423433 -105.748147454494 0.929737968597749 -26.1422854584594 0.000669757988379799 172.69284794295  0.000230457064423902 -59.8551611533828 
                               0.929737968597748 -26.1422854584593 0.012326317668054 -161.790577260517 0.000856813510067968 163.905558876746 0.00152951012869878 18.8358081338297 
                               0.000669757988379815 172.692847942949 0.000856813510067963 163.905558876745 0.0485095863817954 -119.748978651764 0.836471409463022 -39.5615010255685 
                               0.0002304570644239 -59.8551611533848 0.00152951012869878 18.8358081338294 0.836471409463017 -39.5615010255685 0.0281116048428222 -162.24722276942 
9.55                           0.0399303883338805 -100.88422204104 0.929257651119114 -28.2517612393259 0.000619323077181915 169.339930131531 0.00026803622734449 -52.8393340477368 
                               0.929257651119114 -28.2517612393257 0.0154070602337671 -179.089351537914 0.000874825620462619 160.17019445251  0.00149408517166931 15.6540406210474 
                               0.00061932307718193 169.33993013153  0.000874825620462613 160.170194452509 0.0481983314703039 -118.251448439078 0.835615967143361 -43.6184723334363 
                               0.000268036227344491 -52.839334047738 0.0014940851716693 15.654040621047  0.835615967143356 -43.6184723334364 0.0296637194762326 -170.562749558316 
9.6                            0.0408435969094523 -96.1808191700527 0.928753213038632 -30.3628971850601 0.000566916629166674 166.374469394269 0.000312911177377325 -48.7850454935092 
                               0.928753213038632 -30.36289718506  0.0192065781758544 169.016235541508 0.000892837730042478 156.372255267311 0.00145351090343228 12.3565910009631 
                               0.000566916629166688 166.374469394267 0.000892837730042471 156.37225526731  0.0478485390853687 -116.797515990202 0.834759059351827 -47.6771721231069 
                               0.000312911177377327 -48.7850454935104 0.00145351090343228 12.3565910009627 0.834759059351824 -47.6771721231068 0.0309248526913306 -178.462103074272 
9.65                           0.0422865631638842 -91.8040619136839 0.928223991940436 -32.4756686743608 0.000513746329648759 164.003995560818 0.000362092223478365 -46.9159730048345 
                               0.928223991940435 -32.4756686743607 0.0233931801225751 160.402878366833 0.000910659398765508 152.510857924809 0.00140788238632307 8.93090432671421 
                               0.000513746329648767 164.003995560816 0.000910659398765499 152.510857924808 0.0474349048536921 -115.344125259819 0.833901437522353 -51.7380441490965 
                               0.000362092223478369 -46.9159730048356 0.00140788238632307 8.93090432671381 0.833901437522346 -51.7380441490968 0.0318604740795781 173.902548889865 
9.7                            0.0442172548047058 -87.8741867372064 0.927669337800235 -34.5900498302708 0.000461565195666264 162.472158252256 0.000413531096450706 -46.5918018875319 
                               0.927669337800235 -34.5900498302707 0.0278045837418251 153.746671923824 0.000928079399466006 148.586351105466 0.0013573583457385 5.36035224379834 
                               0.000461565195666269 162.472158252253 0.000928079399465996 148.586351105465 0.0469384654312473 -113.835519845873 0.833043041535099 -55.8015845168833 
                               0.000413531096450715 -46.5918018875342 0.0013573583457385 5.36035224379796 0.833043041535094 -55.8015845168833 0.0324463694148003 166.412899807738 
9.75                           0.0465825793564174 -84.4588215527794 0.927088613125983 -36.7060135603858 0.000412535734314817 162.027443064458 0.000465766526963737 -47.3587562272154 
                               0.927088613125985 -36.7060135603857 0.0323580261962792 148.305073327973 0.000944867988383157 144.600482387449 0.00130216755101721 1.62291663295639 
                               0.000412535734314817 162.027443064455 0.000944867988383147 144.600482387449 0.0463491980514115 -112.200318939857 0.832182876413498 -59.8683386368954 
                               0.00046576652696374 -47.3587562272176 0.00130216755101721 1.622916632956   0.832182876413494 -59.8683386368954 0.03266693217878 158.971900606414 
9.8                            0.0493252529504122 -81.5788207431807 0.926481193004227 -38.8235315978768 0.000368947020944224 162.862492932833 0.000517681149874018 -48.9054432166076 
                               0.926481193004227 -38.8235315978768 0.0370078830298658 143.6548769892   0.000960780932403386 140.556548658678 0.00124261709018991 -2.31057969592172 
                               0.000368947020944217 162.862492932831 0.000960780932403377 140.556548658678 0.0456706702964708 -110.347722907891 0.831318889018722 -63.9388971729636 
                               0.000517681149874024 -48.9054432166085 0.00124261709018991 -2.31057969592206 0.831318889018717 -63.9388971729636 0.032514668551666 151.494252669378 
9.85                           0.0523889765883447 -79.2205716243669 0.925846465053206 -40.9425745426639 0.000332811542480322 165.02433287419  0.000568368705631993 -51.0156000669431 
                               0.925846465053205 -40.9425745426639 0.0417269213572853 139.54416540572  0.000975565415830951 136.45951310564  0.00117910406613595 -6.47886820891399 
                               0.000332811542480316 165.024332874188 0.000975565415830943 136.45951310564  0.0449279966047889 -108.163966402705 0.830447845879526 -68.0138909362581 
                               0.000568368705631999 -51.0156000669446 0.00117910406613595 -6.47886820891428 0.830447845879518 -68.0138909362583 0.0319905284982304 143.898544830992 
9.9                            0.0557215578605091 -77.3490983926448 0.925183829284071 -43.0631119021641 0.000305415791305963 168.326209443075 0.000617070781143109 -53.5345458902468 
                               0.925183829284072 -43.0631119021641 0.0464976559029935 135.815914795386 0.000988967781711841 132.316070794825 0.00111213306041271 -10.9334882884838 
                               0.00030541579130596 168.326209443074 0.000988967781711835 132.316070794825 0.0441807235412516 -105.512268350782 0.829565213527347 -72.093984673126 
                               0.000617070781143112 -53.5345458902481 0.00111213306041271 -10.933488288484 0.829565213527344 -72.0939846731261 0.0311048456293586 136.099804270924 
9.95                           0.0592763154664335 -75.9187761900107 0.924492697872014 -45.1851121310853 0.000286971207891499 172.332810022811 0.000663152088948767 -56.3477412101407 
                               0.924492697872016 -45.1851121310855 0.0513081067568281 132.368045864496 0.00100074283998518 128.134645730084 0.00104234293235399 -15.7431884394937 
                               0.000286971207891499 172.33281002281  0.00100074283998518 128.134645730084 0.0435420148483527 -102.243994094931 0.828665042982398 -76.1798696941443 
                               0.000663152088948773 -56.3477412101411 0.00104234293235399 -15.7431884394938 0.828665042982395 -76.1798696941444 0.0298787897888094 128.001361001103 
10                             0.0630123333627846 -74.8807535196604 0.923772494839394 -47.3085426697785 0.000276563728775 176.476902839901 0.000706094937848227 -59.3675256228756 
                               0.923772494839394 -47.3085426697785 0.0561495858745213 129.131712705234 0.0010106642220334 123.925305571115 0.000970548312322615 -20.9997666616167 
                               0.000276563728775004 176.476902839899 0.0010106642220334 123.925305571115 0.0432029823097614 -98.2358066003822 0.827739860362756 -80.2722552926149 
                               0.000706094937848235 -59.3675256228758 0.00097054831232262 -20.9997666616167 0.827739860362755 -80.2722552926149 0.0283463561229264 119.484979556869 
