! Touchstone file exported from HFSS 3D Layout Design 2026.1.0
!        File:           D:/Work/SIM/ADS_AUTO_SIM/projects/RFSOC_RF/TX_Fillter.aedt
!        Generated:      03:46:40 AM Aug 31, 2026
!        Design:         TX_BAND1_MCFIL_R40_CNN022
!        Project:        TX_Fillter
!
# GHz S MA R 50.000000
! Terminal data exported
! Port[1] = Port1
! Port[2] = Port2
14                             0.973238270116333 -164.899128382428 0.00364128163522329 -178.647844546515 0.00364128163522329 -178.647844546515 0.974295406456217 -162.277208477848 
14.05                          0.972750400193633 -165.784611418274 0.00371193588417506 -179.048916290297 0.00371193588417503 -179.048916290297 0.973840145918624 -163.1454811535  
14.1                           0.972247278291629 -166.67604717361 0.00378593848718377 -179.429387177448 0.00378593848718374 -179.429387177448 0.973371068684776 -164.019233363962 
14.15                          0.971728150607861 -167.57362102417 0.00386355347565787 -179.788810617076 0.00386355347565783 -179.788810617076 0.972887505114092 -164.898625949235 
14.2                           0.971192212990983 -168.47752824535 0.00394507084362686 179.873222373585 0.00394507084362683 179.873222373586 0.972388741400181 -165.783828217017 
14.25                          0.97063860672089 -169.387974666927 0.00403080940938981 179.557075327044 0.00403080940938976 179.557075327045 0.971874015901044 -166.675018495098 
14.3                           0.970066413861185 -170.305177380416 0.00412112001498491 179.263057627236 0.00412112001498486 179.263057627237 0.971342515099459 -167.572384727557 
14.35                          0.969474652132925 -171.229365504146 0.0042163891052467 178.991414924115 0.00421638910524664 178.991414924116 0.970793369149476 -168.476125118917 
14.4                           0.968862269251496 -172.160781011711 0.00431704273369443 178.742318643022 0.00431704273369438 178.742318643023 0.970225646958944 -169.386448830909 
14.45                          0.968228136660331 -173.099679630087 0.00442355104878692 178.515854587145 0.00442355104878688 178.515854587146 0.969638350750925 -170.303576737028 
14.5                           0.967571042585735 -174.046331814449 0.00453643332133612 178.312010651802 0.00453643332133607 178.312010651801 0.969030410038744 -171.227742240629 
14.55                          0.966889684326056 -175.001023807541 0.00465626358227754 178.130663693884 0.0046562635822775 178.130663693885 0.968400674939932 -172.159192163009 
14.6                           0.966182659675689 -175.964058792394 0.00478367694977782 177.971565628673 0.00478367694977777 177.971565628673 0.967747908743321 -173.09818770867 
14.65                          0.965448457369385 -176.935758148236 0.00491937673609336 177.834328858945 0.0049193767360933 177.834328858945 0.967070779630674 -174.045005515812 
14.7                           0.964685446414896 -177.916462820663 0.00506414243802326 177.718411177621 0.00506414243802322 177.718411177621 0.966367851439146 -174.999938801102 
14.75                          0.963891864161376 -178.906534818511 0.00521883873063996 177.623100323835 0.00521883873063995 177.623100323836 0.965637573333213 -175.96329860885 
14.8                           0.963065802926852 -179.906358851424 0.00538442560274603 177.547498412135 0.005384425602746 177.547498412135 0.96487826823387 -176.93541517601 
14.85                          0.962205194979466 179.083655876088 0.00556196979481877 177.490506493413 0.00556196979481874 177.490506493413 0.96408811982833 -177.916639425845 
14.9                           0.961307795633516 178.063073696245 0.00575265772683076 177.450809541867 0.00575265772683074 177.450809541867 0.963265157954405 -178.907344604762 
14.95                          0.960371164181184 177.031430315095 0.00595781013519629 177.426862191663 0.00595781013519624 177.426862191663 0.962407242119221 -179.90792807867 
15                             0.95939264233323 175.988230432226 0.00617889867632029 177.41687556691  0.00617889867632029 177.41687556691  0.961512042870872 179.081186692618 
15.05                          0.958369329784956 174.932945117167 0.00641756480017524 177.41880555526  0.00641756480017519 177.41880555526  0.960577020692557 178.059547981973 
15.1                           0.957298056455653 173.86500891301  0.00667564125265306 177.430342865457 0.00667564125265304 177.430342865457 0.959599402030055 177.026673398758 
15.15                          0.956175350867839 172.783816633728 0.00695517663213157 177.448905179072 0.00695517663213156 177.448905179072 0.958576151992797 175.982047242865 
15.2                           0.95499740403397 171.688719817    0.00725846350617156 177.471631653744 0.00725846350617155 177.471631653744 0.957503943183777 174.925117578321 
15.25                          0.953760028099067 170.579022789027 0.00758807069146923 177.495379957811 0.00758807069146921 177.495379957811 0.956379120010701 173.855292991586 
15.3                           0.952458608842961 169.453978291647 0.00794688041770514 177.516725913764 0.0079468804177051 177.516725913764 0.955197657705957 172.771938994872 
15.35                          0.951088050969811 168.312782615038 0.00833813123814227 177.5319657017   0.00833813123814228 177.5319657017   0.953955115131038 171.674374029333 
15.4                           0.949642714897349 167.154570171225 0.00876546772212102 177.537120426767 0.00876546772212099 177.537120426767 0.952646580255412 170.561865016737 
15.45                          0.94811634349465 165.978407434398 0.00923299817362553 177.527942690905 0.00923299817362548 177.527942690905 0.951266606972087 169.433622401221 
15.5                           0.946501976892736 164.783286163621 0.0097453618741011 177.499924635119 0.00974536187410106 177.499924635119 0.949809141632017 168.288794614789 
15.55                          0.944791853091796 163.568115811719 0.0103078076569301 177.448306740648 0.01030780765693 177.448306740647 0.948267437333382 167.126461891414 
15.6                           0.942977291592481 162.33171501094  0.0109262859982053 177.36808650294  0.0109262859982053 177.368086502939 0.946633953572942 165.945629344964 
15.65                          0.941048556661546 161.072802011518 0.0116075572696096 177.254025927516 0.0116075572696095 177.254025927516 0.944900238333087 164.745219215715 
15.7                           0.938994696072046 159.789983933585 0.0123593193642043 177.100656646503 0.0123593193642043 177.100656646503 0.943056789012328 163.524062179411 
15.75                          0.93680335019411 158.481744676532 0.0131903585995021 176.902281321171 0.013190358599502 176.902281321171 0.941092887772946 162.280887602047 
15.8                           0.93446052510131 157.146431313759 0.0141107286550474 176.652969878572 0.0141107286550474 176.652969878572 0.938996405831706 161.014312613846 
15.85                          0.931950321832202 155.782238786266 0.0151319633516969 176.346549024885 0.0151319633516968 176.346549024885 0.93675356989929 159.722829868836 
15.9                           0.929254612020157 154.387192698408 0.0162673303730674 175.976583376399 0.0162673303730674 175.976583376399 0.934348682306516 158.404793854621 
15.95                          0.926352647666842 152.959130017592 0.0175321346218019 175.536346439278 0.0175321346218018 175.536346439278 0.931763784244868 157.058405624588 
16                             0.923220589746133 151.495677493841 0.0189440818598339 175.018779536486 0.0189440818598339 175.018779536486 0.928978248874808 155.681695848545 
16.05                          0.919830936411211 149.994227656146 0.0205237156771466 174.416436607039 0.0205237156771465 174.41643660704  0.925968287666959 154.272506128237 
16.1                           0.916151826623898 148.45191232846  0.0222949437473216 173.72141257021  0.0222949437473216 173.72141257021  0.922706349054068 152.828468617896 
16.15                          0.912146188777239 146.865573767728 0.0242856728364626 172.925252636747 0.0242856728364625 172.925252636747 0.919160383067268 151.346984153206 
16.2                           0.907770696053055 145.231733805188 0.0265285761881134 172.018839544262 0.0265285761881134 172.018839544262 0.915292938864597 149.825199365803 
16.25                          0.902974480556312 143.546561843094 0.0290620217041233 170.992255184576 0.0290620217041232 170.992255184576 0.911060053690683 148.259983709697 
16.3                           0.897697546476183 141.805843338235 0.0319311946447905 169.834612479657 0.0319311946447905 169.834612479658 0.90640988165806 146.647908053007 
16.35                          0.891868808640409 140.004951676831 0.0351894539915395 168.533852676666 0.0351894539915395 168.533852676666 0.901280998842689 144.98522765499  
16.4                           0.885403667389791 138.138828410319 0.0388999662852043 167.07650254295  0.0388999662852043 167.07650254295  0.895600308055402 143.267874210634 
16.45                          0.878201015383788 136.201980156296 0.0431376629390196 165.44738540047  0.0431376629390196 165.44738540047  0.889280453838131 141.491464608767 
16.5                           0.870139560748364 134.188505841561 0.0479915634574205 163.629279840174 0.0479915634574205 163.629279840174 0.882216649365235 139.651338756223 
16.55                          0.861073352376905 132.092176607464 0.0535674917354919 161.60252084283  0.0535674917354919 161.60252084283  0.874282819644781 137.742646279674 
16.6                           0.850826424161615 129.906604580119 0.059991175225095 159.344540870712 0.059991175225095 159.344540870712 0.865326994894335 135.760513701059 
16.65                          0.839186568055274 127.625558939222 0.0674116393805199 156.829354961017 0.0674116393805199 156.829354961018 0.855165973205335 133.700342195127 
16.7                           0.82589846169132 125.243523110802 0.0760046629481711 154.027006770274 0.0760046629481711 154.027006770274 0.84357946614472 131.558314821359 
16.75                          0.810656823547306 122.75664261914  0.0859757968570389 150.903016473054 0.0859757968570389 150.903016473054 0.830304340126876 129.33223605445  
16.8                           0.793101134288681 120.164299016706 0.0975620026971752 147.417913461439 0.0975620026971752 147.417913461439 0.815030332258101 127.022891296112 
16.85                          0.772815048313638 117.471672722235 0.1110302495474  143.527006846148 0.1110302495474  143.527006846148 0.797400007898063 124.636204045666 
16.9                           0.749336358021103 114.693833089929 0.126670343569422 139.180656473544 0.126670343569421 139.180656473544 0.777018092072345 122.186578176034 
16.95                          0.722187747700366 111.862098878856 0.144777878877713 134.32546424203  0.144777878877713 134.32546424203  0.753478998255183 119.701906002258 
17                             0.690944720942807 109.033546580687 0.165621841121487 128.90699757788  0.165621841121486 128.90699757788  0.726426334222683 117.230682345638 
17.05                          0.655363648615969 106.304291591756 0.18939115661846 122.874816893554 0.189391156618459 122.874816893554 0.695662804410716 114.851192288743 
17.1                           0.615594480698395 103.82571229047  0.216117686016135 116.190529788873 0.216117686016135 116.190529788873 0.661327882236441 112.681204806659 
17.15                          0.572485826818887 101.818370340136 0.245583252139951 108.839009432731 0.245583252139951 108.839009432731 0.624141723482454 110.882983740458 
17.2                           0.527930536203807 100.56823032697  0.277237326330962 100.841412678804 0.277237326330962 100.841412678804 0.585658501536498 109.652000356174 
17.25                          0.485072544051036 100.373316556801 0.310174126215915 92.266219962962  0.310174126215915 92.266219962962  0.548372110339646 109.17120139055  
17.3                           0.448026375839148 101.402012445645 0.343222712726124 83.2323400099639 0.343222712726124 83.2323400099639 0.515422097996417 109.518782528357 
17.35                          0.420748602666497 103.481414462539 0.375164985049024 73.8988446954694 0.375164985049024 73.8988446954693 0.489722149892368 110.558210244177 
17.4                           0.405249264899396 105.991179941821 0.405017403528251 64.4409895756261 0.405017403528251 64.440989575626  0.472753969463504 111.904549167336 
17.45                          0.400354256373112 108.085747745994 0.432251573636257 55.0197643962489 0.432251573636257 55.0197643962488 0.463799355501066 113.050611635668 
17.5                           0.402241517206686 109.120436201824 0.456853353495984 45.7563813650075 0.456853353495984 45.7563813650074 0.460254232415712 113.583712542742 
17.55                          0.406255945628459 108.871289559861 0.479217090464073 36.7200073341748 0.479217090464073 36.7200073341747 0.458747425805504 113.317730799121 
17.6                           0.408444015342224 107.441602707744 0.499954213761559 27.9295859764616 0.499954213761558 27.9295859764614 0.456206869610032 112.275591584209 
17.65                          0.406107928204987 105.074251001633 0.519706087577661 19.3648601565331 0.51970608757766 19.364860156533  0.450376368781154 110.601096943259 
17.7                           0.397688633468752 102.030510088578 0.539010335317168 10.9805322948239 0.539010335317167 10.9805322948238 0.43986000726389 108.485214179176 
17.75                          0.382449628336224 98.5499663996166 0.558226742301714 2.71942919929083 0.558226742301712 2.71942919929076 0.42396784919399 106.133107565233 
17.8                           0.360212531180881 94.8587454101979 0.577507985713211 -5.47701098824743 0.57750798571321 -5.47701098824748 0.40255913438349 103.763962542258 
17.85                          0.331215292572793 91.2038333728917 0.596799124352114 -13.6610302639886 0.596799124352113 -13.6610302639886 0.375965537388351 101.63135022418  
17.9                           0.29609186998631 87.9116289693839 0.615856764960004 -21.8731472952202 0.615856764960003 -21.8731472952202 0.345013347967976 100.05717312862  
17.95                          0.255968457591442 85.4909284384881 0.634285759959555 -30.1386456208425 0.634285759959555 -30.1386456208425 0.311142391681009 99.4744082862021 
18                             0.212720356616635 84.8352559172211 0.651594240158076 -38.4658363093419 0.651594240158076 -38.465836309342 0.276613093923375 100.462138313961 
18.05                          0.169579703390436 87.6280145645457 0.667265679479166 -46.8462241097981 0.667265679479166 -46.8462241097981 0.244753321179874 103.706891034917 
18.1                           0.132575679386004 96.8606977671782 0.68084061171305 -55.256727318707 0.68084061171305 -55.2567273187072 0.220003860898073 109.713566694897 
18.15                          0.112452816170781 115.077086708144 0.691993800351169 -63.6638428957115 0.69199380035117 -63.6638428957117 0.207074087270452 118.097299915036 
18.2                           0.119026287874612 135.970338567026 0.700589587090235 -72.0292036498792 0.700589587090235 -72.0292036498793 0.20862649764787 127.051796724439 
18.25                          0.146985008504719 149.007411919441 0.706702012993394 -80.3155654746831 0.706702012993394 -80.3155654746832 0.223239232323124 134.319710732327 
18.3                           0.183898608289867 153.914561914331 0.71059635995192 -88.4921243086999 0.710596359951921 -88.4921243087001 0.246470963237559 138.786425845495 
18.35                          0.22202699839565 154.040360183511 0.712680213769116 -96.5382896271533 0.712680213769116 -96.5382896271534 0.273585181063606 140.594616502307 
18.4                           0.257679209135123 151.564799396507 0.713439425171441 -104.44552496318 0.713439425171441 -104.44552496318 0.301018159283926 140.367144778097 
18.45                          0.289097378369252 147.609709058389 0.713374853837768 -112.217377480431 0.713374853837768 -112.217377480431 0.326491590788655 138.708968831144 
18.5                           0.315460889824111 142.74938772057  0.712950982017816 -119.868162596709 0.712950982017816 -119.868162596709 0.348689002340702 136.072974736874 
18.55                          0.336454286858182 137.283480492418 0.71256092321169 -127.420879324194 0.712560923211691 -127.420879324194 0.366936842860226 132.769595670588 
18.6                           0.352056721584857 131.365847987103 0.71250704022785 -134.904858081131 0.712507040227851 -134.904858081131 0.380977428915017 129.005060332182 
18.65                          0.36242900777579 125.066991956939 0.712993562782231 -142.353483332789 0.712993562782232 -142.353483332789 0.390822213674232 124.914941024944 
18.7                           0.367853305276229 118.405702434794 0.714127001099378 -149.802172217273 0.71412700109938 -149.802172217273 0.396662349286209 120.587888646503 
18.75                          0.368706757493545 111.365583611819 0.715920902134116 -157.28667229134 0.715920902134118 -157.28667229134 0.398818402405522 116.081074595282 
18.8                           0.365459657446828 103.903671001903 0.718302734050803 -164.841677698533 0.718302734050805 -164.841677698533 0.397716084598425 111.429441688173 
18.85                          0.358692322691784 95.954880426104  0.721121841968685 -172.499744881557 0.721121841968687 -172.499744881557 0.393877913788414 106.650205197002 
18.9                           0.349126180619702 87.4348560362644 0.72415819165064 179.709499952122 0.724158191650643 179.709499952122 0.387922264805628 101.743379312834 
18.95                          0.337664252274222 78.2439887067602 0.727131879426136 171.759847590392 0.727131879426138 171.759847590392 0.380562032356107 96.6887556921807 
19                             0.325433666954893 68.2766660215028 0.729713121989647 163.62865934161  0.729713121989648 163.62865934161  0.37259604085527 91.4399073201805 
19.05                          0.313816560912425 57.4416214231517 0.731531756761422 155.296673678969 0.731531756761422 155.296673678969 0.364888580102643 85.9166132567796 
19.1                           0.3044445834037  45.6992750567415 0.732184464845401 146.747509570192 0.7321844648454  146.747509570192 0.358337155378464 79.9986326355239 
19.15                          0.29912024374902 33.114675728657  0.731237472189391 137.967018801483 0.731237472189389 137.967018801483 0.35383568542435 73.5255406547634 
19.2                           0.299632934917271 19.9046249237102 0.728223067154737 128.942792777795 0.728223067154735 128.942792777795 0.352247016177216 66.308157456683  
19.25                          0.30748541164199 6.43507376232382 0.722630589853676 119.664296980691 0.722630589853674 119.664296980691 0.354398107898562 58.1553583688966 
19.3                           0.323628416997391 -6.86278229264717 0.71389700504808 110.124228510298 0.71389700504808 110.124228510298 0.361096547979177 48.9149903298665 
19.35                          0.348328683758445 -19.6241475067353 0.701408369133962 100.321671867947 0.701408369133963 100.321671867948 0.373139135272801 38.5203341079798 
19.4                           0.381199249387736 -31.6449266207822 0.684529441941612 90.2673314584817 0.684529441941614 90.2673314584823 0.391259363187601 27.0268736838    
19.45                          0.421298585782291 -42.8877640791298 0.662679857625808 79.9904122328688 0.66267985762581 79.9904122328692 0.415970351439935 14.6223274376672 
19.5                           0.46720386235323 -53.4223604711022 0.635464872289426 69.5455946570598 0.635464872289429 69.5455946570601 0.447321015829244 1.60079770196263 
19.55                          0.517063597798779 -63.3520069777764 0.602841910402918 59.0173522045462 0.60284191040292 59.0173522045463 0.484669020149288 -11.690918386103 
19.6                           0.568707818038604 -72.761052864652 0.565267508871848 48.5184298897181 0.565267508871847 48.518429889718  0.526613292669588 -24.9122137668512 
19.65                          0.619871791998105 -81.6928168705596 0.523747684255914 38.1806109859331 0.523747684255913 38.180610985933  0.571168793394837 -37.7715907513528 
19.7                           0.668501307666907 -90.1523718411697 0.47973835643134 28.1390092687534 0.479738356431336 28.1390092687533 0.61613668778036 -50.0469475507298 
19.75                          0.713032275395391 -98.1227979551504 0.434911957216538 18.5144130525276 0.434911957216531 18.5144130525275 0.659518385089825 -61.5886469801201 
19.8                           0.752538783881389 -105.583603107542 0.390876131150534 9.39930352597476 0.390876131150527 9.39930352597488 0.699815347652691 -72.3130610368544 
19.85                          0.786715593743796 -112.523905697682 0.348946872759117 0.851209144102681 0.34894687275911 0.851209144103096 0.736139089497646 -82.1914621184526 
19.9                           0.815739864703682 -118.948079641651 0.31003519770772 -7.10639912877684 0.310035197707713 -7.10639912877608 0.768155251581574 -91.2368978978188 
19.95                          0.840089547591909 -124.875310481011 0.27464517224713 -14.4780770884435 0.274645172247124 -14.4780770884425 0.795938773967468 -99.4910101803503 
20                             0.860380490293512 -130.335884992434 0.242943288180376 -21.2883402646295 0.242943288180371 -21.2883402646283 0.819814307280579 -107.012403811776 
20.05                          0.877250550854695 -135.366646971235 0.214854193996672 -27.5739242677008 0.214854193996668 -27.5739242676993 0.840225189087688 -113.86751710081 
20.1                           0.89129200394668 -140.00702867006 0.190151687979723 -33.3775762200043 0.19015168797972 -33.3775762200027 0.857644182195449 -120.124195037799 
20.15                          0.903020780516983 -144.296171909416 0.168530630774567 -38.7436618254608 0.168530630774565 -38.7436618254592 0.872521592137103 -125.847634457033 
20.2                           0.912868971472904 -148.271125275828 0.149657149726128 -43.7153720402183 0.149657149726127 -43.7153720402166 0.885260298196781 -131.098142452266 
20.25                          0.921189769635284 -151.965888323638 0.133200263377286 -48.3331405179641 0.133200263377285 -48.3331405179624 0.89620755376722 -135.930144202551 
20.3                           0.928267753304319 -155.411039326783 0.118849748855534 -52.6338903306364 0.118849748855534 -52.6338903306347 0.905655994757497 -140.391978374922 
20.35                          0.934330474092403 -158.633725767997 0.106324750762638 -56.650805547348 0.106324750762638 -56.6508055473465 0.913848983968957 -144.526145420397 
20.4                           0.93955935342515 -161.65785788681 0.0953766165456628 -60.4134104951959 0.0953766165456626 -60.4134104951945 0.920987469089729 -148.36978605332 
20.45                          0.94409908827583 -164.504400114579 0.0857883934687006 -63.9478128331039 0.0857883934687007 -63.9478128331027 0.927236876359692 -151.955251601793 
20.5                           0.948065394793818 -167.191696029244 0.0773725740226594 -67.2770204723081 0.0773725740226595 -67.2770204723071 0.932733361759935 -155.310685911622 
20.55                          0.951551209013131 -169.735790201919 0.0699680675434473 -70.4212790379268 0.0699680675434473 -70.421279037926 0.937589180992575 -158.460575854328 
20.6                           0.954631571502172 -172.150727972864 0.0634369685504407 -73.3984002099982 0.0634369685504408 -73.3984002099976 0.941897161489842 -161.426250349547 
20.65                          0.957367440129855 -174.448824862822 0.0576614333044279 -76.2240659072394 0.0576614333044278 -76.224065907239 0.945734359127835 -164.226321115373 
20.7                           0.959808653039036 -176.640903436526 0.0525408179831422 -78.9121019779981 0.0525408179831422 -78.9121019779979 0.949165016890847 -166.877065657123 
20.75                          0.961996228549581 -178.736498711151 0.0479891391732258 -81.4747200174021 0.0479891391732256 -81.474720017402 0.952242945408187 -169.39275667011 
20.8                           0.963964152351748 179.255965217463 0.0439328655692842 -83.9227285851827 0.0439328655692839 -83.9227285851827 0.955013433983572 -171.785943582172 
20.85                          0.965740770049537 177.329024053119 0.0403090227650183 -86.2657163829133 0.0403090227650179 -86.2657163829136 0.957514784696448 -174.067692333438 
20.9                           0.96734987636997 175.476044333469 0.0370635806121811 -88.5122104414903 0.0370635806121807 -88.5122104414908 0.959779545822917 -176.24778924601 
20.95                          0.968811571061709 173.691113472131 0.0341500885018268 -90.6698124230988 0.0341500885018265 -90.6698124230993 0.961835506110182 -178.334914302422 
21                             0.970142934941228 171.968945981546 0.0315285242768882 -92.7453159679088 0.0315285242768876 -92.7453159679093 0.963706498966646 179.663211486592 
21.05                          0.971358566835009 170.304803406292 0.0291643250642021 -94.7448077377158 0.0291643250642016 -94.7448077377164 0.965413055416245 177.739700588093 
21.1                           0.972471012492374 168.69442584533  0.0270275718241091 -96.6737544964629 0.0270275718241086 -96.6737544964637 0.966972936471667 175.888391889308 
21.15                          0.973491109211347 167.13397326098  0.02509230314072 -98.5370782588377 0.0250923031407194 -98.5370782588383 0.968401569088126 174.10375917345  
21.2                           0.974428264371033 165.619975054305 0.0233359373423273 -100.339221251759 0.0233359373423268 -100.339221251759 0.96971240475159 172.380832689883 
21.25                          0.975290681863308 164.149286629549 0.0217387852742401 -102.084202177609 0.0217387852742396 -102.084202177609 0.97091721575256 170.71513177534  
21.3                           0.97608554723127 162.719051876878 0.020283638882551 -103.775665044444 0.0202836388825504 -103.775665044445 0.972026341064348 169.102606816898 
21.35                          0.976819179900057 161.326670676513 0.018955423204347 -105.416921635978 0.0189554232043465 -105.416921635979 0.973048891293617 167.539589127296 
21.4                           0.977497159038212 159.969770672861 0.0177409014252989 -107.010988530087 0.0177409014252985 -107.010988530087 0.973992920250115 166.02274753667  
21.45                          0.978124428172938 158.646182688607 0.0166284244000258 -108.560619435656 0.0166284244000255 -108.560619435656 0.974865569174074 164.549050699039 
21.5                           0.978705382594564 157.35391924968  0.0156077174782561 -110.068333500392 0.0156077174782558 -110.068333500393 0.975673188471924 163.115734273329 
21.55                          0.979243942745027 156.091155776021 0.0146696986832127 -111.536440143573 0.0146696986832124 -111.536440143573 0.976421440872498 161.720272272866 
21.6                           0.979743616132791 154.856214062917 0.0138063232865641 -112.967060884764 0.0138063232865639 -112.967060884764 0.977115389172063 160.360351988742 
21.65                          0.980207549807871 153.647547735869 0.0130104506506985 -114.362148569822 0.0130104506506983 -114.362148569823 0.977759571144544 159.033851985264 
21.7                           0.980638575031998 152.463729410412 0.01227572989312 -115.723504336839 0.0122757298931198 -115.723504336839 0.978358063720546 157.73882274298  
21.75                          0.98103924546493 151.303439328851 0.0115965014940352 -117.052792615272 0.0115965014940351 -117.052792615272 0.978914538159686 156.473469589299 
21.8                           0.981411869939549 150.165455279737 0.010967712437265 -118.35155440987 0.0109677124372649 -118.35155440987 0.979432307635579 155.236137610709 
21.85                          0.98175854070081 149.048643634353 0.0103848428635407 -119.621219085762 0.0103848428635408 -119.621219085762 0.979914368406174 154.025298285807 
21.9                           0.982081157825783 147.951951358339 0.00984384253812457 -120.863114841257 0.00984384253812458 -120.863114841257 0.980363435542064 152.839537616335 
21.95                          0.982381450415344 146.874398876762 0.00934107570314495 -122.07847802958 0.00934107570314499 -122.07847802958 0.980781974022402 151.677545565428 
22                             0.982660995045914 145.815073687899 0.0088732731085951 -123.268461469203 0.00887327310859516 -123.268461469204 0.981172225874828 150.53810663923  
22.05                          0.982921231886878 144.773124635421 0.00843749020244057 -124.434141864047 0.00843749020244065 -124.434141864048 0.981536233926465 149.4200914709   
22.1                           0.983163478821955 143.747756760899 0.00803107061615792 -125.576526439042 0.00803107061615802 -125.576526439043 0.981875862642995 148.322449285352 
22.15                          0.983388943857805 142.738226668925 0.00765161421254641 -126.696558883082 0.00765161421254654 -126.696558883083 0.98219281645839 147.244201139556 
22.2                           0.983598736057944 141.743838346061 0.0072969490721681 -127.795124679706 0.00729694907216828 -127.795124679706 0.982488655936144 146.184433847216 
22.25                          0.983793875202875 140.763939382389 0.00696510688683349 -128.873055895871 0.00696510688683367 -128.873055895872 0.982764812051469 145.142294508636 
22.3                           0.983975300346515 139.797917550944 0.00665430130610056 -129.931135490456 0.00665430130610075 -129.931135490457 0.983022598841009 144.116985576802 
22.35                          0.984143877413473 138.84519770595  0.00636290884821081 -130.970101196624 0.00636290884821101 -130.970101196625 0.9832632246307  143.107760399528 
22.4                           0.984300405960383 137.905238965532 0.0060894520422437 -131.990649025633 0.00608945204224387 -131.990649025635 0.98348780202222 142.11391918505  
22.45                          0.984445625206697 136.977532148802 0.00583258451518284 -132.993436433984 0.00583258451518302 -132.993436433985 0.983697356792987 141.134805344975 
22.5                           0.98458021942536 136.061597440786 0.00559107777742043 -133.979085190803 0.00559107777742058 -133.979085190804 0.983892835843203 140.169802174112 
22.55                          0.984704822771167 135.15698226178  0.00536380949411225 -134.948183978046 0.00536380949411243 -134.948183978047 0.984075114305155 139.218329831593 
22.6                           0.984820023613974 134.26325932047  0.00514975305868429 -135.901290752254 0.00514975305868444 -135.901290752256 0.984245001914527 138.279842591893 
22.65                          0.984926368434863 133.38002483248  0.00494796830945925 -136.838934893294 0.00494796830945941 -136.838934893295 0.984403248730245 137.353826338053 
22.7                           0.985024365335699 132.506896888109 0.00475759325148185 -137.761619162538 0.00475759325148197 -137.761619162539 0.984550550278095 136.439796272595 
22.75                          0.985114487205947 131.643513954795 0.0045778366637153 -138.669821490416 0.0045778366637154 -138.669821490418 0.984687552183678 135.53729482439  
22.8                           0.985197174585015 130.789533501459 0.00440797148732305 -139.563996610935 0.00440797148732315 -139.563996610936 0.984814854351971 134.64588973222  
22.85                          0.985272838253575 129.944630733245 0.00424732890411808 -140.444577558816 0.00424732890411816 -140.444577558817 0.984933014743616 133.765172287859 
22.9                           0.985341861583163 129.108497426413 0.00409529302578709 -141.311977043106 0.00409529302578714 -141.311977043107 0.985042552791874 132.894755723417 
22.95                          0.985404602669811 128.280840854205 0.00395129612444493 -142.166588709576 0.00395129612444496 -142.166588709577 0.985143952498876 132.034273729311 
23                             0.985461396274366 127.461382795472 0.00381481434367925 -143.008788302855 0.00381481434367925 -143.008788302855 0.985237665245155 131.183379090682 
