! Touchstone file exported from HFSS 3D Layout Design 2026.1.0
!        File:           D:/Work/SIM/ADS_AUTO_SIM/projects/RFSOC_RF/TX_Fillter.aedt
!        Generated:      02:29:30 AM Aug 31, 2026
!        Design:         TX_BAND1_MCFIL_R30_CNN037
!        Project:        TX_Fillter
!
# GHz S MA R 50.000000
! Terminal data exported
! Port[1] = Port1
! Port[2] = Port2
14                             0.973955551462591 -163.437437858807 0.00354055910603585 -177.494710802769 0.00354055910603585 -177.494710802769 0.974909270180268 -159.087409390984 
14.05                          0.973491051754739 -164.294457679735 0.00360828122159329 -177.869614004296 0.00360828122159331 -177.869614004296 0.974457706618861 -159.92180936565 
14.1                           0.97301221506344 -165.156976372112 0.00367921093956637 -178.22342612219 0.00367921093956641 -178.223426122189 0.973991963410883 -160.761701601201 
14.15                          0.972518339055495 -166.025163059039 0.0037536015754547 -178.555663484796 0.00375360157545476 -178.555663484795 0.973511338647793 -161.607255391238 
14.2                           0.972008674780572 -166.89919577374 0.0038317314858769 -178.865877270425 0.00383173148587696 -178.865877270424 0.973015083504527 -162.458648899107 
14.25                          0.971482422777054 -167.779262045004 0.00391390685058659 -179.153661352734 0.00391390685058666 -179.153661352733 0.972502398296581 -163.31606974402 
14.3                           0.970938728783877 -168.665559529531 0.00400046478559167 -179.418661046362 0.00400046478559175 -179.418661046361 0.971972428136162 -164.179715634488 
14.35                          0.970376679011299 -169.558296695689 0.00409177682856779 -179.660582792404 0.00409177682856789 -179.660582792403 0.971424258139365 -165.049795053656 
14.4                           0.969795294917087 -170.457693563713 0.00418825284316495 -179.879204811099 0.00418825284316504 -179.879204811098 0.970856908129673 -165.926528001617 
14.45                          0.969193527427057 -171.363982507921 0.00429034539501155 179.925611267036 0.00429034539501166 179.925611267036 0.970269326775406 -166.810146800397 
14.5                           0.968570250530223 -172.277409127204 0.00439855465937359 179.753907800723 0.0043985546593737 179.753907800724 0.969660385089781 -167.700896967963 
14.55                          0.967924254168658 -173.198233190744 0.00451343392870234 179.605617602289 0.00451343392870246 179.605617602289 0.969028869211904 -168.599038168313 
14.6                           0.967254236330373 -174.12672966677 0.00463559579792971 179.480549530782 0.00463559579792981 179.480549530782 0.968373472374899 -169.504845245605 
14.65                          0.96655879423977 -175.063189843069 0.00476571911661302 179.37837331218  0.00476571911661313 179.37837331218  0.967692785953252 -170.418609351211 
14.7                           0.965836414524047 -176.007922549084 0.00490455681022958 179.298603723582 0.00490455681022968 179.298603723582 0.966985289464908 -171.340639173669 
14.75                          0.965085462215009 -176.961255490583 0.00505294468848681 179.240584320239 0.0050529446884869 179.240584320239 0.966249339384224 -172.271262282776 
14.8                           0.964304168423466 -177.923536709324 0.00521181137695437 179.203470928101 0.00521181137695444 179.203470928101 0.96548315659902 -173.210826600449 
14.85                          0.963490616497041 -178.895136181675 0.0053821895302604 179.186215168535 0.00538218953026047 179.186215168535 0.964684812317945 -174.159702012622 
14.9                           0.962642726441103 -179.876447571982 0.00556522851128588 179.187548323277 0.00556522851128596 179.187548323277 0.963852212202454 -175.118282138267 
14.95                          0.961758237345575 179.132109841498 0.00576220875216397 179.205965883538 0.00576220875216405 179.205965883538 0.962983078459708 -176.086986273764 
15                             0.960834687516332 178.130089047893 0.00597455805057238 179.239713153839 0.00597455805057243 179.239713153839 0.962074929587574 -177.066261533252 
15.05                          0.959869391957421 177.117012969352 0.00620387010016287 179.286772294568 0.00620387010016289 179.286772294569 0.961125057408915 -178.05658520834 
15.1                           0.958859416787325 176.092371885049 0.00645192560866195 179.344851183407 0.00645192560866196 179.344851183407 0.960130500967786 -179.058467373784 
15.15                          0.957801550096977 175.055620584009 0.00672071642320767 179.411374450611 0.0067207164232077 179.411374450611 0.959088016782433 179.927546230669 
15.2                           0.956692268665995 174.006175213182 0.00701247316229869 179.483476993451 0.0070124731622987 179.483476993452 0.957994044856434 178.90087100787  
15.25                          0.955527699843431 172.943409782496 0.00732969695028472 179.558000198373 0.00732969695028473 179.558000198373 0.956844669736017 177.860879961076 
15.3                           0.954303577765542 171.866652283314 0.00767519596723149 179.631490994829 0.00767519596723148 179.631490994829 0.955635575764191 176.806899757311 
15.35                          0.953015192920166 170.775180370609 0.00805212766866822 179.700203732915 0.0080521276686682 179.700203732915 0.954361995514921 175.738206345291 
15.4                           0.951657333868261 169.668216552229 0.00846404770160188 179.760104720744 0.00846404770160183 179.760104720744 0.953018650186013 174.654020069776 
15.45                          0.950224219689009 168.544922820729 0.00891496675196467 179.806879081525 0.00891496675196465 179.806879081525 0.951599680478525 173.553500216056 
15.5                           0.94870942141446 167.404394654352 0.00940941681266891 179.835939401094 0.00940941681266887 179.835939401095 0.950098566181675 172.435738909067 
15.55                          0.947105770348578 166.245654303758 0.009952528671024 179.842435441655 0.00995252867102394 179.842435441655 0.948508032300837 171.29975428131  
15.6                           0.945405250705505 165.067643270097 0.0105501227923536 179.821264004982 0.0105501227923535 179.821264004982 0.946819939093281 170.1444828123   
15.65                          0.94359887342955 163.869213868014 0.0112088162393787 179.76707784574  0.0112088162393786 179.76707784574  0.94502515278808 168.968770729799 
15.7                           0.941676527344952 162.649119754539 0.0119361488345072 179.674292369038 0.0119361488345072 179.674292369038 0.94311339303206 167.771364349863 
15.75                          0.939626802888488 161.406005291937 0.0127407324697859 179.537088699326 0.0127407324697859 179.537088699326 0.941073052183687 166.550899219243 
15.8                           0.937436782553408 160.138393600558 0.0136324283282755 179.349411580392 0.0136324283282755 179.349411580393 0.938890980420563 165.30588791087  
15.85                          0.935091790755858 158.844673148068 0.0146225578397651 179.104960454581 0.014622557839765 179.104960454582 0.936552229169098 164.034706312704 
15.9                           0.932575094044307 157.523082716814 0.0157241545005396 178.797171965348 0.0157241545005396 178.797171965348 0.934039743523827 162.735578244764 
15.95                          0.929867540305583 156.171694595969 0.0169522652987884 178.419192018518 0.0169522652987883 178.419192018519 0.931333991993086 161.406558243092 
16                             0.92694712274808 154.78839586631  0.0183243124721899 177.963835408231 0.0183243124721899 177.963835408231 0.928412518953528 160.045512369885 
16.05                          0.923788450800781 153.370867694237 0.0198605287601992 177.423530844611 0.0198605287601991 177.423530844611 0.925249401451013 158.650096957177 
16.1                           0.920362105457077 151.916562645507 0.0215844822851437 176.790248991411 0.0215844822851437 176.790248991411 0.921814587244771 157.217735285297 
16.15                          0.916633850778803 150.422680195944 0.0235237107859515 176.055410812567 0.0235237107859515 176.055410812567 0.918073085012426 155.745592365122 
16.2                           0.912563665994658 148.886140900201 0.0257104891981483 175.209773119009 0.0257104891981483 175.209773119009 0.913983970143142 154.230548279803 
16.25                          0.908104553615551 147.30356015018  0.0281827595284487 174.243287689547 0.0281827595284487 174.243287689547 0.909499160273498 152.669171018339 
16.3                           0.903201068055936 145.67122322261  0.0309852574904718 173.144929713988 0.0309852574904718 173.144929713988 0.904561903465967 151.057690513189 
16.35                          0.897787496425517 143.985064556408 0.0341708760761555 171.902490599635 0.0341708760761554 171.902490599635 0.89910490871999 149.391976856888 
16.4                           0.891785608997014 142.240656194653 0.037802311283907 170.502329467101 0.0378023112839069 170.502329467101 0.893048033905099 147.66752770538  
16.45                          0.885101883043211 140.4332135194   0.0419540378837566 168.929077094517 0.0419540378837565 168.929077094517 0.886295431927442 145.879473136415 
16.5                           0.877624094207942 138.55763151053  0.046714660087749 167.165285955459 0.0467146600877488 167.165285955459 0.878732046009301 144.022611450718 
16.55                          0.869217172644908 136.608572899135 0.0521896673106483 165.191020898778 0.0521896673106483 165.191020898778 0.870219347882567 142.091497744288 
16.6                           0.859718253386367 134.58064253459  0.0585045882318117 162.983387945352 0.0585045882318116 162.983387945352 0.860590245433571 140.080620376953 
16.65                          0.848930943496571 132.468702785406 0.0658084588608374 160.516005377778 0.0658084588608373 160.516005377778 0.849643181390663 137.984721567484 
16.7                           0.836619041220513 130.268416962188 0.0742773719925226 157.758434727696 0.0742773719925225 157.758434727696 0.837135662251289 135.799351566153 
16.75                          0.822500379425037 127.977157405953 0.0841176083888005 154.675614224297 0.0841176083888004 154.675614224297 0.822777904554917 133.521797349259 
16.8                           0.806242305984548 125.595489292879 0.0955673938688705 151.227381152885 0.0955673938688705 151.227381152885 0.806228147932084 131.152604400567 
16.85                          0.787461841202091 123.129546726026 0.108895591409839 147.368242779608 0.10889559140984 147.368242779608 0.787092754212248 128.698021240658 
16.9                           0.765736161655931 120.594751435241 0.12439454362516 143.047670160179 0.12439454362516 143.047670160179 0.76493689957426 126.173839603349 
16.95                          0.740633148068021 118.02145088392  0.142362855868228 138.211352985633 0.142362855868228 138.211352985633 0.739315892950942 123.611245012256 
17                             0.711777253075858 115.463046489159 0.163072522136763 132.804052576122 0.163072522136764 132.804052576122 0.709842898993313 121.065308569728 
17.05                          0.678971169103469 113.00670751449  0.186714589514805 126.774851156627 0.186714589514806 126.774851156627 0.676314398573983 118.626297745749 
17.1                           0.64239275590879 110.785070316887 0.213320966623084 120.0855283824   0.213320966623084 120.0855283824   0.638914059382688 116.432273907047 
17.15                          0.602865735593497 108.9830844494   0.242670562590945 112.722153554841 0.242670562590946 112.722153554841 0.598494746734867 114.677033828187 
17.2                           0.56214035438488 107.826153183906 0.274207657508416 104.708374021985 0.274207657508416 104.708374021985 0.556874556932359 113.598816242069 
17.25                          0.523004873425132 107.526575673692 0.307022716217523 96.1163555762454 0.307022716217524 96.1163555762453 0.51696171248426 113.424656350631 
17.3                           0.488934998456078 108.171033324519 0.339949174929501 87.0691699939637 0.339949174929502 87.0691699939637 0.482397453005513 114.249785800254 
17.35                          0.463072287879787 109.584059205756 0.371787687841076 77.7292396170801 0.371787687841076 77.7292396170802 0.456482039925466 115.887502622198 
17.4                           0.446833641086185 111.291372257843 0.4015880630111  68.2730104850757 0.4015880630111  68.2730104850757 0.440690830961443 117.826410363    
17.45                          0.439100031311472 112.690516196138 0.428861413945668 58.8598276263864 0.428861413945668 58.8598276263865 0.433804922405959 119.418036858585 
17.5                           0.436716308632072 113.322831459335 0.453626255999722 49.6067756712421 0.453626255999722 49.6067756712423 0.432460267505822 120.175774585805 
17.55                          0.435854526006452 113.014906227021 0.476292411715114 40.5774921579595 0.476292411715115 40.5774921579597 0.432617159022726 119.92395903245  
17.6                           0.433184724360814 111.831960057696 0.497465750807335 31.7851857002409 0.497465750807336 31.7851857002411 0.430794635368525 118.739002943771 
17.65                          0.426358612737257 109.963231851285 0.517762116539393 23.2045472261519 0.517762116539395 23.2045472261521 0.424554836867852 116.821508254429 
17.7                           0.413985034007638 107.640466792234 0.537676018975231 14.7864334606021 0.537676018975232 14.7864334606023 0.412451569542131 114.40878733541  
17.75                          0.395433163171083 105.110342435683 0.557507920776   6.47134592238429 0.557507920776001 6.47134592238443 0.393806255653692 111.746437936217 
17.8                           0.370672111238229 102.646857225222 0.577335430522973 -1.79980428944269 0.577335430522974 -1.79980428944261 0.3685267705208  109.101957643355 
17.85                          0.34022696461261 100.591365522815 0.597014134264966 -10.0776669679718 0.597014134264967 -10.0776669679718 0.337046903102427 106.807881523014 
17.9                           0.305275146605268 99.4179655658001 0.616201495131265 -18.398725789104 0.616201495131265 -18.398725789104 0.300408167818685 105.336405313973 
17.95                          0.267904923969225 99.8231418631853 0.634403778611729 -26.7816052816381 0.634403778611729 -26.7816052816381 0.260513956821817 105.418904225024 
18                             0.231566802811745 102.796136716907 0.651047157443185 -35.2254951780726 0.651047157443184 -35.2254951780726 0.220637587392721 108.204801695381 
18.05                          0.201606533601904 109.429900990368 0.665569044070166 -43.7109898280345 0.665569044070164 -43.7109898280344 0.18625023408676 115.257071939524 
18.1                           0.184948941389666 119.86211903059  0.677516471671694 -52.2035170244475 0.677516471671691 -52.2035170244474 0.165435505412669 127.4565019395   
18.15                          0.186810585597903 131.648145652425 0.686630330344343 -60.6590483387751 0.68663033034434 -60.659048338775 0.165580666746576 142.156227813465 
18.2                           0.206025439226421 140.983776332256 0.692893694161613 -69.0311448864058 0.69289369416161 -69.0311448864056 0.186130097325252 153.939915715645 
18.25                          0.236213097357283 146.192916581557 0.696531980139859 -77.277949063442 0.696531980139856 -77.2779490634417 0.2192150679377  160.476251545281 
18.3                           0.27083061784475 147.825733045657 0.697968296964582 -85.3677632262758 0.69796829696458 -85.3677632262756 0.257055414918334 162.757598281461 
18.35                          0.305383049953083 146.966298871423 0.697750805900065 -93.2823641740166 0.697750805900064 -93.2823641740164 0.294729179447733 162.298662030301 
18.4                           0.337209866240957 144.475287528476 0.696473803133267 -101.017919264443 0.696473803133267 -101.017919264443 0.329518770863868 160.170309034271 
18.45                          0.364853181325111 140.915169450547 0.694710118723399 -108.583961714961 0.694710118723399 -108.583961714961 0.360012863417183 157.023526339956 
18.5                           0.387591450503524 136.631827442566 0.692963719703915 -116.00116044952 0.692963719703915 -116.00116044952 0.385554075175511 153.243190707951 
18.55                          0.405146834705807 131.831678071912 0.691643179259938 -123.298596328368 0.691643179259938 -123.298596328369 0.405925228900974 149.056990854803 
18.6                           0.417505412215602 126.633020619294 0.691051693027172 -130.51106094583 0.691051693027171 -130.511060945831 0.421166118017133 144.599573441975 
18.65                          0.424808726729112 121.097677730461 0.691387760693445 -137.676661703651 0.691387760693443 -137.676661703651 0.431465008173561 139.949409801569 
18.7                           0.427292687438276 115.250172351416 0.692751337946886 -144.834830381843 0.692751337946884 -144.834830381843 0.437096906689816 135.150242206892 
18.75                          0.425259429044608 109.089270579395 0.695151903309474 -152.024719326056 0.69515190330947 -152.024719326056 0.43839294472614 130.223665635208 
18.8                           0.419072864618901 102.594772911813 0.698516602938842 -159.283923501193 0.698516602938838 -159.283923501193 0.435730852864702 125.176287563288 
18.85                          0.409171529988132 95.7312619765748 0.702698009793813 -166.64746961631 0.702698009793808 -166.64746961631 0.429539271215449 120.003189712324 
18.9                           0.396093840390128 88.4499170049762 0.707481907793397 -174.147046095702 0.707481907793392 -174.147046095702 0.420309945392628 114.688440547287 
18.95                          0.380511410818174 80.6893697892693 0.712595833323836 178.189507399781 0.712595833323832 178.189507399781 0.408612381607546 109.20285053344  
19                             0.363265760718945 72.3769362038677 0.717718842504227 170.338391905401 0.717718842504224 170.338391905401 0.395105877297641 103.498931863302 
19.05                          0.345402454607513 63.4325344580333 0.7224921282636  162.279646770445 0.722492128263599 162.279646770445 0.380544849630602 97.503204485814  
19.1                           0.328194077067629 53.7791613153376 0.726528820878378 153.996504362934 0.726528820878378 153.996504362934 0.365776103088129 91.1068052807613 
19.15                          0.313138666488384 43.3650206333183 0.729419942497876 145.474342044417 0.729419942497879 145.474342044417 0.351731866838603 84.15708612605   
19.2                           0.30191380477675 32.2001838451679 0.730732716673675 136.699429295044 0.730732716673679 136.699429295043 0.339429260758864 76.4556273263453 
19.25                          0.296264377441522 20.3997375770168 0.729998153083463 127.657883159741 0.729998153083469 127.65788315974  0.329990765590071 67.7712767423571 
19.3                           0.297818311595834 8.20550882970746 0.726687969917334 118.335481325266 0.72668796991734 118.335481325265 0.324691420595255 57.8783678843885 
19.35                          0.307867267428667 -4.05056991462757 0.720187159116828 108.719168927002 0.720187159116834 108.719168927002 0.325005273233847 46.6253889138649 
19.4                           0.327185362115301 -16.0449535490347 0.709777733623569 98.8011123576736 0.709777733623573 98.8011123576727 0.332569434107327 34.0211139293127 
19.45                          0.355929363128283 -27.5655145799169 0.694659344334162 88.5858086182358 0.694659344334163 88.5858086182348 0.348955257845202 20.2944594459964 
19.5                           0.393586938266537 -38.5486809952772 0.674037394168148 78.0998091894298 0.674037394168147 78.0998091894289 0.375214459121483 5.87081025275803 
19.55                          0.438925336341239 -49.0380743994395 0.64729760111373 67.4019506090704 0.647297601113727 67.4019506090697 0.411358669627287 -8.74426121982835 
19.6                           0.489975612553456 -59.1091161201417 0.614246380185567 56.5900419091732 0.614246380185564 56.5900419091729 0.456062847301136 -23.1007725859363 
19.65                          0.544160760303654 -68.8088970644455 0.57533533686893 45.7991181987862 0.57533533686893 45.7991181987862 0.506791078927364 -36.8754140696572 
19.7                           0.598634332529187 -78.1331496936808 0.531747361691336 35.188395511584  0.531747361691338 35.1883955115843 0.560312308620249 -49.8674737579953 
19.75                          0.650756459948105 -87.0360086008017 0.485258134748263 24.9191329617916 0.485258134748269 24.9191329617921 0.613392013232452 -61.9644827299498 
19.8                           0.69852026670561 -95.4557409531251 0.437903205766755 15.130751600981  0.437903205766765 15.1307516009815 0.66339299122801 -73.1138972323606 
19.85                          0.740761687468614 -103.339640483792 0.391591700060076 5.92362669744347 0.391591700060088 5.92362669744381 0.708596130276288 -83.3078027546507 
19.9                           0.777117292413546 -110.658618424841 0.34782005976736 -2.64696159837038 0.347820059767372 -2.64696159837043 0.748209918319036 -92.5737014956075 
19.95                          0.807818100535158 -117.410392441553 0.307556867334564 -10.5667868003721 0.307556867334577 -10.5667868003725 0.782171329766952 -100.965616016489 
20                             0.83344163161896 -123.615100485362 0.271275139482949 -17.8529151833683 0.271275139482961 -17.8529151833691 0.810878732673669 -108.554480887523 
20.05                          0.854705753641078 -129.307976591624 0.239063967206818 -24.5426885627845 0.239063967206828 -24.5426885627857 0.83495673378022 -115.419170928019 
20.1                           0.872333056665473 -134.532271982791 0.210757393844277 -30.6842436558857 0.210757393844286 -30.6842436558873 0.855092377482022 -121.639460698763 
20.15                          0.886978786026499 -139.333829391269 0.186044966174386 -36.3295917776813 0.186044966174393 -36.3295917776832 0.871940580427156 -127.291331616975 
20.2                           0.899202752139441 -143.757524623708 0.164552110884143 -41.5301684667098 0.164552110884148 -41.5301684667119 0.886080125126929 -132.444353990331 
20.25                          0.909466567148506 -147.845246086266 0.145891960707604 -46.3343062347917 0.145891960707609 -46.3343062347939 0.898000587323319 -137.16059328756 
20.3                           0.91814302672838 -151.634954058697 0.129695258551387 -50.7860258381278 0.12969525855139 -50.78602583813  0.908105522421349 -141.494494060563 
20.35                          0.925529798067922 -155.160418962229 0.115625348170593 -54.9246504967334 0.115625348170595 -54.9246504967356 0.916722710156597 -145.493315986743 
20.4                           0.931863364929942 -158.451346413165 0.10338387220684 -58.7848910487517 0.103383872206842 -58.7848910487537 0.924116378845134 -149.197833401461 
20.45                          0.937331460799998 -161.533697331713 0.0927111231816156 -62.3971733533946 0.0927111231816164 -62.3971733533963 0.930498936987376 -152.64312118457 
20.5                           0.942083439269299 -164.430086594401 0.0833835961765493 -65.7880690139319 0.0833835961765498 -65.7880690139336 0.936041211327342 -155.859327919316 
20.55                          0.946238609352875 -167.160194231421 0.0752102897510685 -68.9807500957422 0.0752102897510687 -68.9807500957436 0.940880944569163 -158.872386995961 
20.6                           0.949892794769037 -169.741154808392 0.0680286407522632 -71.995425760579 0.0680286407522631 -71.99542576058  0.945129651152847 -161.704645854482 
20.65                          0.953123435501587 -172.187909409387 0.0617005667616867 -74.8497409333527 0.0617005667616866 -74.8497409333534 0.948878059423513 -164.375409912091 
20.7                           0.955993533029373 -174.5135152253  0.056108844402705 -77.5591297601739 0.0561088444027049 -77.5591297601742 0.952200393930816 -166.901406026027 
20.75                          0.958554696037226 -176.729413361981 0.0511539115229366 -80.1371234417089 0.0511539115229365 -80.1371234417088 0.955157731633437 -169.297173979293 
20.8                           0.960849493953649 -178.845658183146 0.0467511051789008 -82.5956154270579 0.0467511051789008 -82.5956154270574 0.957800630149801 -171.575395545296 
20.85                          0.962913280724781 179.128887433586 0.0428283090643045 -84.9450884054127 0.0428283090643046 -84.945088405412 0.960171188707639 -173.747170434134 
20.9                           0.964775613833434 177.186386364136 0.0393239673141919 -87.1948079192695 0.039323967314192 -87.1948079192685 0.962304668790935 -175.822247561766 
20.95                          0.966461363847268 175.319886719231 0.0361854167491663 -89.3529872604498 0.0361854167491664 -89.3529872604485 0.964230773415656 -177.809219005137 
21                             0.967991586770343 173.523202674762 0.033367490893155 -91.4269278928563 0.0333674908931552 -91.426927892855 0.965974661473841 -179.715682914725 
21.05                          0.969384213931401 171.790813288713 0.030831353244831 -93.4231391363102 0.0308313532448313 -93.4231391363085 0.96755775597282 178.451619352116 
21.1                           0.970654600885199 170.117776432734 0.0285435225005699 -95.34744032973  0.0285435225005701 -95.3474403297283 0.968998391389123 176.686687500037 
21.15                          0.971815966826749 168.499655413696 0.0264750577586226 -97.2050482112787 0.026475057758623 -97.2050482112769 0.97031233492379 174.984164346838 
21.2                           0.972879748520885 166.932456252592 0.0246008767094908 -99.0006518254158 0.0246008767094912 -99.000651825414 0.971513208476642 173.339252671921 
21.25                          0.973855887111512 165.412573923872 0.0228991842376514 -100.738476896473 0.0228991842376519 -100.738476896472 0.972612832077023 171.747644403705 
21.3                           0.974753061926394 163.93674614147  0.0213509926728115 -102.42234129312 0.021350992672812 -102.422341293118 0.973621504866675 170.205460121355 
21.35                          0.975578882181948 162.5020135145   0.0199397181573156 -104.055702942634 0.0199397181573161 -104.055702942632 0.974548236179937 168.70919720181  
21.4                           0.976340045055996 161.105685092279 0.0186508402968293 -105.641701331907 0.0186508402968297 -105.641701331905 0.975400936542994 167.255685234138 
21.45                          0.977042466739682 159.745308481216 0.0174716145024024 -107.183193547234 0.0174716145024027 -107.183193547233 0.976186576317766 165.842047561213 
21.5                           0.977691391658354 158.41864385084  0.016390828282185 -108.682785651329 0.0163908282821853 -108.682785651328 0.976911318096341 164.465668003361 
21.55                          0.978291483957671 157.123641257569 0.0153985942637937 -110.14286006847 0.015398594263794 -110.142860068469 0.977580627695079 163.124161978018 
21.6                           0.978846904505654 155.858420806859 0.0144861739794003 -111.565599542836 0.0144861739794005 -111.565599542835 0.978199367618096 161.815351360119 
21.65                          0.979361376004224 154.621255250681 0.0136458274728038 -112.95300814712 0.013645827472804 -112.953008147119 0.978771876093021 160.537242535373 
21.7                           0.979838238290431 153.410554680393 0.0128706846311757 -114.306929745297 0.0128706846311758 -114.306929745297 0.979302034178879 159.288007187033 
21.75                          0.980280495504428 152.224853027691 0.012154634837169 -115.629064252459 0.0121546348371691 -115.629064252458 0.979793322969451 158.0659654298   
21.8                           0.980690856483062 151.062796129985 0.0114922321070993 -116.920981983627 0.0114922321070993 -116.920981983627 0.980248872537293 156.86957096497  
21.85                          0.981071769485561 149.923131153108 0.0108786133504218 -118.184136340811 0.0108786133504217 -118.184136340811 0.980671503961984 155.697397981151 
21.9                           0.981425452156585 148.804697194782 0.0103094277731078 -119.419875051741 0.0103094277731077 -119.419875051742 0.981063765544694 154.548129566607 
21.95                          0.981753917470668 147.706416917927 0.00978077576771227 -120.629450143555 0.00978077576771204 -120.629450143555 0.981427964116794 153.420547434239 
22                             0.982058996272383 146.627289084444 0.00928915589810401 -121.814026809225 0.00928915589810371 -121.814026809226 0.981766192193293 152.313522789339 
22.05                          0.982342356921567 145.566381878278 0.00883141880689871 -122.974691303008 0.00883141880689838 -122.974691303008 0.982080351594435 151.226008194823 
22.1                           0.982605522467748 144.522826921984 0.00840472705666 -124.112457982802 0.00840472705665963 -124.112457982802 0.982372174055066 150.157030309271 
22.15                          0.982849885708332 143.495813904026 0.0080065200684766 -125.228275601771 0.00800652006847617 -125.228275601772 0.98264323925643 149.105683390507 
22.2                           0.983076722428131 142.484585745131 0.00763448344894714 -126.323032938203 0.00763448344894665 -126.323032938204 0.98289499064535 148.071123472237 
22.25                          0.983287203070913 141.488434241495 0.00728652210327248 -127.397563841164 0.00728652210327197 -127.397563841165 0.983128749348298 147.052563133753 
22.3                           0.983482403054902 140.506696130684 0.00696073662165366 -128.452651759693 0.00696073662165315 -128.452651759694 0.983345726440248 146.049266793387 
22.35                          0.983663311912027 139.538749533004 0.00665540250144598 -129.489033814781 0.00665540250144546 -129.489033814781 0.983547033788768 145.060546465473 
22.4                           0.983830841403991 138.584010727059 0.0063689518309355 -130.507404466091 0.00636895183093499 -130.507404466092 0.98373369366088 144.085757928376 
22.45                          0.983985832745824 137.641931223327 0.00609995711415829 -131.508418819015 0.00609995711415778 -131.508418819015 0.983906647252707 143.124297257788 
22.5                           0.984129063048915 136.711995103986 0.00584711696150832 -132.492695612142 0.00584711696150781 -132.492695612143 0.984066762278852 142.175597685247 
22.55                          0.984261251079683 135.793716601067 0.00560924340931919 -133.460819920426 0.00560924340931872 -133.460819920427 0.984214839739044 141.239126746771 
22.6                           0.984383062416788 134.886637888282 0.00538525066427475 -134.413345605161 0.00538525066427431 -134.413345605161 0.984351619963186 140.314383690751 
22.65                          0.984495114078483 133.990327064784 0.00517414509632415 -135.350797538178 0.00517414509632373 -135.350797538177 0.984477788022071 139.400897117963 
22.7                           0.98459797868214 133.104376311596 0.00497501632751866 -136.273673624517 0.00497501632751828 -136.273673624516 0.98459397857926 138.498222829742 
22.75                          0.984692188189853 132.228400203637 0.00478702928448529 -137.182446644973 0.00478702928448496 -137.182446644973 0.98470078024956 137.605941863154 
22.8                           0.984778237287002 131.362034162171 0.00460941709964175 -138.077565937477 0.00460941709964146 -138.077565937476 0.984798739521032 136.72365869444  
22.85                          0.984856586434752 130.504933034203 0.00444147476118219 -138.959458934078 0.00444147476118198 -138.959458934077 0.98488836429007 135.850999594098 
22.9                           0.98492766463229 129.65676978677  0.00428255342469822 -139.828532568405 0.00428255342469808 -139.828532568405 0.984970127052846 134.987611118847 
22.95                          0.984991871920205 128.81723430541  0.00413205531035524 -140.68517456678 0.00413205531035516 -140.685174566781 0.985044467791   134.133158727325 
23                             0.985049581652608 127.986032287182 0.00398942911908709 -141.529754634681 0.00398942911908709 -141.529754634681 0.98511179658478 133.287325507802 
