! Touchstone file exported from HFSS 3D Layout Design 2026.1.0
!        File:           D:/Work/SIM/ADS_AUTO_SIM/projects/RFSOC_RF/TX_Fillter.aedt
!        Generated:      11:55:51 PM Aug 30, 2026
!        Design:         TX_BAND1_MCFIL_R12_CNN030
!        Project:        TX_Fillter
!
# GHz S MA R 50.000000
! Terminal data exported
! Port[1] = Port1
! Port[2] = Port2
14                             0.967147073073284 -178.992214488931 0.00509452292869357 175.80731766944  0.00509452292869356 175.80731766944  0.965950478979841 179.392387193171 
14.05                          0.966513849526256 -179.967173745958 0.00520654348511226 175.328420273563 0.00520654348511225 175.328420273563 0.965299964356729 178.389825479594 
14.1                           0.965860860881565 179.049654138607 0.00532398521777467 174.862300263615 0.00532398521777469 174.862300263614 0.964629695554909 177.379060922609 
14.15                          0.965187201744862 178.058006493518 0.00544724166226522 174.408847808701 0.00544724166226528 174.408847808699 0.963938785014744 176.359840062713 
14.2                           0.964491912133597 177.057608313847 0.00557674065653057 173.967899497911 0.00557674065653062 173.967899497911 0.963226292245845 175.331897552027 
14.25                          0.963773973381354 176.048171533305 0.00571294764293684 173.539232934264 0.00571294764293688 173.539232934263 0.962491219885486 174.294955457475 
14.3                           0.963032303672778 175.029394244119 0.00585636930924787 173.122561093728 0.00585636930924791 173.122561093727 0.961732509403337 173.248722514149 
14.35                          0.962265753169983 174.000959859951 0.00600755760566866 172.717526480254 0.00600755760566871 172.717526480253 0.960949036415159 172.192893324635 
14.4                           0.961473098686557 172.962536216896 0.00616711417962235 172.323695115487 0.00616711417962238 172.323695115486 0.960139605563582 171.127147499602 
14.45                          0.96065303785986 171.91377460711  0.0063356952750919 171.940550410045 0.00633569527509193 171.940550410045 0.959302944918913 170.051148734515 
14.5                           0.959804182766112 170.854308739038 0.0065140171492752 171.567486971523 0.00651401714927523 171.567486971522 0.958437699846975 168.964543816811 
14.55                          0.958925052915691 169.783753617611 0.00670286206609524 171.20380441252  0.00670286206609526 171.20380441252  0.957542426284294 167.866961557263 
14.6                           0.958014067557998 168.701704337058 0.00690308493392298 170.848701229656 0.00690308493392296 170.848701229655 0.956615583353177 166.758011638641 
14.65                          0.957069537215924 167.607734778243 0.00711562066388448 170.501268831271 0.00711562066388445 170.501268831271 0.955655525240402 165.637283374033 
14.7                           0.956089654359353 166.501396201508 0.0073414923355334 170.160485796946 0.0073414923355334 170.160485796946 0.954660492253081 164.504344366364 
14.75                          0.955072483114811 165.382215725087 0.00758182026871275 169.82521245552  0.00758182026871273 169.82521245552  0.95362860095351 163.358739059758 
14.8                           0.954015947894297 164.249694678011 0.0078378321143786 169.494185869545 0.00783783211437858 169.494185869545 0.952557833261393 162.199987172357 
14.85                          0.952917820809947 163.103306815229 0.00811087409333329 169.166015312438 0.00811087409333327 169.166015312438 0.951446024396166 161.027581999043 
14.9                           0.951775707722297 161.942496381274 0.00840242353058528 168.839178319644 0.00840242353058529 168.839178319645 0.950290849514122 159.84098857126  
14.95                          0.950587032747968 160.766676007239 0.00871410285485111 168.512017386352 0.00871410285485108 168.512017386352 0.949089808874092 158.639641659634 
15                             0.949349021027101 159.57522442411  0.00904769525804038 168.182737371466 0.00904769525804036 168.182737371466 0.947840211341039 157.422943603508 
15.05                          0.948058679521153 158.367483973492 0.00940516223900465 167.849403650478 0.00940516223900465 167.849403650479 0.94653915600857 156.19026194963  
15.1                           0.946712775576994 157.142757894592 0.00978866329005829 167.50994103843  0.00978866329005827 167.509941038431 0.945183511688184 154.940926880203 
15.15                          0.945307812952696 155.900307363769 0.0102005780245917 167.162133478704 0.0102005780245917 167.162133478705 0.943769893974318 153.674228408156 
15.2                           0.943840004952798 154.639348260188 0.0106435310904116 166.803624464105 0.0106435310904116 166.803624464105 0.9422946395487  152.389413314896 
15.25                          0.942305244265017 153.35904762792  0.0111204202673408 166.431918124288 0.0111204202673408 166.431918124288 0.94075377733409 151.085681802845 
15.3                           0.940699069024513 152.058519801227 0.0116344482103487 166.044380878829 0.0116344482103487 166.04438087883  0.939142996044464 149.762183831758 
15.35                          0.939016624554244 150.736822155794 0.0121891583725369 165.638243518935 0.0121891583725369 165.638243518935 0.937457607604339 148.418015104102 
15.4                           0.937252620138117 149.392950444102 0.0127884757273938 165.210603544166 0.0127884757273938 165.210603544166 0.935692505821987 147.052212660602 
15.45                          0.935401280074904 148.025833668075 0.0134367530088644 164.758427544483 0.0134367530088644 164.758427544483 0.933842119597001 145.6637500424   
15.5                           0.933456288131771 146.634328436469 0.0141388233033025 164.278553383563 0.0141388233033025 164.278553383563 0.931900359818813 144.251531971073 
15.55                          0.931410724362707 145.217212748164 0.0149000599619874 163.767691907565 0.0149000599619874 163.767691907564 0.929860558965401 142.81438849201  
15.6                           0.929256993074155 143.773179135509 0.0157264449597278 163.222427874981 0.0157264449597278 163.222427874981 0.927715402235652 141.351068520277 
15.65                          0.926986740501766 142.300827094234 0.0166246470077099 162.639219778463 0.0166246470077099 162.639219778463 0.925456848839062 139.860232721211 
15.7                           0.924590760501235 140.798654718097 0.0176021109412044 162.014398208507 0.0176021109412044 162.014398208507 0.923076041815462 138.340445650496 
15.75                          0.922058886243918 139.265049447539 0.0186671601494908 161.344162391533 0.0186671601494907 161.344162391533 0.920563204457071 136.790167070588 
15.8                           0.919379865534024 137.698277832304 0.0198291141012058 160.624574520518 0.0198291141012057 160.624574520518 0.917907521045134 135.207742352247 
15.85                          0.916541216916368 136.096474198569 0.0210984233482841 159.851551484041 0.021098423348284 159.851551484041 0.915096999181932 133.591391861842 
15.9                           0.913529063207313 134.457628102104 0.0224868247705829 159.020853588266 0.0224868247705829 159.020853588265 0.912118310481725 131.939199227746 
15.95                          0.910327938439935 132.779570441185 0.024007520255332 158.128069854674 0.0240075202553319 158.128069854674 0.908956605764956 130.249098373135 
16                             0.906920563448257 131.059958097575 0.0256753824932429 157.168599462977 0.0256753824932428 157.168599462977 0.905595300159968 128.518859199347 
16.05                          0.903287584403543 129.296256972883 0.0275071921158543 156.137628892494 0.0275071921158542 156.137628892494 0.902015822634717 126.74607180543  
16.1                           0.899407267535686 127.48572329371  0.0295219109904503 155.030104295687 0.0295219109904501 155.030104295687 0.898197323435647 124.92812913857  
16.15                          0.89525514200318 125.62538307655  0.031740997114566 153.840698614668 0.0317409971145658 153.840698614668 0.894116331680542 123.06220799099  
16.2                           0.890803581398796 123.71200967856  0.0341887671820719 152.563772926628 0.0341887671820718 152.563772926628 0.88974635391945 121.145248297914 
16.25                          0.886021312688473 121.742099422329 0.0368928134745428 151.193331480622 0.0368928134745427 151.193331480622 0.885057402835428 119.173930757507 
16.3                           0.880872839492983 119.711845385106 0.039884482177223 149.722969872002 0.0398844821772229 149.722969872002 0.880015443418128 117.144652900754 
16.35                          0.875317764590486 117.617109605225 0.0431994203865218 148.145815802248 0.0431994203865217 148.145815802248 0.874581741959264 115.053503906584 
16.4                           0.869309994466582 115.453394209488 0.0468781987426607 146.454461907382 0.0468781987426606 146.454461907382 0.868712101207402 112.89623871357  
16.45                          0.862796806907137 113.215812346638 0.0509670154430174 144.640890232673 0.0509670154430173 144.640890232673 0.862355963209898 110.668252365414 
16.5                           0.85571776144898 110.899060384273 0.0555184848476772 142.696388123199 0.0555184848476772 142.696388123199 0.855455360176712 108.364556102542 
16.55                          0.848003432713692 108.497393676752 0.0605925092009  140.611455645513 0.0605925092009  140.611455645513 0.847943693836719 105.97975756198  
16.6                           0.839573949475151 106.004609465099 0.0662572240186398 138.375705238328 0.0662572240186397 138.375705238328 0.839744326405998 103.508048694302 
16.65                          0.830337329731166 103.414042304872 0.0725899947875921 135.97775522917  0.072589994787592 135.97775522917  0.830768973365909 100.943206823167 
16.7                           0.82018761718427 100.71858008596  0.0796784224701559 133.405120318565 0.0796784224701557 133.405120318565 0.820915902784321 98.2786169022986 
16.75                          0.809002852191266 97.9107125586976 0.0876212847563424 130.644104356659 0.0876212847563423 130.644104356659 0.810067972575521 95.5073268014982 
16.8                           0.796642957607827 94.9826297884161 0.0965292949423728 127.679704029704 0.0965292949423727 127.679704029704 0.798090582884803 92.6221528269377 
16.85                          0.782947697423857 91.9263957513165 0.106525495788965 124.495536827397 0.106525495788964 124.495536827397 0.784829695833699 89.6158602345826 
16.9                           0.767734987934921 88.7342331425861 0.117745016510977 121.073813328684 0.117745016510977 121.073813328684 0.770110193117856 86.4814539399204 
16.95                          0.750800025581665 85.3989702992293 0.130333803351283 117.395382858155 0.130333803351283 117.395382858155 0.753735021181389 83.2126287421254 
17                             0.731915962591393 81.9147208379543 0.144445789116464 113.439893158478 0.144445789116464 113.439893158478 0.735485833597788 79.8044468400482 
17.05                          0.710837226923398 78.2778917324246 0.160237807382134 109.186118545246 0.160237807382134 109.186118545246 0.715126196379938 76.2543333985496 
17.1                           0.68730704381173 74.4886457002851 0.177861418406895 104.612525454784 0.177861418406895 104.612525454785 0.692408871419736 72.5635073533819 
17.15                          0.661071223427019 70.5529764822199 0.197450770236372 99.6981554663489 0.197450770236371 99.698155466349  0.667089187934786 68.7389908916294 
17.2                           0.631900694219339 66.4855847091928 0.219105798935862 94.4239062785275 0.219105798935862 94.4239062785276 0.63894691460741 64.7963589061456 
17.25                          0.599625302564109 62.3137554985477 0.242870663637612 88.7742686097874 0.242870663637612 88.7742686097875 0.607819075735479 60.7633836353818 
17.3                           0.564180608896269 58.0824160593657 0.268708523234257 82.7395154696716 0.268708523234257 82.7395154696716 0.573645353873162 56.6846733339422 
17.35                          0.525667216420827 53.8604593800483 0.296475700803058 76.3182245337405 0.296475700803058 76.3182245337405 0.536525504173836 52.6272557933219 
17.4                           0.484418144407374 49.7482031614123 0.325900729717007 69.5198421064576 0.325900729717008 69.5198421064576 0.49678410884894 48.6867536749426 
17.45                          0.441064128640439 45.8854010199709 0.356575911580943 62.3667974215173 0.356575911580944 62.3667974215173 0.455032177272542 44.9932319081745 
17.5                           0.396580881671992 42.458275312299  0.387969351290176 54.8955250804109 0.387969351290176 54.8955250804108 0.412208854967022 41.7147707938737 
17.55                          0.352298587436287 39.7019877921517 0.419462341127388 47.1557662135734 0.419462341127389 47.1557662135732 0.369582235883233 39.0549844195952 
17.6                           0.309853577586057 37.8906620436361 0.450409966647886 39.2077941039951 0.450409966647886 39.2077941039948 0.32868806964612 37.2376847783508 
17.65                          0.2710626487212  37.2996282234219 0.480213922902622 31.1177387274511 0.480213922902622 31.1177387274508 0.291188877316316 36.4683089536189 
17.7                           0.237696798603579 38.1182038039067 0.508390131626542 22.9517913764631 0.508390131626541 22.9517913764628 0.258643018433796 36.8624243940719 
17.75                          0.211133218811763 40.3070993290727 0.534614008558093 14.7704717160174 0.534614008558092 14.7704717160172 0.232192789298305 38.3493888066528 
17.8                           0.191924950021791 43.4667937796927 0.558733746316684 6.62411967983212 0.558733746316682 6.62411967983193 0.212237769255451 40.603579419578  
17.85                          0.179490115304967 46.8727308069623 0.580752870868041 -1.44965602860956 0.580752870868039 -1.4496560286097 0.198249996932976 43.0888258581071 
17.9                           0.172216310268503 49.7487285080445 0.600792028068026 -9.42645392699566 0.600792028068024 -9.42645392699572 0.18889689988649 45.2368924864311 
17.95                          0.168007219272156 51.5773943324089 0.619043095574311 -17.2938759769036 0.61904309557431 -17.2938759769036 0.182452258148432 46.6438200151553 
18                             0.164903792074032 52.1989109287626 0.635726654277173 -25.0492937636713 0.635726654277173 -25.0492937636713 0.177258002313336 47.1488670565621 
18.05                          0.161437379258777 51.711197173158  0.65105924585785 -32.6972306046876 0.65105924585785 -32.6972306046876 0.172015325657557 46.789787797131  
18.1                           0.156688645453446 50.3301214046185 0.665232336374267 -40.246846917662 0.665232336374269 -40.246846917662 0.16586640848449 45.716351520861  
18.15                          0.15019485408249 48.2997201487044 0.678401879727027 -47.7098155226828 0.67840187972703 -47.7098155226829 0.158347720161354 44.1236408260505 
18.2                           0.141824356283944 45.8570642507075 0.690685979028392 -55.0987029402246 0.690685979028394 -55.0987029402247 0.149300300469616 42.2194752189231 
18.25                          0.131670327463051 43.2311266884751 0.702167906592899 -62.425857950393 0.702167906592901 -62.4258579503931 0.138784165877586 40.2182183461376 
18.3                           0.119975853686513 40.660878541945  0.712902103878118 -69.7027459542299 0.71290210387812 -69.70274595423  0.127013735421858 38.3518277665447 
18.35                          0.107088920864654 38.4288844397943 0.722921339328166 -76.9396420031169 0.722921339328167 -76.939642003117 0.114317638048117 36.8941257371494 
18.4                           0.0934460286531212 36.9166748830568 0.732243744396926 -84.1455916442808 0.732243744396927 -84.1455916442809 0.101123819136118 36.1991362895323 
18.45                          0.0795908870412071 36.6978095782449 0.740878900223195 -91.3285561020866 0.740878900223196 -91.3285561020866 0.0879742799594879 36.7552174613649 
18.5                           0.0662501399020249 38.685913510819  0.748832501565653 -98.4956703835144 0.748832501565653 -98.4956703835144 0.0755789776057759 39.2419326440669 
18.55                          0.0545066361068223 44.2777877471708 0.756109394953774 -105.653556449811 0.756109394953774 -105.653556449811 0.0649121305432846 44.5047491846309 
18.6                           0.0460499316074974 54.9723059520362 0.762714988735076 -112.80864716813 0.762714988735076 -112.80864716813 0.0572834467975861 53.1665304804311 
18.65                          0.0429977446934043 70.0999550741085 0.768655171745423 -119.967489593541 0.768655171745424 -119.967489593541 0.0541056791449856 64.5560927584465 
18.7                           0.0463240314874758 84.6444919352357 0.77393495851221 -127.137007641505 0.773934958512211 -127.137007641504 0.0560881878343471 76.0171210242729 
18.75                          0.0546996183404374 94.0441862138009 0.778556106305458 -134.324713779101 0.778556106305459 -134.324713779101 0.0626339814881221 84.7168342068696 
18.8                           0.0660917712304748 98.1017182699583 0.782513930779662 -141.538866372228 0.782513930779664 -141.538866372228 0.0724377958764199 89.7225777262658 
18.85                          0.0791634995362074 98.3578399738851 0.785793495335367 -148.78857324323 0.78579349533537 -148.78857324323 0.0843753329338939 91.5402008788412 
18.9                           0.0932926205823846 96.119138530306  0.788365282546938 -156.083842446487 0.788365282546941 -156.083842446487 0.0977830502890567 90.9822213597482 
18.95                          0.108288047985454 92.2101845251653 0.790180396097753 -163.435578082975 0.790180396097756 -163.435578082975 0.11237534243931 88.7039642134429 
19                             0.124204370821596 87.1287358284087 0.791165314470029 -170.855512193824 0.79116531447003 -170.855512193824 0.128116952013279 85.1535610058732 
19.05                          0.141244328794938 81.1839047404148 0.791216253068847 -178.356053728087 0.791216253068847 -178.356053728087 0.145132746851115 80.6250200433409 
19.1                           0.159703772721507 74.57855013447   0.790193323741092 174.049976936051 0.79019332374109 174.049976936051 0.163650094699964 75.3125491055599 
19.15                          0.179933504360345 67.4546892160887 0.787914946300994 166.34977281177  0.787914946300988 166.34977281177  0.183958726707088 69.3488338946802 
19.2                           0.202305654007212 59.9180628088989 0.784153396233384 158.531180582129 0.784153396233376 158.531180582129 0.206377299713013 62.8296130972791 
19.25                          0.227178708993944 52.0513529757948 0.778632970215195 150.583616372293 0.778632970215185 150.583616372293 0.231220133378248 55.8290173698741 
19.3                           0.254858664107485 43.9214652528204 0.771032954782561 142.499305787924 0.771032954782551 142.499305787925 0.258760554172557 48.409085872747  
19.35                          0.285556107266889 35.5840429344917 0.760998207728315 134.274860229404 0.760998207728304 134.274860229404 0.289189743363058 40.6257596898085 
19.4                           0.319341411558636 27.0870192794217 0.748160338739517 125.913128988595 0.748160338739508 125.913128988595 0.322572664693624 32.5328563265667 
19.45                          0.356102983300166 18.4740451238738 0.73217165460948 117.42515451481  0.732171654609473 117.425154514811 0.358805788547802 24.184935020177  
19.5                           0.395516455667246 9.78789621023683 0.71275164006966 108.831919364763 0.712751640069655 108.831919364763 0.397584557766439 15.639461480776  
19.55                          0.437034726613935 1.07346440620475 0.689741587576026 100.165448024381 0.689741587576023 100.165448024382 0.438390713935605 6.95826208126392 
19.6                           0.479908059086174 -7.62028915733808 0.663157848489547 91.4687834435476 0.663157848489546 91.4687834435478 0.480508992648094 -1.79201482222253 
19.65                          0.523238556785433 -16.2399688271962 0.633230149745704 82.7944705238104 0.633230149745705 82.7944705238102 0.523077838556362 -10.540757764877 
19.7                           0.566064379987111 -24.7291782370715 0.600411346768828 74.2014768697141 0.600411346768827 74.2014768697132 0.565169909195252 -19.2156878039597 
19.75                          0.607459004883382 -33.031476837461 0.565350700139698 65.750900835031  0.565350700139694 65.7509008350296 0.605888134738565 -27.7463189658271 
19.8                           0.646624486145784 -41.0941393638495 0.528833127469761 57.5011987416637 0.528833127469754 57.5011987416618 0.644456731406666 -36.0679252400355 
19.85                          0.682958848686824 -48.87179174037  0.491697529472755 49.5038283382099 0.491697529472743 49.5038283382076 0.680287568819936 -44.1251695958057 
19.9                           0.716086254063311 -56.3291120163763 0.45475308129811 41.8000697410886 0.454753081298093 41.800069741086  0.713010542043027 -51.8746621241082 
19.95                          0.745850212017838 -63.4421474364565 0.418710853289201 34.419417485002  0.418710853289179 34.4194174849992 0.742467957508215 -59.2860618493486 
20                             0.772279448615735 -70.198228360125 0.384140943668456 27.3795119161072 0.384140943668431 27.3795119161045 0.768682126692664 -66.3417483868507 
20.05                          0.795539956740035 -76.5947850679422 0.351456610007609 20.6872613497628 0.351456610007582 20.6872613497604 0.791809269338431 -73.0353987604319 
20.1                           0.815885484151689 -82.6375159533356 0.320920363307437 14.3406734797369 0.32092036330741 14.3406734797349 0.812091663845313 -79.3699345955381 
20.15                          0.833614601463833 -88.3383353399041 0.292664121441862 8.33094356857092 0.292664121441835 8.33094356856941 0.829816017161187 -85.3552758453805 
20.2                           0.849038018278343 -93.7134170616892 0.266715755994188 2.64446634439711 0.266715755994162 2.64446634439612 0.845281681414359 -91.0062194592358 
20.25                          0.862456453166473 -98.7815161898932 0.243026278002914 -2.7354220662539 0.24302627800289 -2.73542206625435 0.858779065082069 -96.3406243449271 
20.3                           0.874147487384194 -103.562639336476 0.221494194906   -7.82704973380418 0.221494194905978 -7.82704973380413 0.870576748105301 -101.377970321285 
20.35                          0.88435916547201 -108.077059236989 0.201985480532269 -12.6493619637596 0.201985480532251 -12.6493619637591 0.880915148820422 -106.138283342157 
20.4                           0.893308176391748 -112.344629381007 0.184348885187144 -17.2211797846877 0.184348885187128 -17.2211797846869 0.890004649203615 -110.641379253881 
20.45                          0.901180852089346 -116.384339692395 0.16842702411694 -21.5607058474072 0.168427024116928 -21.5607058474061 0.898026470421859 -114.906363818823 
20.5                           0.908135698557528 -120.21405457197 0.154063980931119 -25.6852192157508 0.154063980931109 -25.6852192157495 0.905135051657672 -118.951327432353 
20.55                          0.914306599466676 -123.850382275337 0.141110211104028 -29.6109077297584 0.141110211104021 -29.6109077297571 0.911461096197466 -122.793181049344 
20.6                           0.919806160408091 -127.308634693039 0.129425452695191 -33.3527964747336 0.129425452695186 -33.3527964747325 0.917114766563112 -126.447590346153 
20.65                          0.924728892847581 -130.602846463856 0.118880225278574 -36.9247406497985 0.118880225278571 -36.9247406497977 0.922188734657692 -129.928975382725 
20.7                           0.9291540886446  -133.745830806859 0.109356366921866 -40.3394595648361 0.109356366921864 -40.3394595648357 0.926760940338114 -133.250551807728 
20.75                          0.933148329534765 -136.749256177008 0.100746942963723 -43.6085952425381 0.100746942963723 -43.6085952425382 0.93089700284535 -136.424396640185 
20.8                           0.936767629772453 -139.623732928263 0.092955766022314 -46.7427842351366 0.0929557660223153 -46.7427842351373 0.934652281979748 -139.461526963122 
20.85                          0.940059238292082 -142.378902870533 0.0858966940765167 -49.7517350320243 0.0858966940765189 -49.7517350320257 0.938073613466628 -142.37198374766 
20.9                           0.943063139201216 -145.023527229237 0.0794928196523264 -52.6443061230934 0.0794928196523291 -52.6443061230957 0.941200755243622 -145.164915793012 
20.95                          0.945813292768019 -147.565570328354 0.0736756243789876 -55.4285816580022 0.0736756243789908 -55.4285816580052 0.944067584821425 -147.848660694936 
21                             0.948338657502792 -150.012277540883 0.0683841458901972 -58.1119429223391 0.0683841458902006 -58.111942922343 0.946703086495507 -150.430821069   
21.05                          0.950664030012565 -152.370246855502 0.0635641852329019 -60.7011347077891 0.0635641852329054 -60.7011347077938 0.949132163499657 -152.918335131332 
21.1                           0.952810734515526 -154.645493922239 0.0591675702422779 -63.2023262119141 0.0591675702422813 -63.2023262119196 0.951376305639263 -155.317541309403 
21.15                          0.954797189056071 -156.843510755031 0.0551514819566272 -65.6211664564323 0.0551514819566306 -65.6211664564386 0.953454138319636 -157.634236914249 
21.2                           0.956639370973272 -158.969318450672 0.0514778457652704 -67.9628344267771 0.0514778457652736 -67.962834426784 0.955381874594865 -159.873731121107 
21.25                          0.958351200220551 -161.027514377148 0.0481127856600258 -70.232084256472 0.0481127856600287 -70.2320842564795 0.957173688078056 -162.040892625479 
21.3                           0.959944855755468 -163.022314321302 0.0450261380267492 -72.4332858394817 0.0450261380267519 -72.4332858394899 0.958842021318208 -164.140192399108 
21.35                          0.96143103739028 -164.957590087297 0.0421910203995773 -74.5704612741587 0.0421910203995796 -74.5704612741671 0.960397841539405 -166.175741987788 
21.4                           0.962819183159011 -166.836903017789 0.0395834501837574 -76.6473175385197 0.0395834501837593 -76.6473175385282 0.961850853400506 -168.151327785716 
21.45                          0.964117650347615 -168.663533878506 0.0371820083124623 -78.667275778321 0.0371820083124639 -78.6672757783294 0.963209676603464 -170.070441699333 
21.5                           0.965333866782547 -170.440509510101 0.0349675429897865 -80.63349756328  0.0349675429897878 -80.6334975632884 0.964481994691296 -171.936308584147 
21.55                          0.966474457718311 -172.170626612653 0.0329229089870136 -82.5489084370874 0.0329229089870146 -82.5489084370953 0.965674680173484 -173.751910805098 
21.6                           0.967545352652028 -173.856472990309 0.0310327383372921 -84.4162190562155 0.0310327383372928 -84.4162190562229 0.966793900145595 -175.520010237481 
21.65                          0.968551875577447 -175.500446547683 0.0292832386735021 -86.2379441826301 0.0292832386735026 -86.2379441826366 0.967845205787438 -177.243167992819 
21.7                           0.969498821533969 -177.104772296512 0.0276620158495842 -88.0164197672469 0.0276620158495844 -88.0164197672523 0.968833608493777 -178.923762123462 
21.75                          0.970390521777201 -178.671517600939 0.0261579178617259 -89.7538183348871 0.026157917861726 -89.753818334891 0.969763644883793 179.4359964686   
21.8                           0.971230899471108 179.797394137249 0.0247608974343535 -91.452162857723 0.0247608974343535 -91.4521628577255 0.970639432525931 177.834049718831 
21.85                          0.972023517457565 178.300171176174 0.0234618909531237 -93.1133392828316 0.0234618909531237 -93.1133392828324 0.971464717883989 176.268479506351 
21.9                           0.972771619380829 176.835142358276 0.0222527117122213 -94.7391078603556 0.0222527117122212 -94.7391078603547 0.972242917722769 174.737496022996 
21.95                          0.973478165218995 175.400747124437 0.0211259556970952 -96.3311134018083 0.0211259556970953 -96.3311134018052 0.972977154994658 173.239427267254 
22                             0.974145862091439 173.995526497186 0.0200749183482143 -97.8908945830232 0.0200749183482143 -97.8908945830177 0.973670290052289 171.772709541215 
22.05                          0.974777191062339 172.618114926799 0.0190935209488515 -99.419892393001 0.0190935209488516 -99.4198923929932 0.974324947888841 170.335878842917 
22.1                           0.97537443053878 171.267232906835 0.0181762454529372 -100.919457818207 0.0181762454529374 -100.919457818196 0.97494354199028 168.927563058986 
22.15                          0.975939676762563 169.941680276668 0.0173180767202043 -102.390858841605 0.0173180767202047 -102.390858841592 0.975528295287808 167.546474873471 
22.2                           0.976474861813271 168.640330138351 0.0165144512577167 -103.83528682667 0.0165144512577173 -103.835286826655 0.976081258619906 166.191405318469 
22.25                          0.976981769473026 167.362123323573 0.0157612116816854 -105.25386234866 0.0157612116816861 -105.253862348642 0.976604327048331 164.861217900601 
22.3                           0.977462049248031 166.106063353931 0.0150545662133844 -106.647640528451 0.0150545662133854 -106.64764052843 0.977099254318763 163.554843244891 
22.35                          0.977917228796163 164.871211844236 0.0143910526098342 -108.017615918079 0.0143910526098354 -108.017615918057 0.977567665712245 162.271274204153 
22.4                           0.978348724971848 163.656684304272 0.0137675060054343 -109.36472698172 0.0137675060054357 -109.364726981695 0.978011069496553 161.009561387747 
22.45                          0.978757853667812 162.461646299409 0.0131810302063633 -110.68986021106 0.0131810302063649 -110.689860211033 0.978430867155772 159.768809068654 
22.5                           0.979145838606846 161.285309934907 0.0126289720366404 -111.993853909817 0.0126289720366422 -111.993853909789 0.978828362550483 158.548171432303 
22.55                          0.979513819214591 160.126930632543 0.0121088983843794 -113.277501678444 0.0121088983843814 -113.277501678415 0.979204770139345 157.346849134486 
22.6                           0.979862857685748 158.985804171654 0.0116185756399709 -114.541555626756 0.0116185756399729 -114.541555626727 0.979561222374541 156.164086139229 
22.65                          0.980193945340446 157.861263969636 0.0111559512555421 -115.786729339345 0.0111559512555442 -115.786729339316 0.979898776368178 154.999166810509 
22.7                           0.980508008354261 156.752678579607 0.0107191371878296 -117.013700616038 0.0107191371878317 -117.01370061601 0.98021841991368 153.851413234471 
22.75                          0.98080591293415 155.659449385253 0.0103063950151847 -118.223114007389 0.0103063950151866 -118.223114007362 0.980521076935083 152.720182751187 
22.8                           0.981088470003017 154.581008474982 0.00991612254439059 -119.415583163162 0.00991612254439238 -119.415583163139 0.980807612427742 151.604865677121 
22.85                          0.981356439447522 153.516816679281 0.00954684174476652 -120.591693009958 0.00954684174476804 -120.591693009938 0.981078836945825 150.504883201399 
22.9                           0.981610533976747 152.466361756854 0.00919718786610459 -121.752001772513 0.00919718786610575 -121.752001772498 0.981335510685096 149.419685440637 
22.95                          0.981851422633418 151.429156716513 0.00886589961366989 -122.897042851793 0.00886589961367055 -122.897042851785 0.981578347203503 148.348749638588 
23                             0.982079733994231 150.404738263122 0.00855181026812024 -124.027326571686 0.00855181026812024 -124.027326571686 0.981808016816981 147.291578498219 
