! Touchstone file exported from HFSS 3D Layout Design 2026.1.0
!        File:           D:/Work/SIM/ADS_AUTO_SIM/projects/RFSOC_RF/TX_Fillter.aedt
!        Generated:      08:13:28 AM Aug 31, 2026
!        Design:         TX_BAND1_MCFIL_R75_CNN035
!        Project:        TX_Fillter
!
# GHz S MA R 50.000000
! Terminal data exported
! Port[1] = Port1
! Port[2] = Port2
14                             0.974689186273418 -161.225078348533 0.00350670966423486 -175.433597942364 0.00350670966423486 -175.433597942364 0.97484003488537 -158.804869407819 
14.05                          0.974237503482744 -162.078313192762 0.00357510555818886 -175.782542199342 0.00357510555818883 -175.782542199341 0.974384582496691 -159.660973026121 
14.1                           0.973771826713432 -162.936944158956 0.00364683801862937 -176.109316143688 0.00364683801862933 -176.109316143687 0.973914872369228 -160.522700739231 
14.15                          0.973291461148407 -163.801134409255 0.00372217763745767 -176.413449064555 0.0037221776374576 -176.413449064554 0.973430192341417 -161.390219902036 
14.2                           0.972795665069207 -164.671055855994 0.00380142217808687 -176.69451477978 0.0038014221780868 -176.694514779778 0.972929781881494 -162.263706819208 
14.25                          0.972283645870468 -165.546889745997 0.00388489961219986 -176.952140749096 0.0038848996121998 -176.952140749094 0.972412827949382 -163.143347346859 
14.3                           0.971754555664065 -166.428827292323 0.00397297151768601 -177.186018151796 0.00397297151768593 -177.186018151794 0.97187846042962 -164.029337543413 
14.35                          0.971207486423014 -167.31707035805 0.00406603688257111 -177.395912951711 0.00406603688257103 -177.395912951709 0.971325747082861 -164.921884374528 
14.4                           0.970641464608274 -168.211832197278 0.00416453636567602 -177.581677954295 0.00416453636567594 -177.581677954293 0.970753687956038 -165.821206477459 
14.45                          0.970055445213414 -169.113338259065 0.00426895707156385 -177.743265838042 0.00426895707156379 -177.74326583804 0.970161209182704 -166.727534990875 
14.5                           0.969448305152676 -170.021827060726 0.00437983790524154 -177.88074311487 0.00437983790524147 -177.880743114867 0.969547156095004 -167.64111445687 
14.55                          0.968818835906947 -170.937551137669 0.00449777558128179 -177.994304941689 0.00449777558128174 -177.994304941687 0.968910285557048 -168.562203802688 
14.6                           0.968165735329262 -171.860778077785 0.00462343137279667 -178.084290668148 0.00462343137279662 -178.084290668146 0.968249257415807 -169.491077410622 
14.65                          0.967487598496392 -172.791791649431 0.00475753869835035 -178.151199964125 0.00475753869835031 -178.151199964124 0.967562624949607 -170.428026285576 
14.7                           0.966782907475354 -173.73089303311 0.00490091165985367 -178.195709326098 0.00490091165985363 -178.195709326097 0.966848824175455 -171.373359330953 
14.75                          0.966050019852834 -174.678402168261 0.00505445466223527 -178.218688715422 0.00505445466223524 -178.218688715421 0.966106161854279 -172.327404744915 
14.8                           0.965287155850871 -175.634659227988 0.00521917326684173 -178.22121803625 0.00521917326684171 -178.221218036249 0.965332802006876 -173.290511550565 
14.85                          0.964492383823017 -176.600026236224 0.00539618645583239 -178.204603118878 0.00539618645583236 -178.204603118877 0.96452675072235 -174.263051275407 
14.9                           0.963663603890562 -177.574888843698 0.00558674051520607 -178.1703908394  0.00558674051520607 -178.1703908394  0.963685839003806 -175.245419797417 
14.95                          0.962798529437148 -178.559658281248 0.00579222478063457 -178.12038298237 0.00579222478063455 -178.120382982369 0.962807703352115 -176.238039377416 
15                             0.961894666130873 -179.554773511464 0.00601418953431453 -178.056648444038 0.00601418953431453 -178.056648444038 0.961889763735828 -177.241360900064 
15.05                          0.960949288083894 179.439296397502 0.00625436639420395 -177.981533383973 0.00625436639420398 -177.981533383973 0.960929198532244 -178.255866348854 
15.1                           0.9599594106886  178.422049648906 0.00651469160124122 -177.897668966169 0.00651469160124123 -177.897668966169 0.959922915948546 -179.282071543985 
15.15                          0.958921759583737 177.392948814379 0.0067973326878247 -177.807976390555 0.00679733268782473 -177.807976390555 0.958867521340246 179.679470823985 
15.2                           0.957832735100269 176.351417615885 0.00710471910484431 -177.715669003851 0.00710471910484433 -177.715669003851 0.957759279732943 178.628167827178 
15.25                          0.956688371410841 175.296837352795 0.00743957749842145 -177.624251395471 0.00743957749842145 -177.624251395472 0.956594072718308 177.563382557322 
15.3                           0.955484289453321 174.228542928653 0.00780497246553784 -177.537515527981 0.00780497246553784 -177.537515527982 0.955367348730327 176.48442995765  
15.35                          0.954215642511186 173.14581842593  0.00820435378522988 -177.45953411881 0.00820435378522989 -177.45953411881 0.954074065505998 175.390572173964 
15.4                           0.952877053103207 172.047892169889 0.00864161132556227 -177.394651674807 0.00864161132556228 -177.394651674807 0.952708623286644 174.281013361111 
15.45                          0.951462539550966 170.933931214658 0.00912113907435867 -177.34747377646 0.00912113907435863 -177.347473776461 0.951264787010106 173.154893872202 
15.5                           0.949965430241761 169.803035175632 0.00964791004387192 -177.322855405784 0.00964791004387194 -177.322855405784 0.949735595365353 172.011283747837 
15.55                          0.94837826316866 168.654229322439 0.0102275641690342 -177.325889302535 0.0102275641690341 -177.325889302535 0.948113254110465 170.849175411404 
15.6                           0.946692667786635 167.486456836041 0.0108665117717131 -177.361895509912 0.0108665117717131 -177.361895509912 0.946389010467979 169.667475464355 
15.65                          0.944899225544856 166.298570122366 0.0115720557197094 -177.436413427638 0.0115720557197095 -177.436413427639 0.944553004676802 168.464995462282 
15.7                           0.942987304603412 165.089321063682 0.01235253609439 -177.555197824665 0.01235253609439 -177.555197824665 0.942594093856688 167.2404415393   
15.75                          0.940944863170248 163.857350078751 0.0132175020265459 -177.724220377019 0.0132175020265459 -177.724220377019 0.940499642177389 165.992402735486 
15.8                           0.938758214539462 162.601173855122 0.0141779164057467 -177.949678393995 0.0141779164057468 -177.949678393995 0.938255269852463 164.719337871449 
15.85                          0.936411745196496 161.319171614478 0.0152464004628644 -178.238012488135 0.0152464004628645 -178.238012488135 0.935844551610366 163.419560808224 
15.9                           0.933887575177772 160.00956977885  0.0164375268281204 -178.595935045529 0.0164375268281204 -178.595935045529 0.933248652920956 162.091223933804 
15.95                          0.931165147103349 158.67042492866  0.0177681716494992 -179.030471481088 0.0177681716494992 -179.030471481088 0.930445889230844 160.732299736603 
16                             0.928220726778515 157.299604993568 0.0192579388023291 -179.549016439515 0.0192579388023293 -179.549016439515 0.927411189604848 159.340560372173 
16.05                          0.925026793782827 155.894768711129 0.020929672223911 179.8405926502   0.0209296722239113 179.8405926502   0.924115441257069 157.913555220075 
16.1                           0.921551294790575 154.45334355314  0.0228100760641122 179.129981917552 0.0228100760641124 179.129981917552 0.920524685208734 156.448586591135 
16.15                          0.917756725217205 152.972502597989 0.0249304667380317 178.310124083779 0.0249304667380319 178.310124083779 0.916599125410826 154.942684026156 
16.2                           0.913598995872665 151.449141286724 0.0273276861391388 177.371194388292 0.0273276861391391 177.371194388292 0.912291903773932 153.392578096742 
16.25                          0.909026030385189 149.879855748258 0.0300452111510955 176.302394881591 0.030045211151096 176.302394881591 0.907547581349254 151.794675391459 
16.3                           0.903976026184905 148.260925585711 0.0331345008874371 175.091741705818 0.0331345008874375 175.091741705818 0.902300251272265 150.145037628539 
16.35                          0.898375297224633 146.588305953695 0.036656629051363 173.725809067312 0.0366566290513635 173.725809067312 0.896471192352061 148.439369873352 
16.4                           0.892135601822617 144.857636860066 0.0406842528755898 172.189422760532 0.0406842528755902 172.189422760532 0.889965954762618 146.673026127036 
16.45                          0.885150847634984 143.06428258955  0.0453039691997682 170.465295609476 0.0453039691997688 170.465295609476 0.882670754780162 144.841045852668 
16.5                           0.877293065626775 141.203422074582 0.0506190966182887 168.533597587831 0.0506190966182892 168.53359758783  0.874448051954009 142.938243540298 
16.55                          0.868407571939682 139.270223672193 0.0567528898863866 166.371455651093 0.0567528898863871 166.371455651093 0.865131206106867 140.959387137631 
16.6                           0.858307321839252 137.260157844123 0.0638521206718377 163.952384227482 0.0638521206718381 163.952384227481 0.854518195900724 138.899523177163 
16.65                          0.846766662084812 135.169532731777 0.0720908163410056 161.245659928503 0.0720908163410058 161.245659928503 0.842364587754137 136.754541471744 
16.7                           0.833515113856917 132.996386274776 0.0816736854995496 158.21567847506  0.0816736854995496 158.21567847506  0.828376388368297 134.522127325786 
16.75                          0.818232653780775 130.741941349154 0.0928382990711093 154.821376254452 0.0928382990711092 154.821376254452 0.812204298212601 132.20333366239  
16.8                           0.800549508415491 128.412933033769 0.105854335866581 151.015875355165 0.10585433586658 151.015875355165 0.793442541790463 129.805129074327 
16.85                          0.780056174103363 126.025244531655 0.121017037417515 146.746634608523 0.121017037417515 146.746634608523 0.771638380034283 127.344442508127 
16.9                           0.756333689352271 123.609398842821 0.138630437403821 141.956572939116 0.13863043740382 141.956572939117 0.746323188491982 124.854399678964 
16.95                          0.729020154623416 121.218405584682 0.158974267325838 136.586867618591 0.158974267325837 136.586867618591 0.717082817787959 122.393498430779 
17                             0.697935337993282 118.937883430586 0.182247862305575 130.582348706355 0.182247862305573 130.582348706356 0.683692274124922 120.058012994391 
17.05                          0.663284338787713 116.896457302402 0.208487574438934 123.900406631289 0.208487574438933 123.90040663129  0.646341007779864 117.996017000853 
17.1                           0.625937988661833 115.269836712636 0.237465361080092 116.52369557354  0.237465361080092 116.523695573541 0.605953525428481 116.416275737617 
17.15                          0.587717078910116 114.263896720163 0.26859827717455 108.4751402967   0.26859827717455 108.475140296701 0.564536203140733 115.574844033856 
17.2                           0.551478412979713 114.05483273717  0.300925031751951 99.8307763627921 0.300925031751951 99.8307763627926 0.525331856406266 115.709310603436 
17.25                          0.520687439683048 114.676642384315 0.333211629957996 90.7231907188167 0.333211629957997 90.7231907188171 0.492399810804416 116.897382636946 
17.3                           0.498301217999441 115.904947950502 0.364200746957176 81.3289909971234 0.364200746957177 81.3289909971236 0.46933414663315 118.889771425353 
17.35                          0.485382380352917 117.259674117535 0.392924329641283 71.8402320782232 0.392924329641284 71.8402320782233 0.457539286381955 121.08926792321  
17.4                           0.48045786138228 118.193434417814 0.418931929274457 62.4291549593647 0.418931929274457 62.4291549593646 0.455357157574071 122.799430429903 
17.45                          0.480205053714946 118.328275072291 0.442327766592969 53.2201229762647 0.442327766592967 53.2201229762645 0.458902116517302 123.554922336694 
17.5                           0.480838025232727 117.546465700455 0.463629461511634 44.2778860692152 0.463629461511631 44.277886069215  0.463802816346988 123.238408539723 
17.55                          0.479168538027195 115.924982887807 0.483549353030884 35.6118873518039 0.48354935303088 35.6118873518038 0.466486090497603 121.976717346349 
17.6                           0.472973480491685 113.629835854615 0.502797118386373 27.1900186213723 0.502797118386368 27.1900186213723 0.464566962667066 119.994657304579 
17.65                          0.460901675236026 110.847419919849 0.521948107296083 18.9547437569348 0.521948107296078 18.9547437569349 0.456691536538383 117.528910976033 
17.7                           0.442244070775043 107.762268621841 0.541374535875409 10.8373247762022 0.541374535875404 10.8373247762023 0.442244654068835 114.803917361908 
17.75                          0.416751151916285 104.566487618752 0.561218594062921 2.7688122517692  0.561218594062916 2.76881225176943 0.421131870685392 112.044119443384 
17.8                           0.384559307030241 101.490465200722 0.58138954293836 -5.31188404422077 0.581389542938357 -5.31188404422052 0.393695247572242 109.505593418184 
17.85                          0.346235975530449 98.856179690091  0.601577313521403 -13.4520814674897 0.6015773135214  -13.4520814674895 0.360764556396404 107.522083567426 
17.9                           0.30295276818156 97.1683173373193 0.621284411367099 -21.6810567023972 0.621284411367098 -21.6810567023971 0.323839248444779 106.56593147712  
17.95                          0.256838360199847 97.2744170419483 0.639882102110065 -30.0074159425158 0.639882102110065 -30.0074159425158 0.285406899378175 107.314129501074 
18                             0.211663811162318 100.611866548207 0.656694086872998 -38.4185277396563 0.656694086872999 -38.4185277396566 0.249378514443859 110.647917152365 
18.05                          0.174052053466377 109.263969548683 0.671101385823779 -46.8825592253285 0.671101385823779 -46.8825592253289 0.221370252710469 117.327751810689 
18.1                           0.154090491652424 124.208720076688 0.682649672449671 -55.353314380829 0.682649672449671 -55.3533143808296 0.207748028754976 126.967924954119 
18.15                          0.159703692689234 140.94112950544  0.691132169337804 -63.7773458758024 0.691132169337802 -63.777345875803 0.212142179127039 137.134749379139 
18.2                           0.186933833478825 152.627972868695 0.696624428822249 -72.1020372933605 0.696624428822245 -72.1020372933611 0.232264286733996 144.89750711289  
18.25                          0.224962446206543 158.076151699726 0.699462503512636 -80.2829757739985 0.699462503512631 -80.282975773999 0.261938013563213 149.153085046086 
18.3                           0.265594867528592 159.259212825521 0.700175404916424 -88.2892003875015 0.700175404916419 -88.2892003875019 0.295200763822587 150.385641596835 
18.35                          0.304357494630699 157.925770685074 0.699395696506105 -96.1056723200905 0.6993956965061  -96.1056723200908 0.327936089952722 149.46512464062  
18.4                           0.338994208129601 155.1264787519   0.697773107639256 -103.73315643558 0.697773107639252 -103.73315643558 0.357685760144237 147.10431810258  
18.45                          0.36843369014471 151.452314812002 0.695907737079593 -111.186260562392 0.695907737079591 -111.186260562392 0.383109969614337 143.786448391046 
18.5                           0.392251598751274 147.236057071843 0.694308400086274 -118.490527806306 0.694308400086274 -118.490527806306 0.403562224045383 139.818241718764 
18.55                          0.410382553565668 142.666161799323 0.693373335684879 -125.679321570788 0.693373335684882 -125.679321570788 0.418810449313194 135.388306309523 
18.6                           0.42295708830022 137.848058477488 0.693386630287642 -132.790964142578 0.693386630287646 -132.790964142578 0.428862953997314 130.608986141244 
18.65                          0.430208735964675 132.837806672021 0.694523455988771 -139.86632843825 0.694523455988778 -139.86632843825 0.43386434883239 125.543510399353 
18.7                           0.432424983869233 127.661140289105 0.696858850527516 -146.946903005425 0.696858850527524 -146.946903005425 0.434038670650171 120.223130416739 
18.75                          0.429927575475921 122.324395100131 0.700376900825539 -154.073259408301 0.700376900825548 -154.073259408302 0.429665093312074 114.657809193183 
18.8                           0.423073041574472 116.820541506366 0.704979090623615 -161.283829623222 0.704979090623624 -161.283829623222 0.421076533067798 108.842693283019 
18.85                          0.412267061927432 111.131844982335 0.710491961600051 -168.613925540131 0.710491961600059 -168.613925540132 0.408674334254205 102.761628646671 
18.9                           0.39798754434056 105.229710138485 0.716675050466946 -176.09498329781 0.716675050466953 -176.09498329781 0.392953695355755 96.3883390484437 
18.95                          0.380811773830507 99.0716647411479 0.723230264003529 176.24592478776  0.723230264003533 176.245924787759 0.374534995072293 89.6854918905929 
19                             0.361443266687226 92.5951184194556 0.729813374133348 168.386216155008 0.72981337413335 168.386216155008 0.354196175270451 82.6017560683013 
19.05                          0.340734969683874 85.7076478823398 0.736047121018782 160.307445253221 0.736047121018782 160.307445253221 0.332901425267867 75.0673031653632 
19.1                           0.319708266205256 78.2746275209487 0.741533637894113 151.994387968041 0.741533637894113 151.994387968041 0.311822117046001 66.9894487042114 
19.15                          0.299572433523776 70.1080619839528 0.745862008448841 143.433587235267 0.745862008448842 143.433587235268 0.29234709648937 58.2528668516704 
19.2                           0.281754625382714 60.9668738881768 0.748605562228625 134.611576385465 0.748605562228629 134.611576385466 0.276079062393471 48.7330071386875 
19.25                          0.267947274884888 50.5885994955633 0.749304104120527 125.5132605988   0.749304104120534 125.513260598801 0.264807471230549 38.3337920496877 
19.3                           0.260149755685894 38.777419611252  0.747429809162431 116.121232981567 0.747429809162443 116.121232981569 0.260433201676354 27.0515281690859 
19.35                          0.260612972549756 25.5477035734982 0.742342955053499 106.417059530515 0.742342955053516 106.417059530517 0.264807234973934 15.0358168215762 
19.4                           0.271544756907052 11.2405556842531 0.733255395421791 96.3856608303402 0.733255395421812 96.3856608303413 0.279466710721172 2.58555400726589 
19.45                          0.294545755415929 -3.53390350880451 0.719234197651631 86.023617703958  0.719234197651653 86.0236177039587 0.305316381447912 -9.95099072295882 
19.5                           0.33001754661003 -18.1474883463958 0.69928857236488 75.3511791029081 0.699288572364899 75.3511791029085 0.342345877294366 -22.3035801574231 
19.55                          0.376866334441176 -32.1838791844143 0.672574645134879 64.4256625619174 0.672574645134892 64.4256625619174 0.38944693645549 -34.3308558061254 
19.6                           0.432586616620415 -45.4691803707579 0.638704668557281 53.3511879915703 0.638704668557285 53.3511879915702 0.4443798905325  -45.978401389363 
19.65                          0.493641551375459 -57.965082653083 0.598060196488833 42.2780710065871 0.598060196488829 42.2780710065873 0.50397423327514 -57.2091973655722 
19.7                           0.556073941002097 -69.6656588115973 0.551937951074168 31.387469427624  0.551937951074157 31.3874694276249 0.564617471520033 -67.9635589999333 
19.75                          0.616231071129733 -80.5555377794449 0.502394767288079 20.8637792572275 0.502394767288065 20.8637792572293 0.62292572726742 -78.1596051974687 
19.8                           0.671369328659969 -90.6139858602573 0.451822900744595 10.8646693681993 0.451822900744581 10.8646693682022 0.676335218235422 -87.7162357257431 
19.85                          0.71992562692684 -99.832851584489 0.402452092696219 1.50017605486005 0.402452092696208 1.50017605486397 0.723381819141119 -96.5765552958703 
19.9                           0.761426826011871 -108.228301660084 0.355991911878109 -7.17347532607277 0.355991911878103 -7.17347532606795 0.763629045892031 -104.719418235601 
19.95                          0.79618085809321 -115.841564656231 0.313504542985852 -15.1474205336195 0.313504542985851 -15.1474205336141 0.797380557740515 -112.158205256463 
20                             0.824929283198852 -122.732373432213 0.275464878535654 -22.4472911584048 0.275464878535657 -22.4472911583989 0.825351422865207 -118.932098613882 
20.05                          0.848573046381837 -128.970280051185 0.241911037375485 -29.1196914754443 0.241911037375491 -29.1196914754383 0.848407332404419 -125.095543065274 
20.1                           0.868001494041463 -134.627163911717 0.212605204417109 -35.2212187871484 0.212605204417117 -35.2212187871426 0.867401775156001 -130.70930962712 
20.15                          0.884007511089002 -139.772105798175 0.187164060275282 -40.8109005351048 0.187164060275291 -40.8109005350993 0.883095286670664 -135.83429096592 
20.2                           0.897258638605779 -144.468510306779 0.165148818461678 -45.945640432313 0.165148818461687 -45.9456404323079 0.896128102102042 -140.527834252596 
20.25                          0.908298438602844 -148.772886090362 0.146120201961895 -50.6778537130739 0.146120201961904 -50.6778537130694 0.907021645250957 -144.841948497128 
20.3                           0.917561183363089 -152.734672168457 0.129668107865225 -55.054513097248 0.129668107865233 -55.0545130972441 0.916192690180616 -148.822716233896 
20.35                          0.925390429150922 -156.396640864122 0.115424956786081 -59.1170197348417 0.115424956786089 -59.1170197348384 0.923971185897401 -152.510396091594 
20.4                           0.932056930075385 -159.795567510658 0.103069411117854 -62.9015097128919 0.103069411117861 -62.9015097128893 0.930617415673124 -155.939874227097 
20.45                          0.937774108171032 -162.962982650497 0.0923248891309245 -66.4393578966755 0.0923248891309299 -66.4393578966735 0.936336798996924 -159.14125721344 
20.5                           0.942710678804475 -165.925907203674 0.0829555912701937 -69.7577430951906 0.0829555912701979 -69.7577430951891 0.9412919626928  -162.140490338145 
20.55                          0.947000636901586 -168.707523197391 0.0747616043721398 -72.8802024413171 0.0747616043721431 -72.8802024413161 0.945612284009219 -164.959942126901 
20.6                           0.950751018950142 -171.327762473296 0.0675739293181695 -75.8271406300471 0.0675739293181718 -75.8271406300464 0.949401306090256 -167.618929105539 
20.65                          0.954047881333964 -173.803811675674 0.0612498495943086 -78.6162808802158 0.06124984959431 -78.6162808802154 0.952742448919905 -170.134173088716 
20.7                           0.956960887260526 -176.150539506468 0.0556688150682049 -81.2630557689588 0.0556688150682055 -81.2630557689586 0.95570339155329 -172.520192658166 
20.75                          0.959546824902597 -178.380855329891 0.0507288838425431 -83.7809416256906 0.0507288838425432 -83.7809416256906 0.958339434243264 -174.789634790818 
20.8                           0.961852311171983 179.493991117953 0.046343698705164 -86.1817425076621 0.0463436987051635 -86.1817425076622 0.960696083549937 -176.953554124707 
20.85                          0.963915877070892 177.464159671357 0.0424399450570772 -88.4758304053005 0.0424399450570762 -88.4758304053005 0.962811047486159 -179.021647449954 
20.9                           0.965769583543479 175.521011100437 0.0389552274584628 -90.672348095165 0.0389552274584616 -90.672348095165 0.964715782765684 178.99754956255  
20.95                          0.96744028023143 173.65693282709  0.0358363024056254 -92.7793804447763 0.0358363024056238 -92.7793804447761 0.966436701328321 177.0964972204   
21                             0.968950591735002 171.865193039429 0.0330376101988029 -94.804099230575 0.0330376101988011 -94.8040992305746 0.967996116778798 175.268512972044 
21.05                          0.97031969505    170.139818259653 0.0305200558197199 -96.7528857871974 0.0305200558197181 -96.7528857871968 0.969412991413604 173.507654425611 
21.1                           0.97156393618451 168.47549028854  0.0282499960664876 -98.631435123362 0.0282499960664858 -98.631435123361 0.970703529577884 171.8086205216   
21.15                          0.972697322259066 166.867459180112 0.0261983970467774 -100.444844540011 0.0261983970467756 -100.44484454001 0.971881651948438 170.166667795483 
21.2                           0.97373191665484 165.311469505119 0.0243401321991952 -102.197689273725 0.0243401321991936 -102.197689273724 0.972959377016657 168.577539203149 
21.25                          0.974678158235325 163.803697658668 0.0226533962185462 -103.8940872574  0.0226533962185445 -103.894087257398 0.973947129819477 167.037403427859 
21.3                           0.975545120759542 162.340698372726 0.0211192146383364 -105.537754731474 0.0211192146383348 -105.537754731472 0.974853993294657 165.542802954516 
21.35                          0.976340724908031 160.919358924198 0.0197210324587517 -107.132054142373 0.0197210324587503 -107.132054142371 0.975687914117365 164.09060949813  
21.4                           0.977071912546087 159.536859797415 0.0184443682020294 -108.680035520425 0.0184443682020282 -108.680035520422 0.976455872212154 162.67798561959  
21.45                          0.977744790722763 158.190640777913 0.0172765222301562 -110.184472328489 0.017276522230155 -110.184472328487 0.977164021109664 161.302351563228 
21.5                           0.97836475128015 156.878371631759 0.0162063301637485 -111.647892607289 0.0162063301637475 -111.647892607287 0.977817804770183 159.961356515201 
21.55                          0.978936570700467 155.597926669219 0.01522395387552 -113.072606107507 0.0152239538755192 -113.072606107505 0.978422055307512 158.652853616493 
21.6                           0.97946449385605 154.347362609661 0.0143207038643729 -114.460727986787 0.0143207038643723 -114.460727986785 0.978981075128668 157.374878174832 
21.65                          0.979952304580568 153.124899261225 0.01348888790299 -115.814199557461 0.0134888879029895 -115.814199557459 0.979498706292189 156.125628610559 
21.7                           0.98040338539735 151.928902608138 0.0127216817389861 -117.134806494505 0.0127216817389857 -117.134806494503 0.979978389331439 154.903449746303 
21.75                          0.980820768284078 150.757869963857 0.0120130183548446 -118.424194849998 0.0120130183548444 -118.424194849996 0.980423213352766 153.706818112045 
21.8                           0.981207177993275 149.61041690219  0.011357492885589 -119.683885167851 0.0113574928855889 -119.68388516785 0.980835958873971 152.534328988284 
21.85                          0.981565069163013 148.48526572314  0.010750280780166 -120.915284948801 0.0107502807801659 -120.915284948801 0.98121913459551 151.384684952502 
21.9                           0.981896658225443 147.381235247381 0.0101870671928486 -122.119699679123 0.0101870671928487 -122.119699679123 0.981575009079314 150.256685729483 
21.95                          0.982203950939368 146.297231764127 0.00966398592075383 -123.298342605881 0.00966398592075392 -123.298342605882 0.981905638135883 149.149219175571 
22                             0.982488766227283 145.232240983026 0.00917756647586809 -124.452343415807 0.00917756647586828 -124.452343415809 0.982212888580163 148.061253251735 
22.05                          0.982752756879696 144.185320862345 0.00872468810532693 -125.582755953144 0.00872468810532718 -125.582755953146 0.982498458903439 146.991828861074 
22.1                           0.982997427594088 143.155595203921 0.00830253976064182 -126.690565093461 0.0083025397606421 -126.690565093463 0.982763897316472 145.940053443923 
22.15                          0.983224150738253 142.14224792071  0.00790858517202044 -127.776692874842 0.00790858517202077 -127.776692874845 0.983010617544127 144.905095238542 
22.2                           0.983434180164168 141.144517895734 0.00754053231350797 -128.842003974555 0.00754053231350832 -128.842003974559 0.983239912690274 143.886178127908 
22.25                          0.98362866334644 140.161694362266 0.00719630665294005 -129.887310607979 0.00719630665294037 -129.887310607983 0.983452967441261 142.882577003786 
22.3                           0.983808652076324 139.19311274441  0.00687402767137483 -130.913376916834 0.00687402767137514 -130.91337691684 0.983650868834538 141.893613588337 
22.35                          0.983975111906791 138.238150905263 0.00657198821278839 -131.920922905401 0.00657198821278872 -131.920922905407 0.983834615784433 140.918652661308 
22.4                           0.984128930514501 137.296225756636 0.00628863628886522 -132.910627976173 0.00628863628886554 -132.91062797618 0.98400512752836 139.957098647456 
22.45                          0.984270925119969 136.366790190187 0.00602255901772831 -133.883134110177 0.00602255901772856 -133.883134110184 0.984163251132695 139.008392524585 
22.5                           0.984401849086571 135.449330294817 0.00577246842110716 -134.839048731746 0.00577246842110741 -134.839048731752 0.984309768177479 138.072009017491 
22.55                          0.984522397801749 134.543362829552 0.0055371888431147 -135.778947292816 0.00553718884311492 -135.778947292823 0.98444540072218 137.147454047331 
22.6                           0.984633213929243 133.648432924816 0.00531564578663354 -136.703375607724 0.00531564578663373 -136.703375607732 0.9845708166405  136.234262409606 
22.65                          0.984734892108833 132.764111988304 0.00510685599124345 -137.612851965836 0.00510685599124362 -137.612851965843 0.984686634400145 135.331995657126 
22.7                           0.984827983169713 131.889995794399 0.00490991860043086 -138.507869046222 0.00490991860043099 -138.507869046229 0.984793427353255 134.440240167072 
22.75                          0.984912997914715 131.025702738582 0.00472400728616237 -139.388895655794 0.00472400728616249 -139.388895655799 0.984891727594463 133.558605373684 
22.8                           0.984990410525101 130.170872240351 0.00454836321631401 -140.25637830988 0.00454836321631409 -140.256378309885 0.984982029436137 132.686722150196 
22.85                          0.985060661629159 129.325163280081 0.00438228876537933 -141.110742672076 0.00438228876537936 -141.11074267208 0.985064792543994 131.824241325453 
22.9                           0.985124161072354 128.488253056813 0.0042251418817108 -141.952394868275 0.00422514188171082 -141.952394868278 0.985140444770801 130.970832322283 
22.95                          0.985181290422014 127.659835755441 0.00407633103559399 -142.781722688135 0.00407633103559398 -142.781722688137 0.985209384721216 130.126181906066 
23                             0.985232405235457 126.839621412987 0.0039353106819806 -143.599096685743 0.0039353106819806 -143.599096685743 0.985271984076731 129.289993033207 
