! Touchstone file exported from HFSS 3D Layout Design 2026.1.0
!        File:           D:/Work/SIM/ADS_AUTO_SIM/projects/RFSOC_RF/TX_Fillter.aedt
!        Generated:      02:15:40 AM Aug 31, 2026
!        Design:         TX_BAND1_MCFIL_R27_CNN036
!        Project:        TX_Fillter
!
# GHz S MA R 50.000000
! Terminal data exported
! Port[1] = Port1
! Port[2] = Port2
14                             0.973047763926916 -164.882446326736 0.00369022289852514 -178.261177083903 0.00369022289852514 -178.261177083903 0.973843358226248 -161.858155598165 
14.05                          0.972548590984082 -165.76534899872 0.00376275478506672 -178.669252112071 0.00376275478506675 -178.66925211207 0.97337121901605 -162.728846385043 
14.1                           0.972033631105296 -166.654477368192 0.00383870936181287 -179.057710023922 0.00383870936181291 -179.057710023922 0.972884585302794 -163.605353947536 
14.15                          0.971502106873248 -167.550028775883 0.00391835257758698 -179.42614722311 0.00391835257758704 -179.42614722311 0.972382756560954 -164.487851594373 
14.2                           0.970953189445956 -168.452210907504 0.00400197620111411 -179.774197103305 0.00400197620111417 -179.774197103305 0.971864986442095 -165.376521616729 
14.25                          0.970385994296537 -169.361242471228 0.00408990063923823 179.89846256694  0.0040899006392383 179.89846256694  0.971330479007181 -166.271555870899 
14.3                           0.969799576527045 -170.277353929193 0.00418247808533125 179.592101470598 0.00418247808533132 179.592101470598 0.97077838458406 -167.17315640693 
14.35                          0.969192925706277 -171.200788288181 0.00428009603848563 179.306927752034 0.00428009603848572 179.306927752034 0.970207795206182 -168.08153614753 
14.4                           0.968564960174651 -172.131801955225 0.00438318123937585 179.04307819391  0.00438318123937595 179.04307819391  0.969617739582613 -168.996919622093 
14.45                          0.967914520751387 -173.070665664497 0.00449220407474576 178.800607559282 0.00449220407474586 178.800607559282 0.969007177542551 -169.919543761211 
14.5                           0.967240363770171 -174.017665482613 0.00460768350947061 178.579477115113 0.00460768350947072 178.579477115113 0.968374993889596 -170.849658757634 
14.55                          0.966541153358944 -174.97310390027 0.00473019261322381 178.379542375114 0.0047301926132239 178.379542375114 0.967719991591799 -171.787529000345 
14.6                           0.965815452867216 -175.937301019088 0.00486036475816062 178.200540125193 0.00486036475816071 178.200540125193 0.967040884222805 -172.733434089197 
14.65                          0.965061715330121 -176.910595843584 0.00499890057496807 178.042074823624 0.00499890057496816 178.042074823623 0.966336287556928 -173.687669938418 
14.7                           0.964278272841716 -177.893347689407 0.00514657576743694 177.903604499873 0.005146575767437 177.903604499872 0.965604710206429 -174.650549978298 
14.75                          0.963463324690669 -178.885937720307 0.00530424990076826 177.784426310079 0.00530424990076832 177.784426310078 0.96484454317224 -175.622406465522 
14.8                           0.962614924088595 -179.888770627904 0.00547287629660149 177.68366194222  0.00547287629660156 177.68366194222  0.964054048159336 -176.60359191385 
14.85                          0.961730963294489 179.097723529958 0.00565351318881021 177.600243098492 0.00565351318881026 177.600243098491 0.963231344484491 -177.594480658368 
14.9                           0.960809156907031 178.073087314419 0.00584733631914589 177.532897314232 0.00584733631914594 177.532897314232 0.962374394376356 -178.595470568149 
14.95                          0.959847023059118 177.036833694259 0.00605565318165518 177.480134399438 0.00605565318165521 177.480134399438 0.961480986434996 -179.606984924086 
15                             0.958841862204582 175.988443615209 0.00627991916046599 177.440233807658 0.00627991916046601 177.440233807658 0.960548716979126 179.37052551916  
15.05                          0.957790733134239 174.927363324137 0.0065217558482531 177.411233244788 0.0065217558482531 177.411233244788 0.959574968962926 178.336580265713 
15.1                           0.956690425795469 173.853001418841 0.00678297188393433 177.390918823855 0.00678297188393435 177.390918823855 0.958556888089155 177.290666581274 
15.15                          0.95553743041419 172.764725590236 0.00706558670969177 177.376817048449 0.00706558670969177 177.376817048449 0.957491355679126 176.232236738692 
15.2                           0.954327902327668 171.661859019134 0.00737185772141615 177.366188864407 0.00737185772141616 177.366188864408 0.956374957780834 175.160704975126 
15.25                          0.953057621827829 170.543676384623 0.00770431137573666 177.356025955156 0.00770431137573666 177.356025955156 0.955203949900953 174.07544412537  
15.3                           0.951721948183304 169.409399435039 0.00806577892408435 177.343049370005 0.00806577892408435 177.343049370005 0.953974216631113 172.9757818911   
15.35                          0.950315766849294 168.258192065638 0.00845943757358814 177.323710467414 0.00845943757358814 177.323710467415 0.952681225299002 171.860996700255 
15.4                           0.948833428680829 167.089154839237 0.00888885803071452 177.29419402888  0.00888885803071452 177.294194028881 0.951319972604862 170.730313104495 
15.45                          0.947268679729101 165.901318877084 0.00935805957218986 177.250423257148 0.00935805957218982 177.250423257148 0.949884922996614 169.582896655569 
15.5                           0.945614579911839 164.693639037007 0.00987157401596918 177.188066219831 0.00987157401596916 177.188066219832 0.948369937282988 168.417848193355 
15.55                          0.943863408494383 163.464986284329 0.0104345202415728 177.10254314181  0.0104345202415728 177.10254314181  0.946768189672347 167.23419746937  
15.6                           0.942006553881574 162.214139148022 0.0110526912447986 176.989033793149 0.0110526912447986 176.989033793149 0.945072071040838 166.030896019543 
15.65                          0.940034384681274 160.939774140151 0.0117326561199879 176.842484069491 0.0117326561199879 176.842484069491 0.943273075758638 164.806809189153 
15.7                           0.937936098331683 159.64045500086  0.0124818798601839 176.657610723644 0.0124818798601839 176.657610723644 0.941361668814229 163.560707201187 
15.75                          0.935699542753205 158.314620614261 0.013308864472023 176.428903083463 0.0133088644720229 176.428903083463 0.939327129244039 162.291255147354 
15.8                           0.933311005448837 156.960571423253 0.0142233156430253 176.150620482619 0.0142233156430253 176.15062048262  0.937157364960843 160.997001769291 
15.85                          0.930754963180788 155.576454154506 0.0152363401045446 175.816784035352 0.0152363401045446 175.816784035352 0.934838692931133 159.676366887264 
15.9                           0.928013783726795 154.160244650576 0.0163606799406965 175.421161298423 0.0163606799406965 175.421161298423 0.932355577218609 158.327627326855 
15.95                          0.925067369181045 152.709728597424 0.0176109914456666 174.957242275097 0.0176109914456666 174.957242275098 0.9296903156116  156.948901193901 
16                             0.921892727703683 151.222479937715 0.0190041777792973 174.41820511619  0.0190041777792973 174.41820511619  0.926822663290969 155.538130359282 
16.05                          0.9184634574061  149.695836781334 0.020559786669888 173.796869749211 0.020559786669888 173.796869749211 0.923729379153822 154.093061045976 
16.1                           0.914749122024912 148.126874677758 0.0223004868220814 173.085637504716 0.0223004868220814 173.085637504716 0.920383676844313 152.611222473548 
16.15                          0.910714492996241 146.512377221166 0.0242526395594383 172.276414595616 0.0242526395594383 172.276414595616 0.916754558088787 151.089903629378 
16.2                           0.906318626283685 144.84880415124  0.026446985597945 171.360517029589 0.026446985597945 171.360517029589 0.912806000404082 149.526128431789 
16.25                          0.901513734630003 143.132257442783 0.0289194706906988 170.328554191277 0.0289194706906987 170.328554191277 0.908495964463564 147.916629875466 
16.3                           0.89624380663934 141.358446427488 0.0317122380861943 169.170287924968 0.0317122380861942 169.170287924968 0.903775178234206 146.257824278294 
16.35                          0.890442913259294 139.522653891698 0.0348748199899758 167.874463504166 0.0348748199899757 167.874463504166 0.898585645456298 144.54578759735  
16.4                           0.884033130198167 137.619706550318 0.0384655638458907 166.428608449659 0.0384655638458906 166.428608449659 0.892858815481191 142.776237132314 
16.45                          0.876921992734587 135.643955635503 0.042553330967737 164.81879486822  0.0425533309677368 164.81879486822  0.886513340972725 140.944524072002 
16.5                           0.868999389929328 133.589277076194 0.0472195024830898 163.029361044492 0.0472195024830897 163.029361044491 0.8794523419565  139.045645710043 
16.55                          0.860133803991743 131.449106699391 0.0525603164969258 161.042588810292 0.0525603164969257 161.042588810292 0.871560094220527 137.074291453042 
16.6                           0.85016781835906 129.216535346332 0.0586895336123886 158.838335395894 0.0586895336123885 158.838335395893 0.862698076982959 135.024945041481 
16.65                          0.838912875339949 126.884503783083 0.0657413733552123 156.393623142245 0.0657413733552122 156.393623142245 0.85270036749892 132.892078332523 
16.7                           0.82614339808099 124.446160897233 0.073873562006595 153.682199431491 0.0738735620065948 153.682199431491 0.841368492307615 130.670491974047 
16.75                          0.811590667460417 121.895485547179 0.0832701523446261 150.674095340691 0.083270152344626 150.674095340691 0.82846609466986 128.355888749425 
16.8                           0.794937372788995 119.228329143039 0.094143473386027 147.335239161878 0.094143473386027 147.335239161878 0.813714253745126 125.945810692597 
16.85                          0.775814712584014 116.444120980965 0.106734085724068 143.627226081565 0.106734085724068 143.627226081565 0.79678914856156 123.441135795203 
16.9                           0.753805565783174 113.548599721693 0.121306897870697 139.507415181329 0.121306897870697 139.507415181329 0.777325220104732 120.848415738066 
16.95                          0.728459897097816 110.558092829098 0.138140628992908 134.929625206169 0.138140628992908 134.929625206169 0.754929300908763 118.183432112223 
17                             0.699332415064496 107.506033515821 0.157506728924096 129.845827758619 0.157506728924096 129.845827758619 0.729214474218722 115.476411072615 
17.05                          0.666057211790999 104.452474124333 0.179633209813198 124.209361149739 0.179633209813199 124.209361149739 0.699866213737361 112.779241713956 
17.1                           0.628477689642071 101.497023604876 0.204649820071321 117.980225600125 0.204649820071322 117.980225600125 0.666755532058498 110.174504809432 
17.15                          0.586847046025336 98.7941844787564 0.232515677015061 111.132800440615 0.232515677015061 111.132800440615 0.630109038072725 107.7845774675   
17.2                           0.542093966356293 96.5660274735558 0.262941077369143 103.665602725786 0.262941077369143 103.665602725786 0.590724016256295 105.775713983957 
17.25                          0.496094208276863 95.0983080995176 0.295331232557705 95.6113226986417 0.295331232557705 95.6113226986416 0.550166363817186 104.34638924154  
17.3                           0.451791373245704 94.6920458278962 0.328793105480569 87.0436234796247 0.328793105480569 87.0436234796247 0.510812393374069 103.683862668638 
17.35                          0.41289878526168 95.535650370801  0.362240307846674 78.0762291032622 0.362240307846674 78.0762291032622 0.475539924269987 103.878475141873 
17.4                           0.382929581139856 97.5073251365257 0.394591292791782 68.8513031195879 0.394591292791783 68.8513031195879 0.446958313479443 104.819748748073 
17.45                          0.363714514142748 100.052387473837 0.424996825540383 59.5185372972675 0.424996825540384 59.5185372972676 0.426396883686827 106.155549296066 
17.5                           0.354335931515497 102.350741827869 0.453000697550572 50.2114029986192 0.453000697550572 50.2114029986194 0.413261654903351 107.395054498137 
17.55                          0.351489362873872 103.71567774546  0.478569016372272 41.0287649131676 0.478569016372273 41.0287649131678 0.405274876612503 108.11035076283  
17.6                           0.35099365648193 103.853367397944 0.501995911338989 32.0270010403181 0.50199591133899 32.0270010403183 0.399409945670511 108.080889807354 
17.65                          0.349185839791295 102.819146732209 0.523747620942091 23.2225295042023 0.523747620942093 23.2225295042025 0.392839206644439 107.30055922158  
17.7                           0.343511094831432 100.845639114017 0.544311053713701 14.6009980489164 0.544311053713703 14.6009980489165 0.383447759691284 105.904293690509 
17.75                          0.332497230225016 98.2156887569169 0.564084031064197 6.12877437902669 0.564084031064199 6.12877437902672 0.369934648202462 104.09690599553  
17.8                           0.315514340393134 95.2153629350914 0.583314261377922 -2.23629307654007 0.583314261377924 -2.23629307654007 0.351718240453011 102.118426359883 
17.85                          0.29255606447592 92.1428905431156 0.602078480180706 -10.5362201607856 0.602078480180707 -10.5362201607856 0.328819347595514 100.244199463199 
17.9                           0.264121658059469 89.3547717389141 0.620290649109183 -18.8066144836014 0.620290649109184 -18.8066144836015 0.301804202991949 98.8099954133073 
17.95                          0.231215174843183 87.3532372363576 0.637731228447587 -27.072613640355 0.637731228447586 -27.072613640355 0.271814133206337 98.2548813254953 
18                             0.195489797552315 86.9469549682646 0.654092522222847 -35.3468150680029 0.654092522222846 -35.3468150680029 0.240689400675815 99.1697701972809 
18.05                          0.159648735750084 89.5365107128942 0.669035441176238 -43.6290541855882 0.669035441176236 -43.6290541855882 0.211174215567846 102.301230627796 
18.1                           0.128345859530016 97.4030404370149 0.682250887185522 -51.9078999594132 0.68225088718552 -51.9078999594131 0.187066567451727 108.343075551682 
18.15                          0.109274830524926 112.527061813509 0.693516192286175 -60.1636162222393 0.693516192286173 -60.1636162222392 0.172770117172276 117.237745949078 
18.2                           0.110158078019992 131.202249744515 0.702736113618224 -68.3721220606608 0.702736113618222 -68.3721220606605 0.171415305627742 127.32165288033  
18.25                          0.129455868440229 144.865904130945 0.709960439184505 -76.5092888376742 0.709960439184503 -76.509288837674 0.182505301242307 135.98292390771  
18.3                           0.158307156996692 151.233895508548 0.715375948854261 -84.5548547389643 0.715375948854261 -84.554854738964 0.202250639981196 141.664292899098 
18.35                          0.189680706413964 152.580794317874 0.719277003802108 -92.4953720114977 0.719277003802107 -92.4953720114975 0.226189358606087 144.36964063818  
18.4                           0.219790203979524 150.983276050183 0.722023609157463 -100.325880035303 0.722023609157463 -100.325880035302 0.250863709909223 144.776030678495 
18.45                          0.246698485094804 147.641523772416 0.723996858214125 -108.050307007601 0.723996858214125 -108.050307007601 0.274028978146443 143.574194546629 
18.5                           0.269412878085692 143.204008020967 0.725559600347912 -115.680837241089 0.725559600347912 -115.680837241089 0.294354508514073 141.283338667575 
18.55                          0.287460430659888 138.021705429403 0.727026613468822 -123.236589301284 0.727026613468822 -123.236589301284 0.311121829652569 138.259123317657 
18.6                           0.300681904770739 132.282543129157 0.728645198737506 -130.741944183902 0.728645198737505 -130.741944183902 0.324015510673259 134.739071430834 
18.65                          0.309124132436374 126.07955031344  0.73058491727689 -138.224789125097 0.730584917276888 -138.224789125097 0.332991355568975 130.881820018876 
18.7                           0.31298351395848 119.44599575588  0.73293430476528 -145.714850885857 0.732934304765276 -145.714850885857 0.338196887786318 126.794208911282 
18.75                          0.312581242117826 112.373730206483 0.73570248104428 -153.242216076119 0.735702481044276 -153.242216076119 0.339926044435381 122.548376601963 
18.8                           0.308361077260348 104.822585905321 0.738824127269168 -160.83608956123 0.738824127269163 -160.836089561231 0.33859564923902 118.191468221921 
18.85                          0.300904337209559 96.7250876638633 0.742166908929926 -168.523824696767 0.74216690892992 -168.523824696767 0.334734126172205 113.749595309621 
18.9                           0.290957945812884 87.9896755925149 0.745540788154842 -176.330261581   0.745540788154837 -176.330261581   0.328974094582629 109.226841233911 
18.95                          0.279470650040125 78.5063583269    0.748708633612436 175.722582610471 0.748708633612432 175.722582610471 0.322041120359862 104.599768116183 
19                             0.267628928189559 68.1609643259153 0.751397071754999 167.615430394184 0.751397071754997 167.615430394183 0.314732299863213 99.8082992061454 
19.05                          0.256875569910521 56.8668077046687 0.753305751261187 159.331257772772 0.753305751261186 159.331257772772 0.307882089735947 94.7452414370162 
19.1                           0.248879711256667 44.6208883451949 0.75411241416231 150.854465899141 0.754112414162311 150.854465899141 0.302320087309414 89.2489362349374 
19.15                          0.245416588989464 31.5755184368702 0.753470858194928 142.169887302276 0.753470858194931 142.169887302276 0.298835411218568 83.1055835899216 
19.2                           0.248137962509124 18.0810023150708 0.750999626923896 133.261956819694 0.750999626923899 133.261956819693 0.298169587994442 76.0678236454803 
19.25                          0.258295958009683 4.63389915330455 0.746261676143459 124.114545734745 0.746261676143462 124.114545734744 0.30105469756485 67.8927181426737 
19.3                           0.276565605195289 -8.2786005635062 0.738739794813596 114.71209755345  0.738739794813598 114.712097553449 0.308287830689549 58.3957912318822 
19.35                          0.303059964409059 -20.3418580070256 0.727819236237121 105.042739227981 0.727819236237121 105.04273922798  0.320790836594355 47.5098946018497 
19.4                           0.33745871684846 -31.4742554320869 0.712796726847833 95.1038450942843 0.71279672684783 95.1038450942833 0.339570536896174 35.3294782650204 
19.45                          0.379086428639002 -41.774960482015 0.692940114660757 84.909925898451  0.692940114660752 84.90992589845   0.365509764805401 22.1164172396192 
19.5                           0.426869875561575 -51.4249704807102 0.667617917328574 74.5015692730973 0.667617917328569 74.5015692730966 0.399010112282356 8.25399997391184 
19.55                          0.479246125591846 -60.6003209263315 0.636493706629765 63.9526399760357 0.636493706629761 63.9526399760353 0.439633896599183 -5.83497280239079 
19.6                           0.53415857006111 -69.4207110963138 0.599735679269889 53.371854531662  0.599735679269888 53.3718545316619 0.485949976101407 -19.7657928508717 
19.65                          0.589238091142511 -77.934031669162 0.558148987324559 42.8955023958319 0.558148987324561 42.8955023958321 0.535705799591501 -33.2343126000221 
19.7                           0.642151728070671 -86.127900102794 0.513140385497416 32.6712644747567 0.513140385497423 32.6712644747569 0.586276999816914 -46.0243621623179 
19.75                          0.690986343373096 -93.9555189602983 0.466495642566605 22.8375002339152 0.466495642566616 22.8375002339153 0.635205257640372 -57.9980137767962 
19.8                           0.734506497222878 -101.362995801089 0.420050745932682 13.5049439657514 0.420050745932696 13.5049439657512 0.680612221667335 -69.0825985370889 
19.85                          0.772204281954939 -108.309050019057 0.375388983500767 4.74636342728113 0.375388983500782 4.74636342728039 0.721372344718148 -79.2583724937007 
19.9                           0.804172709288937 -114.774033343542 0.333661470115823 -3.40442739041307 0.333661470115837 -3.40442739041436 0.7570604802527  -88.5462343588293 
19.95                          0.830897894331008 -120.760145954539 0.295549855171559 -10.9465991690538 0.295549855171572 -10.9465991690556 0.787771808904403 -96.9953388628256 
20                             0.853058105569893 -126.286759139272 0.261329963361187 -17.9032018624522 0.261329963361198 -17.9032018624545 0.813915906195363 -104.671655294345 
20.05                          0.871375422726768 -131.384318400054 0.230979169353702 -24.3120671676634 0.230979169353711 -24.3120671676662 0.836046773493235 -111.648634568151 
20.1                           0.88652721304292 -136.088885596491 0.204284526859405 -30.2184090774206 0.204284526859411 -30.2184090774237 0.854748319980855 -118.00049842309 
20.15                          0.899104816160954 -140.438099880068 0.180930311109221 -35.6695829424185 0.180930311109226 -35.6695829424218 0.870569538651096 -123.797991321512 
20.2                           0.909602420217081 -144.468574870478 0.160559807176166 -40.7117751853556 0.160559807176169 -40.7117751853589 0.883994943198761 -129.106074036623 
20.25                          0.918422134352014 -148.214435591459 0.142814453277665 -45.3881518136972 0.142814453277667 -45.3881518137006 0.895436411306942 -133.982967314998 
20.3                           0.925886029104157 -151.706645063324 0.127356085827602 -49.7379960783442 0.127356085827603 -49.7379960783475 0.905236317707072 -138.480041084225 
20.35                          0.932249918034665 -154.972826519975 0.113877812744883 -53.7964624611112 0.113877812744883 -53.7964624611142 0.913675618351492 -142.642179412702 
20.4                           0.937716324427569 -158.037369227841 0.102107820075603 -57.5946843859113 0.102107820075602 -57.594684385914 0.920983345739498 -146.508376125984 
20.45                          0.942445626740919 -160.921678632449 0.0918091106024239 -61.1600646257632 0.0918091106024233 -61.1600646257656 0.927345754783845 -150.112411096238 
20.5                           0.946565178042563 -163.644485545298 0.0827771149858173 -64.5166436261682 0.0827771149858165 -64.5166436261702 0.932914379944525 -153.483522327961 
20.55                          0.95017655744998 -166.222165465712 0.0748363607695947 -67.6854851830583 0.0748363607695941 -67.6854851830598 0.937812801249354 -156.647030376689 
20.6                           0.953361240895938 -168.669042136736 0.067836884281792 -70.6850468461668 0.0678368842817914 -70.6850468461679 0.942142171803086 -159.624896468913 
20.65                          0.956184995058099 -170.997663268636 0.0616507556969684 -73.5315193050538 0.0616507556969679 -73.5315193050546 0.945985661831094 -162.436209739093 
20.7                           0.958701267235698 -173.219044292951 0.0561688976095259 -76.2391288013582 0.0561688976095257 -76.2391288013585 0.949411999972362 -165.097606390753 
20.75                          0.960953797982692 -175.342880300635 0.0512982674684548 -78.8204020057629 0.0512982674684548 -78.8204020057628 0.952478283093578 -167.623627046391 
20.8                           0.96297863733064 -177.377728446215 0.0469594135562242 -81.2863955618712 0.0469594135562243 -81.2863955618708 0.955232202996589 -170.027019784538 
20.85                          0.964805705299403 -179.331163988857 0.0430843830602386 -83.6468937347829 0.043084383060239 -83.6468937347821 0.957713812585535 -172.318996405766 
20.9                           0.966460004606466 178.790086650068 0.0396149467971287 -85.910577982486 0.0396149467971292 -85.9105779824851 0.959956930012665 -174.509448927803 
20.95                          0.967962567672792 176.980032574949 0.0365011007554838 -88.0851721943094 0.0365011007554844 -88.0851721943085 0.961990258726156 -176.607132525691 
21                             0.969331200137935 175.233321914317 0.0336998053197172 -90.1775670460698 0.0336998053197181 -90.1775670460686 0.963838284481788 -178.619820291532 
21.05                          0.97058106797406 173.54515955335  0.03117392620544 -92.1939265384162 0.031173926205441 -92.1939265384147 0.965521996932272 179.445565615825 
21.1                           0.9717251638706  171.911236883734 0.0288913452917766 -94.1397793851833 0.0288913452917777 -94.1397793851819 0.967059472848349 177.582842585426 
21.15                          0.972774679971416 170.327671687133 0.0268242138722261 -96.0200975390901 0.0268242138722272 -96.0200975390887 0.968466349809386 175.78647271834  
21.2                           0.973739307590948 168.790956563995 0.0249483249520578 -97.8393637995802 0.0249483249520588 -97.8393637995788 0.969756212839823 174.051481864101 
21.25                          0.974627479680853 167.297914574851 0.0232425849119072 -99.6016301475343 0.0232425849119083 -99.6016301475328 0.97094091155315 172.37339030447  
21.3                           0.975446568159941 165.84566097848  0.0216885680742998 -101.310568193623 0.0216885680743008 -101.310568193622 0.972030821568892 170.748153236447 
21.35                          0.976203045454977 164.431570134038 0.0202701404583  -102.969512908011 0.0202701404583009 -102.96951290801 0.973035061032339 169.172109519013 
21.4                           0.976902617502327 163.053246787052 0.0189731413253318 -104.581500614505 0.0189731413253326 -104.581500614504 0.973961670791479 167.641937406423 
21.45                          0.977550333862828 161.708501086366 0.0177851130571147 -106.149302077458 0.0177851130571156 -106.149302077457 0.974817765017165 166.154616204084 
21.5                           0.97815067938005 160.395326784798 0.0166950715177501 -107.675451380271 0.0166950715177508 -107.67545138027 0.975609657673366 164.707392958945 
21.55                          0.97870765087269 159.111882163984 0.0156933103865624 -109.162271186234 0.0156933103865631 -109.162271186233 0.976342969164769 163.297753441511 
21.6                           0.979224821626261 157.856473296733 0.0147712340514694 -110.611894882146 0.01477123405147 -110.611894882146 0.977022716640527 161.923396796503 
21.65                          0.979705395886145 156.627539320694 0.0139212145635812 -112.02628602972 0.0139212145635816 -112.02628602972 0.977653390763375 160.582213338485 
21.7                           0.980152255114713 155.423639447542 0.0131364689057522 -113.407255486598 0.0131364689057525 -113.407255486598 0.978239021222695 159.272265051026 
21.75                          0.9805679974309  154.243441473808 0.0124109534488507 -114.756476505888 0.012410953448851 -114.756476505888 0.978783232847802 157.991768416337 
21.8                           0.980954971379233 153.085711594569 0.0117392729828209 -116.075498078581 0.0117392729828211 -116.075498078581 0.979289293840095 156.73907925923  
21.85                          0.981315304960501 151.94930535054  0.0111166021343609 -117.365756745721 0.0111166021343609 -117.365756745721 0.979760157371806 155.512679336796 
21.9                           0.981650930685285 150.833159563748 0.0105386173350148 -118.628587075476 0.0105386173350148 -118.628587075475 0.980198497580599 154.311164444888 
21.95                          0.981963607274895 149.73628513766  0.0100014377956088 -119.865230973379 0.0100014377956087 -119.865230973379 0.980606740812453 153.133233845919 
22                             0.982254938524469 148.657760615136 0.0095015741858629 -121.076845971156 0.00950157418586271 -121.076845971155 0.98098709282159 151.977680850494 
22.05                          0.982526389754365 147.596726402299 0.0090358839203531 -122.264512620026 0.00903588392035292 -122.264512620025 0.981341562518877 150.843384409055 
22.1                           0.982779302204136 146.552379578996 0.00860153212088038 -123.429241097721 0.00860153212088008 -123.42924109772 0.981671982764113 149.729301589745 
22.15                          0.983014905664873 145.523969227111 0.00819595746654613 -124.571977124109 0.00819595746654578 -124.571977124109 0.981980028618568 148.634460835613 
22.2                           0.983234329597849 144.510792217077 0.00781684226119937 -125.693607268027 0.00781684226119901 -125.693607268026 0.982267233408947 147.557955908729 
22.25                          0.983438612948095 143.512189400695 0.00746208614731765 -126.79496371728 0.00746208614731726 -126.794963717279 0.982535002899915 146.49894044101  
22.3                           0.983628712829117 142.52754216498  0.00712978297902741 -127.876828574619 0.00712978297902704 -127.876828574617 0.982784627827431 145.456623022082 
22.35                          0.983805512228146 141.556269307451 0.00681820043750072 -128.939937734513 0.00681820043750032 -128.939937734511 0.983017295007653 144.43026276345  
22.4                           0.983969826858969 140.597824198203 0.00652576203155979 -129.984984388693 0.00652576203155938 -129.984984388691 0.983234097204839 143.419165285953 
22.45                          0.984122411270819 139.651692198295 0.00625103117678272 -131.012622202404 0.00625103117678229 -131.012622202402 0.983436041915335 142.422679084123 
22.5                           0.984263964306175 138.717388307685 0.00599269708921371 -132.023468198127 0.00599269708921334 -132.023468198124 0.983624059202583 141.440192226755 
22.55                          0.984395133987251 137.794455019063 0.0057495622661755 -133.018105378981 0.00574956226617512 -133.018105378979 0.983799008699333 140.471129357952 
22.6                           0.984516521899896 136.882460356737 0.00552053135768208 -133.997085120075 0.00552053135768177 -133.997085120073 0.983961685877384 139.514948967163 
22.65                          0.984628687134297 135.980996082071 0.00530460125840824 -134.96092935262 0.00530460125840794 -134.960929352617 0.984112827671704 138.571140900466 
22.7                           0.984732149833923 135.089676049112 0.00510085227279561 -135.910132562619 0.00510085227279533 -135.910132562616 0.984253117534262 137.639224088539 
22.75                          0.984827394397425 134.208134695835 0.00490844022525855 -136.845163623338 0.00490844022525834 -136.845163623336 0.984383189983121 136.718744469611 
22.8                           0.984914872372425 133.336025658043 0.00472658940409047 -137.766467478451 0.00472658940409029 -137.766467478449 0.984503634703921 135.809273088117 
22.85                          0.984995005075187 132.473020494378 0.004554586241976 -138.67446669077 0.00455458624197586 -138.674466690768 0.984615000253658 134.910404351918 
22.9                           0.985068185965944 131.618807512119 0.00439177364834137 -139.569562869722 0.00439177364834129 -139.569562869721 0.984717797410449 134.021754432867 
22.95                          0.985134782805985 130.773090684523 0.00423754591940937 -140.452137989231 0.00423754591940933 -140.45213798923 0.984812502207644 133.142959797117 
23                             0.985195139619457 129.935588651458 0.00409134416102171 -141.322555606278 0.00409134416102171 -141.322555606278 0.984899558685957 132.27367585303  
