! Touchstone file exported from HFSS 3D Layout Design 2026.1.0
!        File:           D:/Work/SIM/ADS_AUTO_SIM/projects/RFSOC_RF/TX_Fillter.aedt
!        Generated:      12:59:11 AM Aug 31, 2026
!        Design:         TX_BAND1_MCFIL_R17_CNN047
!        Project:        TX_Fillter
!
# GHz S MA R 50.000000
! Terminal data exported
! Port[1] = Port1
! Port[2] = Port2
14                             0.971625812769198 -168.447205871646 0.00390687100683728 -176.681367472702 0.00390687100683728 -176.681367472702 0.97382015963886 -161.326712246935 
14.05                          0.971092881765493 -169.341300351333 0.00398820768828635 -177.047293905676 0.00398820768828635 -177.047293905676 0.973335086979342 -162.202204777986 
14.1                           0.970542889037905 -170.24190076887 0.00407358707588402 -177.393457086066 0.00407358707588401 -177.393457086065 0.97283471524182 -163.083643252795 
14.15                          0.969974989712777 -171.149219139288 0.00416333097833761 -177.719587639244 0.00416333097833761 -177.719587639244 0.97231828338202 -163.971208996818 
14.2                           0.969388282676727 -172.06347848567 0.0042577925930425 -178.025470585501 0.00425779259304253 -178.025470585501 0.971784979068942 -164.865093029175 
14.25                          0.968781805870948 -172.984913558031 0.00435735990586681 -178.310953881579 0.00435735990586683 -178.310953881578 0.97123393434395 -165.765496710217 
14.3                           0.968154531108878 -173.913771609861 0.00446245948404312 -178.575957676414 0.00446245948404315 -178.575957676414 0.970664220835768 -166.672632441672 
14.35                          0.967505358360278 -174.850313237846 0.0045735607101553 -178.820484269639 0.00457356071015531 -178.820484269638 0.97007484447786 -167.586724424501 
14.4                           0.966833109436949 -175.794813290982 0.00469118051158329 -179.04462874411 0.00469118051158329 -179.04462874411 0.969464739667247 -168.508009480162 
14.45                          0.966136521006194 -176.747561855933 0.00481588864713978 -179.248590223594 0.00481588864713977 -179.248590223594 0.968832762795193 -169.436737941627 
14.5                           0.96541423684761 -177.70886532633 0.00494831362118321 -179.432683683723 0.00494831362118323 -179.432683683722 0.968177685070191 -170.373174621267 
14.55                          0.964664799256541 -178.67904756457 0.00508914930545981 -179.597352218859 0.00508914930545981 -179.597352218859 0.967498184542046 -171.317599863521 
14.6                           0.96388663948326 -179.65845116573 0.00523916236058798 -179.743179640111 0.005239162360588 -179.743179640111 0.966792837222309 -172.27031069126 
14.65                          0.96307806708027 179.352561165673 0.00539920056279832 -179.870903251146 0.0053992005627983 -179.870903251146 0.966060107180435 -173.23162205578 
14.7                           0.962237258010643 178.353605114004 0.00557020215769129 -179.981426620043 0.00557020215769129 -179.981426620043 0.965298335476492 -174.201868201656 
14.75                          0.961362241347405 177.344273112357 0.00575320638187734 179.924167861584 0.00575320638187733 179.924167861584 0.964505727769426 -175.181404159008 
14.8                           0.960450884367064 176.324132548678 0.00594936531602312 179.844606864551 0.00594936531602311 179.844606864551 0.963680340414197 -176.170607377398 
14.85                          0.959500875808617 175.292723800963 0.00615995725977698 179.778414703622 0.00615995725977701 179.778414703623 0.96282006483076 -177.169879517319 
14.9                           0.958509707031769 174.249558082137 0.00638640185115955 179.72390287549  0.00638640185115953 179.72390287549  0.961922609891948 -178.179648417385 
14.95                          0.957474650763588 173.19411507267  0.00663027719134535 179.679160814225 0.00663027719134534 179.679160814226 0.960985482034663 -179.200370257633 
15                             0.956392737069707 172.125840316114 0.00689333928159281 179.642048112894 0.0068933392815928 179.642048112894 0.960005962747957 179.767468057878 
15.05                          0.955260726123009 171.044142349429 0.00717754413393423 179.610188432931 0.00717754413393421 179.610188432931 0.958981083030951 178.723346272925 
15.1                           0.954075077266947 169.948389536189 0.00748507298295209 179.580965279566 0.00748507298295207 179.580965279566 0.957907594340818 177.666707875593 
15.15                          0.952831913779819 168.837906566398 0.00781836110476438 179.551519760986 0.00781836110476436 179.551519760986 0.956781935463733 176.596956885461 
15.2                           0.951526982636865 167.711970581724 0.00818013084390488 179.51875037108  0.00818013084390487 179.51875037108  0.955600194636397 175.513454292923 
15.25                          0.950155608434866 166.569806879237 0.00857342956238012 179.479314741458 0.00857342956238009 179.479314741458 0.954358066118414 174.415514106706 
15.3                           0.948712640483769 165.410584140295 0.00900167336179038 179.429633200133 0.00900167336179039 179.429633200134 0.953050800261325 173.302398959552 
15.35                          0.947192391875091 164.233409123785 0.00946869759388759 179.365893854916 0.00946869759388759 179.365893854916 0.951673145932085 172.17331521504  
15.4                           0.945588569099354 163.037320754571 0.00997881537328749 179.284058793201 0.00997881537328749 179.284058793202 0.950219283919123 171.027407510618 
15.45                          0.943894190494082 161.821283528481 0.0105368855456199 179.179870861078 0.0105368855456198 179.179870861078 0.948682749667796 169.863752662938 
15.5                           0.942101491447045 160.584180144515 0.0111483918542696 179.048860358132 0.0111483918542696 179.048860358132 0.94705634334611 168.68135285154  
15.55                          0.940201813839782 159.324803263113 0.0118195354002448 178.886350864348 0.0118195354002448 178.886350864348 0.945332024814985 167.479127985721 
15.6                           0.938185476673223 158.041846276347 0.0125573429164404 178.687463305394 0.0125573429164404 178.687463305394 0.943500790549325 166.255907147209 
15.65                          0.936041624143888 156.733892961978 0.0133697938966823 178.447117264209 0.0133697938966823 178.447117264209 0.941552528900868 165.010418988067 
15.7                           0.933758046602041 155.399405878898 0.0142659702523293 178.160028460084 0.0142659702523293 178.160028460085 0.939475849277746 163.741280949667 
15.75                          0.931320968779807 154.036713347289 0.0152562329403686 177.820701239104 0.0152562329403687 177.820701239104 0.93725787979696 162.446987155193 
15.8                           0.928714798373518 152.643994844276 0.0163524309476532 177.42341484712  0.0163524309476532 177.42341484712  0.934884026690845 161.125894816305 
15.85                          0.925921826432477 151.219264637196 0.0175681491629214 176.962202181517 0.0175681491629215 176.962202181517 0.932337687149306 159.776208986528 
15.9                           0.922921868960518 149.760353475477 0.0189190030644435 176.430819631743 0.0189190030644436 176.430819631743 0.929599905270901 158.395965493016 
15.95                          0.919691836571038 148.264888174467 0.0204229898452053 175.822706510359 0.0204229898452053 175.822706510359 0.92664895827109 156.983011890325 
16                             0.916205215820963 146.730268959768 0.02210090764187 175.130932434554 0.0221009076418701 175.130932434554 0.923459856924194 155.534986313555 
16.05                          0.912431441829305 145.153644513343 0.0239768569796614 174.348130830987 0.0239768569796614 174.348130830987 0.920003740239036 154.0492941777   
16.1                           0.908335136784234 143.531884796193 0.0260788414331031 173.466416494069 0.0260788414331032 173.466416494069 0.916247139403968 152.523082797433 
16.15                          0.903875182769899 141.861551953017 0.0284394878425662 172.477284822201 0.0284394878425663 172.477284822201 0.912151079886392 150.953214221253 
16.2                           0.899003589828959 140.138869989079 0.0310969101645815 171.371489987443 0.0310969101645816 171.371489987443 0.907669983046219 149.33623694023  
16.25                          0.893664111226909 138.359694538025 0.034095744989526 170.138898873116 0.034095744989526 170.138898873116 0.902750319601232 147.668357729342 
16.3                           0.887790547612794 136.519485052508 0.0374883905203464 168.76831717392  0.0374883905203465 168.76831717392  0.897328956829688 145.94541584187  
16.35                          0.88130467073905 134.613283368604 0.0413364835412502 167.247283664792 0.0413364835412502 167.247283664792 0.89133112999284 144.16286331386  
16.4                           0.874113687073562 132.635705169142 0.0457126490629054 165.561828443176 0.0457126490629055 165.561828443176 0.88466795743861 142.315757574956 
16.45                          0.86610715520773 130.580954949053 0.0507025521238436 163.696191179256 0.0507025521238436 163.696191179256 0.877233411190734 140.398776419643 
16.5                           0.85715327486587 128.442881529104 0.0564072658092578 161.632496498496 0.0564072658092577 161.632496498496 0.868900656617916 138.406271474906 
16.55                          0.847094491856135 126.215101316127 0.0629459357105597 159.350386299895 0.0629459357105596 159.350386299895 0.859517697757883 136.332385856178 
16.6                           0.835742435179093 123.891232437126 0.0704586552734674 156.826614294673 0.0704586552734673 156.826614294673 0.848902330858973 134.171276643528 
16.65                          0.82287236034623 121.465307699706 0.0791093472436296 154.034618294076 0.0791093472436295 154.034618294076 0.83683655691947 131.917505982169 
16.7                           0.808217587012804 118.932472570789 0.0890882410344441 150.944103837386 0.0890882410344441 150.944103837386 0.823060902560793 129.566700072331 
16.75                          0.791465005662475 116.290132097363 0.10061319833129 147.5207031397   0.10061319833129 147.5207031397   0.807269660623498 127.116628357467 
16.8                           0.77225376793748 113.539794859817 0.113928613575244 143.725822114218 0.113928613575244 143.725822114218 0.789109063474456 124.568931485269 
16.85                          0.750181018861903 110.689977174843 0.129299855311881 139.516862122658 0.129299855311881 139.516862122658 0.768182087543795 121.931828557796 
16.9                           0.72482124792022 107.760668946135 0.147000238204952 134.848106082235 0.147000238204952 134.848106082235 0.74406622074181 119.224250975154 
16.95                          0.695769616162731 104.789977658368 0.16728653982778 129.672682750932 0.16728653982778 129.672682750932 0.716354183799317 116.481932810161 
17                             0.662723802679563 101.843515328901 0.190358749658815 123.946130213166 0.190358749658815 123.946130213166 0.684731622963485 113.765894504833 
17.05                          0.625620937652152 99.0265126688415 0.216301433808285 117.632072253885 0.216301433808285 117.632072253885 0.649107633187545 111.173150322116 
17.1                           0.584839746033925 96.496753038113  0.245009939970821 110.710218174011 0.245009939970822 110.710218174011 0.609807429133927 108.847668145803 
17.15                          0.541451674941302 94.4718367275336 0.276116428148738 103.186066966601 0.276116428148738 103.186066966601 0.567810575483114 106.985531832117 
17.2                           0.497444788618373 93.2155765465051 0.308946559549187 95.100252139352  0.308946559549187 95.100252139352  0.524960768635072 105.821106290303 
17.25                          0.455749832247217 92.9776945446343 0.342547678874212 86.5338457789163 0.342547678874212 86.5338457789163 0.483987192129216 105.573508917818 
17.3                           0.419820465992672 93.8650927880374 0.375816290694012 77.6054051533069 0.375816290694012 77.6054051533069 0.448116721878403 106.338719684194 
17.35                          0.392616972813214 95.6799379190336 0.407707415617609 68.4575810053417 0.407707415617609 68.4575810053416 0.420159291366926 107.958869200328 
17.4                           0.375305607980941 97.868720980457  0.43745254212074 59.2356973056555 0.43745254212074 59.2356973056555 0.401349888575476 109.979802154038 
17.45                          0.366564692886004 99.7203584219656 0.464693759736157 50.0651496969127 0.464693759736156 50.0651496969127 0.39069656736126 111.801288971187 
17.5                           0.36315852928599 100.693186912    0.489484271517748 41.035224968687  0.489484271517748 41.035224968687  0.385402861575645 112.93840266291  
17.55                          0.36129710679347 100.584523463605 0.512176831867493 32.1933673918214 0.512176831867493 32.1933673918214 0.382022046581955 113.17868844094  
17.6                           0.357751693349318 99.471910292264  0.533265293288692 23.5489850990435 0.533265293288691 23.5489850990435 0.377491283247291 112.558437192531 
17.65                          0.350289145584882 97.5758652432555 0.553239845874989 15.0829284269432 0.553239845874988 15.0829284269433 0.369605607502863 111.258171692584 
17.7                           0.337629522373723 95.165179883155  0.572486010725294 6.75861981083819 0.572486010725294 6.75861981083826 0.357046486660941 109.519520884824 
17.75                          0.319249784180039 92.526791977459  0.591230128015211 -1.46776929531398 0.591230128015212 -1.46776929531394 0.339237477492857 107.612796423981 
17.8                           0.295221813755292 89.9836062841161 0.60952167194945 -9.63917529195019 0.60952167194945 -9.63917529195014 0.316209846285222 105.846252147601 
17.85                          0.266155586646651 87.9497011319354 0.627242034160911 -17.7916741117729 0.62724203416091 -17.7916741117729 0.2885562840335  104.606043510338 
17.9                           0.233278690441941 87.0302207298169 0.644133214837769 -25.9504917348639 0.644133214837768 -25.9504917348639 0.25750346179649 104.423841376363 
17.95                          0.198709949018752 88.1842600164598 0.659842922387994 -34.1278149792977 0.659842922387994 -34.1278149792977 0.225133475513731 106.065039642472 
18                             0.166050771760437 92.905453138286  0.673982680122013 -42.3223387711391 0.673982680122012 -42.3223387711391 0.194781454924115 110.566208471774 
18.05                          0.141261944625246 102.909799941407 0.686192811779174 -50.5205216329208 0.686192811779173 -50.5205216329208 0.171432826247757 118.902622351211 
18.1                           0.132156194470575 117.768814315365 0.696204488222313 -58.6994016826623 0.696204488222312 -58.6994016826623 0.1610508244826  130.695275423131 
18.15                          0.14275600814684 132.253447433926 0.703887093298752 -66.8305809073001 0.703887093298751 -66.8305809073001 0.167180673219938 142.946025600436 
18.2                           0.168502831937822 141.450202605499 0.709271148694599 -74.8847323037251 0.709271148694597 -74.884732303725 0.187664242059114 152.167004787666 
18.25                          0.201750245173499 145.237679501712 0.712542971233817 -82.8358638009604 0.712542971233816 -82.8358638009604 0.216862870148986 157.330240560681 
18.3                           0.236979895156372 145.334548331575 0.71401475690426 -90.6646656719647 0.714014756904259 -90.6646656719647 0.24961742595413 159.206144911597 
18.35                          0.271020437643702 143.146354853295 0.714079555191458 -98.360544455105 0.714079555191458 -98.360544455105 0.282484183431969 158.838449515469 
18.4                           0.30213081029919 139.536054878249 0.713162438721167 -105.922288767459 0.713162438721167 -105.922288767459 0.313405756835026 157.013161270482 
18.45                          0.329388214183337 135.00557401921  0.711677180716265 -113.357592112155 0.711677180716264 -113.357592112155 0.341222227960294 154.243714375224 
18.5                           0.352359424767906 129.846086167561 0.709993710993467 -120.681802495535 0.709993710993467 -120.681802495535 0.365335584235627 150.852979496758 
18.55                          0.37091824854073 124.226088209772 0.708417582426496 -127.916279404983 0.708417582426496 -127.916279404983 0.385502564153064 147.041893430636 
18.6                           0.385137279559767 118.240610399649 0.707179908922099 -135.086663026424 0.707179908922099 -135.086663026425 0.401705805811027 142.93403702073  
18.65                          0.395222064632299 111.939267182182 0.706435005118264 -142.221254614905 0.706435005118264 -142.221254614905 0.414072449832469 138.602908670527 
18.7                           0.401472651921308 105.342924727822 0.706262905954423 -149.349611023608 0.706262905954423 -149.349611023608 0.422823145636269 134.088345982361 
18.75                          0.404264156038389 98.4541596318872 0.70667452477949 -156.501389263352 0.70667452477949 -156.501389263353 0.42824137952338 129.406222212525 
18.8                           0.40404065368651 91.2643399233792 0.707617965793073 -163.705440804261 0.707617965793073 -163.705440804261 0.430656460617153 124.553827920408 
18.85                          0.401317827129339 83.7589982183013 0.70898515691599 -170.98914343163 0.70898515691599 -170.989143431631 0.430435365049042 119.512327625027 
18.9                           0.396690149836019 75.9225873058705 0.710618376867994 -178.377960798343 0.710618376867994 -178.377960798344 0.42797990208849 114.247133197566 
18.95                          0.390838393051671 67.7433843909113 0.712316377300073 174.104774187131 0.712316377300073 174.104774187131 0.423726815790733 108.70680150961  
19                             0.384533065266262 59.2190209230153 0.713839675188396 166.437856444585 0.713839675188396 166.437856444584 0.418149777566622 102.821067779896 
19.05                          0.378629410676469 50.3626598938613 0.714914301545091 158.602006616845 0.714914301545091 158.602006616845 0.411763916339151 96.4988444089243 
19.1                           0.374050263898823 41.2090515237908 0.715233003162883 150.579528909364 0.715233003162883 150.579528909364 0.405135435251759 89.6274468568832 
19.15                          0.371754874253653 31.8185809017442 0.714452854200977 142.353952883296 0.714452854200979 142.353952883295 0.39890025570971 82.0749439431336 
19.2                           0.372694809822532 22.2764400205946 0.712188771862777 133.909870771157 0.712188771862778 133.909870771157 0.393794872673837 73.6982855448068 
19.25                          0.37776108910023 12.6842553756937 0.708003903520668 125.233278114417 0.708003903520671 125.233278114416 0.390697054164386 64.360392549779  
19.3                           0.387727291354153 3.14394189954596 0.701400531075897 116.312800316338 0.701400531075899 116.312800316337 0.39066095288438 53.9587177924893 
19.35                          0.403189590863051 -6.26206910744833 0.691818949266454 107.142187862702 0.691818949266457 107.142187862702 0.394911300379796 42.4639824305425 
19.4                           0.424498652013523 -15.4863283869034 0.678655828152166 97.7243080715325 0.678655828152168 97.7243080715323 0.404745553593559 29.9591760761976 
19.45                          0.451677947158841 -24.5199170254386 0.661315508577285 88.0764580887975 0.661315508577287 88.0764580887973 0.421306417781007 16.6585129204727 
19.5                           0.484336149458917 -33.3815086592498 0.639303424808662 78.2361285464481 0.639303424808663 78.2361285464478 0.445252554042039 2.88575351331509 
19.55                          0.521605284386134 -42.0965871778069 0.612356208074482 68.2654927192122 0.612356208074482 68.265492719212  0.476448578585606 -10.9878665666013 
19.6                           0.562153883775727 -50.6761700623281 0.580578581481622 58.2523192284031 0.580578581481621 58.252319228403  0.51383488898527 -24.6167171173858 
19.65                          0.604313101775789 -59.1039565888243 0.544534279048895 48.3053664559083 0.544534279048895 48.3053664559084 0.555566222960408 -37.729536833626 
19.7                           0.6463073874776  -67.3359859507991 0.505237465284872 38.544000588749  0.505237465284873 38.5440005887492 0.599373228511482 -50.1420912676402 
19.75                          0.686524351406203 -75.310813415509 0.464025491628711 29.0842419247655 0.464025491628713 29.0842419247658 0.64300324958667 -61.7462430432292 
19.8                           0.723732721879439 -82.9642452613241 0.422348652810911 20.0252179419521 0.422348652810913 20.0252179419525 0.68458573860178 -72.4924376461214 
19.85                          0.757184094526212 -90.2423879521321 0.381550586991094 11.4398167680822 0.381550586991098 11.4398167680827 0.722829022085526 -82.3743229907702 
19.9                           0.786592213483009 -97.1093294154937 0.342708067228283 3.37133646902951 0.342708067228287 3.37133646903002 0.757040770614209 -91.4167457878177 
19.95                          0.812030936393886 -103.548993125582 0.306560678719763 -4.16447463229513 0.306560678719768 -4.16447463229475 0.78702671883659 -99.6659751118264 
20                             0.833805363397736 -109.562810902946 0.27352019539722 -11.1740428744673 0.273520195397225 -11.1740428744669 0.81293967182356 -107.181425518837 
20.05                          0.852336444008185 -115.165404629419 0.243728363156727 -17.6794763634549 0.243728363156732 -17.6794763634547 0.835133998435005 -114.02886052414 
20.1                           0.868077028789778 -120.379993501362 0.217131551080276 -23.7125285107977 0.21713155108028 -23.7125285107977 0.854053006934498 -120.27523474661 
20.15                          0.881460415737975 -125.234475983014 0.193551112276793 -29.3097827552707 0.193551112276797 -29.3097827552708 0.870154532521489 -125.985160647239 
20.2                           0.892874366776825 -129.75851055614 0.172739647064908 -34.5092154896317 0.172739647064912 -34.509215489632 0.88386854877303 -131.218776079568 
20.25                          0.902651958351922 -133.981555822428 0.154421233613262 -39.3479674298001 0.154421233613265 -39.3479674298005 0.895577292172034 -136.0306824324  
20.3                           0.91107209275993 -137.931679987296 0.138317674351098 -43.8610401395063 0.138317674351101 -43.8610401395068 0.905609316250189 -140.469621012861 
20.35                          0.918364730305814 -141.634924347986 0.124164099814276 -48.0806392102698 0.124164099814278 -48.0806392102703 0.914241192633822 -144.578611255101 
20.4                           0.92471784875877 -145.115035686801 0.11171716454887 -52.0359380767689 0.111717164548871 -52.0359380767695 0.921702808864292 -148.395347003982 
20.45                          0.930284511449928 -148.393428101946 0.100758431929611 -55.7530974136379 0.100758431929612 -55.7530974136384 0.928183895971745 -151.952713412017 
20.5                           0.935189282676095 -151.48927732548 0.0910948303328195 -59.255427727765 0.0910948303328204 -59.2554277277656 0.933840530213186 -155.279338466315 
20.55                          0.93953371496743 -154.419683928063 0.082557456172711 -62.5636226196161 0.0825574561727114 -62.5636226196165 0.938801024174705 -158.400129428764 
20.6                           0.943400883304727 -157.199865676201 0.0749995444058577 -65.6960181167589 0.0749995444058581 -65.6960181167593 0.943170997838091 -161.336768309156 
20.65                          0.946859055058796 -159.843355417406 0.0682941102583129 -68.6688520635942 0.0682941102583133 -68.6688520635945 0.94703761401148 -164.10815527896 
20.7                           0.949964624259491 -162.362191290484 0.0623315559523394 -71.4965094315229 0.0623315559523396 -71.4965094315231 0.950473051719246 -166.730797593971 
20.75                          0.952764441949899 -164.767092565457 0.0570174023146776 -74.191746747928 0.0570174023146777 -74.1917467479281 0.953537323601512 -169.219146316524 
20.8                           0.955297661427214 -167.067618341347 0.0522702226676132 -76.7658932067599 0.0522702226676134 -76.7658932067599 0.956280547130447 -171.58588542792 
20.85                          0.957597198834566 -169.272308600824 0.0480198074255395 -79.2290285038629 0.0480198074255395 -79.2290285038628 0.958744770148288 -173.842178794558 
20.9                           0.959690891014375 -171.388808361023 0.0442055600560239 -81.5901387556382 0.044205560056024 -81.5901387556379 0.960965437167986 -175.997880525918 
20.95                          0.961602415958339 -173.423976273765 0.0407751103935778 -83.8572524737334 0.0407751103935779 -83.8572524737331 0.962972568183505 -178.061713923332 
21                             0.963352027280517 -175.383979272417 0.0376831244888232 -86.0375587735421 0.0376831244888233 -86.0375587735415 0.964791708273705 179.958576307416 
21.05                          0.964957142879062 -177.274374896357 0.0348902879416251 -88.1375099713394 0.0348902879416252 -88.1375099713388 0.966444694725742 178.056094490044 
21.1                           0.966432819029764 -179.100182845009 0.0323624399682174 -90.1629105837252 0.0323624399682175 -90.1629105837245 0.967950278841671 176.224683540039 
21.15                          0.96779213417782 179.134052819877 0.0300698370563447 -92.1189945488023 0.0300698370563449 -92.1189945488016 0.969324631856089 174.458830662277 
21.2                           0.969046501281651 177.424209558589 0.0279865272399696 -94.010492278683 0.0279865272399698 -94.0104922786822 0.970581758220579 172.753586656217 
21.25                          0.970205923381587 175.766539214186 0.0260898183592433 -95.8416889480061 0.0260898183592435 -95.8416889480053 0.971733834627967 171.10449670356  
21.3                           0.971279203842311 174.157626885275 0.0243598259354397 -97.6164752335661 0.0243598259354399 -97.6164752335654 0.972791489305671 169.507540856474 
21.35                          0.972274120232187 172.594354978991 0.0227790883714761 -99.3383915503439 0.0227790883714763 -99.3383915503432 0.973764033089076 167.959082734173 
21.4                           0.973197568883537 171.073871729737 0.0213322390401239 -101.01066668019 0.0213322390401241 -101.010666680189 0.974659651417334 166.455825178577 
21.45                          0.974055685693114 169.593563571606 0.0200057264351195 -102.636251560373 0.0200057264351196 -102.636251560372 0.975485564534415 164.994771822627 
21.5                           0.974853947569807 168.151030840878 0.0187875749462302 -104.217848888453 0.0187875749462305 -104.217848888453 0.976248161716106 163.573193693852 
21.55                          0.97559725803947 166.744066360738 0.0176671799985886 -105.757939105419 0.0176671799985888 -105.757939105419 0.976953114191574 162.188600116394 
21.6                           0.976290019815524 165.370636525174 0.0166351322935212 -107.258803238607 0.0166351322935215 -107.258803238607 0.977605470517929 160.838713291722 
21.65                          0.976936196593647 164.028864554061 0.0156830667271508 -108.722543017635 0.015683066727151 -108.722543017635 0.978209737445017 159.521446035613 
21.7                           0.97753936589505 162.717015638345 0.0148035322671955 -110.151098618591 0.0148035322671956 -110.151098618591 0.978769948734346 158.2348822301   
21.75                          0.978102764439457 161.433483734049 0.0139898796582834 -111.546264342431 0.0139898796582835 -111.54626434243 0.979289723938665 156.977259616782 
21.8                           0.978629327255782 160.17677979763  0.0132361643198333 -112.909702491613 0.0132361643198333 -112.909702491613 0.979772318782594 155.746954614405 
21.85                          0.979121721520333 158.945521284029 0.0125370622136839 -114.24295567321 0.012537062213684 -114.24295567321 0.980220668490519 154.54246889098  
21.9                           0.979582375937307 157.738422753214 0.0118877968044277 -115.54745772618 0.0118877968044278 -115.54745772618 0.980637425170713 153.362417460415 
21.95                          0.9800135063352  156.554287451883 0.0112840755249666 -116.824543444249 0.0112840755249665 -116.82454344425 0.981024990172633 152.205518106999 
22                             0.980417138038494 155.391999754832 0.0107220344025229 -118.075457243345 0.010722034402523 -118.075457243345 0.981385542178333 151.070581969241 
22.05                          0.980795125481045 154.250518365682 0.0101981897040054 -119.301360903075 0.0101981897040053 -119.301360903076 0.98172106166173 149.956505138275 
22.1                           0.981149169451693 153.12887018974  0.00970939563075419 -120.503340495005 0.00970939563075413 -120.503340495005 0.982033352245382 148.862261146189 
22.15                          0.981480832300337 152.026144802923 0.00925280723667989 -121.682412595923 0.00925280723667978 -121.682412595923 0.982324059398917 147.786894236665 
22.2                           0.981791551381457 150.941489450327 0.00882584786514305 -122.839529871721 0.0088258478651429 -122.839529871722 0.982594686852862 146.729513324839 
22.25                          0.982082650969627 149.87410451628  0.00842618050233756 -123.975586106534 0.00842618050233741 -123.975586106534 0.982846611043285 145.689286565656 
22.3                           0.982355352846368 148.823239414894 0.00805168253152358 -125.091420742282 0.00805168253152345 -125.091420742282 0.983081093854388 144.665436460554 
22.35                          0.982610785728341 147.7881888563   0.00770042344578026 -126.187822985464 0.00770042344578008 -126.187822985465 0.983299293885911 143.657235441369 
22.4                           0.982849993682323 146.768289449122 0.00737064513915336 -127.265535530837 0.00737064513915322 -127.265535530837 0.983502276438607 142.664001878114 
22.45                          0.983073943651817 145.762916604379 0.00706074444893219 -128.3252579453  0.007060744448932 -128.3252579453  0.983691022382885 141.685096463967 
22.5                           0.983283532202748 144.771481710084 0.00676925766679134 -129.36764974988 0.00676925766679113 -129.367649749881 0.983866436052081 140.719918936565 
22.55                          0.98347959158108 143.793429549301 0.00649484677490791 -130.393333232885 0.00649484677490772 -130.393333232886 0.984029352281841 139.767905099677 
22.6                           0.983662895162674 142.828235937532 0.00623628719594759 -131.402896023188 0.00623628719594742 -131.402896023189 0.984180542700262 138.828524113643 
22.65                          0.983834162365181 141.875405557977 0.00599245687386982 -132.396893448976 0.00599245687386967 -132.396893448976 0.98432072135916 137.901276026697 
22.7                           0.983994063082682 140.934469975589 0.00576232652655218 -133.375850704161 0.00576232652655203 -133.375850704161 0.984450549784659 136.985689522544 
22.75                          0.984143221696086 140.004985812919 0.00554495093189011 -134.340264841923 0.00554495093188999 -134.340264841923 0.984570641514966 136.081319862409 
22.8                           0.984282220705641 139.086533072551 0.00533946112679506 -135.290606612507 0.00533946112679494 -135.290606612507 0.984681566184357 135.187747002219 
22.85                          0.984411604026217 138.178713592568 0.00514505741382509 -136.227322160301 0.005145057413825 -136.2273221603  0.984783853204791 134.304573867772 
22.9                           0.984531879981083 137.281149622874 0.00496100308339962 -137.150834593488 0.00496100308339954 -137.150834593489 0.984877995090114 133.431424772614 
22.95                          0.984643524025634 136.39348251148  0.00478661877097552 -138.061545437984 0.00478661877097546 -138.061545437983 0.984964450462154 132.567943965027 
23                             0.984746981228852 135.515371490944 0.00462127737845979 -138.959835986029 0.00462127737845976 -138.959835986029 0.985043646773239 131.713794291987 
