! Touchstone file exported from HFSS 3D Layout Design 2026.1.0
!        File:           D:/Work/SIM/ADS_AUTO_SIM/projects/RFSOC_RF/TX_Fillter.aedt
!        Generated:      12:44:10 AM Aug 31, 2026
!        Design:         TX_BAND1_MCFIL_R14_CNN043
!        Project:        TX_Fillter
!
# GHz S MA R 50.000000
! Terminal data exported
! Port[1] = Port1
! Port[2] = Port2
14                             0.969860001388637 -173.350539386212 0.00415252633546658 -179.443799751842 0.00415252633546658 -179.443799751842 0.972866177333455 -165.378339705334 
14.05                          0.969288498551352 -174.27912580155 0.00423885055883824 -179.850320379243 0.00423885055883821 -179.850320379243 0.972366522193092 -166.25945511488 
14.1                           0.968698958433379 -175.214855511888 0.00432938442862094 179.760548560912 0.00432938442862093 179.760548560911 0.97185112039109 -167.146794160434 
14.15                          0.968090518028851 -176.157959923381 0.00442445092892521 179.388982700829 0.00442445092892516 179.388982700827 0.971319202969743 -168.040553179525 
14.2                           0.967462259262402 -177.108681976918 0.00452440335295169 179.035107317436 0.00452440335295164 179.035107317435 0.970769950656394 -168.940938632205 
14.25                          0.966813204587222 -178.067276870013 0.00462962847212455 178.698990213558 0.0046296284721245 178.698990213557 0.970202489741278 -169.848167755206 
14.3                           0.966142312157958 -179.034012834046 0.00474055006038888 178.380634051761 0.00474055006038882 178.38063405176  0.969615887547962 -170.762469267657 
14.35                          0.96544847053014 179.990828028064 0.00485763281586002 178.079968152558 0.00485763281585995 178.079968152556 0.969009147449069 -171.684084133266 
14.4                           0.964730492831368 179.006948838106 0.00498138672747047 177.796839781122 0.0049813867274704 177.796839781121 0.968381203373594 -172.613266384348 
14.45                          0.963987110342237 178.01403696652  0.00511237194053875 177.531004961075 0.00511237194053867 177.531004961074 0.967730913744844 -173.550284013715 
14.5                           0.963216965416541 177.011762977088 0.00525120418243187 177.282118870087 0.00525120418243177 177.282118870085 0.967057054779613 -174.495419941109 
14.55                          0.962418603660578 175.999779484685 0.00539856081788766 177.049725889771 0.00539856081788759 177.049725889769 0.966358313069422 -175.448973061634 
14.6                           0.961590465280151 174.977719917498 0.00555518761332187 176.833249401301 0.00555518761332179 176.8332494013   0.965633277353385 -176.411259384488 
14.65                          0.960730875490821 173.945197174177 0.00572190630082487 176.6319814377   0.00572190630082476 176.631981437698 0.964880429379127 -177.382613271302 
14.7                           0.959838033871833 172.901802165232 0.00589962304586824 176.445072323177 0.00589962304586812 176.445072323176 0.964098133732867 -178.363388784468 
14.75                          0.958910002526509 171.847102226783 0.00608933793836251 176.271520448221 0.00608933793836243 176.27152044822  0.963284626501966 -179.353961157121 
14.8                           0.957944692891315 170.780639393293 0.00629215564508615 176.110162345245 0.00629215564508605 176.110162345244 0.962438002612341 179.645271602152 
14.85                          0.956939851011743 169.701928514376 0.00650929738317274 175.959663242121 0.00650929738317266 175.95966324212  0.961556201658661 178.63388695518  
14.9                           0.955893041074871 168.610455198875 0.00674211439994497 175.818508278474 0.00674211439994487 175.818508278473 0.960636992016447 177.611435914105 
14.95                          0.954801626955277 167.505673567395 0.00699210317467535 175.684994570568 0.00699210317467527 175.684994570568 0.959677952991252 176.577440936657 
15                             0.953662751491761 166.387003792068 0.00726092259375661 175.557224303567 0.00726092259375655 175.557224303567 0.958676454719983 175.531393615779 
15.05                          0.952473313166058 165.253829399698 0.00755041339335548 175.43309901344  0.00755041339335544 175.43309901344  0.957629635491868 174.472752139799 
15.1                           0.951229939799774 164.10549431133  0.00786262021421152 175.310315193755 0.0078626202142115 175.310315193755 0.956534376100075 173.400938496255 
15.15                          0.949928958820546 162.941299587868 0.00819981667337286 175.186361324235 0.00819981667337285 175.186361324234 0.955387270767657 172.31533538887  
15.2                           0.948566363570582 161.760499847371 0.00856453392919905 175.058516368083 0.00856453392919903 175.058516368083 0.954184594111026 171.215282833101 
15.25                          0.947137775037762 160.562299315178 0.00895959330114326 174.923849724005 0.00895959330114329 174.923849724005 0.952922263507734 170.10007439101  
15.3                           0.945638398277939 159.345847462886 0.00938814360734493 174.779222547583 0.00938814360734497 174.779222547582 0.951595796119391 168.968953000832 
15.35                          0.944062972663025 158.110234186414 0.00985370400417301 174.621290276892 0.00985370400417305 174.621290276892 0.950200259680847 167.821106350541 
15.4                           0.942405714927753 156.854484466757 0.0103602132565025 174.446506111205 0.0103602132565025 174.446506111205 0.948730215997754 166.655661737719 
15.45                          0.940660253792503 155.577552449654 0.0109120865404599 174.251125101945 0.01091208654046 174.251125101945 0.947179655889754 165.471680350135 
15.5                           0.938819554702406 154.278314871993 0.0115142810874496 174.031208424809 0.0115142810874497 174.031208424809 0.945541924067246 164.268150892448 
15.55                          0.936875832934498 152.955563753476 0.0121723722265273 173.782627313825 0.0121723722265274 173.782627313825 0.94380963212568 163.043982474338 
15.6                           0.934820452972875 151.607998261724 0.0128926416801972 173.501066054852 0.0128926416801973 173.501066054852 0.941974557469246 161.797996664051 
15.65                          0.932643811621447 150.234215647775 0.0136821803268563 173.182023359309 0.0136821803268564 173.182023359308 0.940027525519466 160.528918598796 
15.7                           0.930335201796344 148.832701136868 0.0145490080739244 172.820811369858 0.0145490080739245 172.820811369859 0.937958272002628 159.235367029776 
15.75                          0.927882653291559 147.401816646938 0.0155022140042107 172.412551488057 0.0155022140042109 172.412551488058 0.935755281417506 157.915843165074 
15.8                           0.925272746012926 145.939788194871 0.0165521205821257 171.952166158028 0.0165521205821258 171.952166158028 0.933405596928748 156.568718158593 
15.85                          0.922490390190525 144.444691839421 0.0177104764568704 171.434365687207 0.0177104764568705 171.434365687207 0.930894595871114 155.192219078727 
15.9                           0.919518566863244 142.914438001346 0.0189906833007789 170.853629130869 0.018990683300779 170.853629130869 0.928205723734653 153.78441317773  
15.95                          0.916338020426474 141.346753998523 0.0204080631993316 170.204178206167 0.0204080631993316 170.204178206167 0.925320177868448 152.343190274466 
16                             0.912926893178386 139.739164640758 0.0219801743934546 169.479943127922 0.0219801743934547 169.479943127922 0.922216530113843 150.866243063035 
16.05                          0.909260289513388 138.088970752337 0.0237271846921448 168.674519165959 0.0237271846921449 168.674519165959 0.918870275064849 149.351045173982 
16.1                           0.905309754603259 136.393225540227 0.0256723136461671 167.781112606714 0.0256723136461672 167.781112606714 0.91525328754516 147.794826852968 
16.15                          0.901042648980076 134.648708817982 0.0278423566090493 166.792474655796 0.0278423566090493 166.792474655795 0.911333169065851 146.194548198874 
16.2                           0.89642139629633 132.851899254053 0.0302683060875073 165.700821641793 0.0302683060875073 165.700821641793 0.907072458357871 144.546870042625 
16.25                          0.891402576617844 130.998945075423 0.0329860882212129 164.497739679098 0.0329860882212128 164.497739679098 0.902427675445371 142.848122785579 
16.3                           0.885935831904117 129.085634080449 0.0360374346525006 163.17407173193  0.0360374346525006 163.17407173193  0.897348162080474 141.094273907667 
16.35                          0.879962543998234 127.107364485953 0.0394709120976101 161.71978482187  0.03947091209761 161.71978482187  0.891774673769539 139.280895486811 
16.4                           0.87341423893147 125.059119187632 0.0433431329670126 160.123814990585 0.0433431329670126 160.123814990585 0.88563767043347 137.403134075221 
16.45                          0.86621066565247 122.935447656002 0.0477201692731346 158.37388766298  0.0477201692731345 158.37388766298  0.878855244844494 135.455686860325 
16.5                           0.858257494439565 120.730462238587 0.0526791868911645 156.456311414495 0.0526791868911644 156.456311414495 0.871330622250092 133.432790514616 
16.55                          0.849443584067507 118.43785957546  0.0583103048269131 154.355744095884 0.0583103048269131 154.355744095884 0.862949164708237 131.328232995825 
16.6                           0.839637784208206 116.050983890813 0.0647186593580834 152.054932240339 0.0647186593580833 152.054932240339 0.853574826446602 129.135404539543 
16.65                          0.828685282739512 113.562958194073 0.0720266076506965 149.53442835371  0.0720266076506964 149.53442835371  0.843046044253274 126.847413314672 
16.7                           0.816403597454344 110.966923519961 0.0803759273328406 146.772297122551 0.0803759273328406 146.772297122551 0.831171130735529 124.457305360812 
16.75                          0.802578482625133 108.25644754659  0.0899297394456054 143.743832338739 0.0899297394456054 143.743832338739 0.817723403916103 121.958449918162 
16.8                           0.786960327936462 105.426195323024 0.10087367754826 140.421323660726 0.10087367754826 140.421323660726 0.802436591696408 119.345183441753 
16.85                          0.769262152985072 102.47300008458  0.113415516007315 136.773939106893 0.113415516007315 136.773939106893 0.785001582296056 116.61385270543  
16.9                           0.749161157430742 99.3975345189081 0.127782029728555 132.767828586284 0.127782029728555 132.767828586284 0.765066475178693 113.764463892455 
16.95                          0.726307101368606 96.2068622644419 0.144211287254605 128.366607913252 0.144211287254605 128.366607913252 0.742243267015412 110.80323268254  
17                             0.700342636532138 92.9182349034326 0.162937960761815 123.532449255915 0.162937960761815 123.532449255914 0.716126490667483 107.746433790951 
17.05                          0.670942933134062 89.5645527924224 0.184168827838881 118.228069174473 0.184168827838881 118.228069174473 0.68633160955577 104.626037832765 
17.1                           0.637883804596672 86.2018293357548 0.208046009371065 112.419933269333 0.208046009371065 112.419933269333 0.65256328080927 101.497616067913 
17.15                          0.601147094372923 82.9185674045779 0.234597604330701 106.082916204201 0.234597604330701 106.082916204201 0.614723891032082 98.4506960144594 
17.2                           0.561065625253569 79.8457441182815 0.263680408744114 99.2063620207541 0.263680408744114 99.2063620207541 0.573067368159678 95.620761602096  
17.25                          0.518492145113917 77.1634017407939 0.294927753184988 91.8008851802099 0.294927753184988 91.8008851802098 0.528386743187749 93.1996721644302 
17.3                           0.474942944988411 75.0948969075772 0.32772489634244 83.9043708181278 0.32772489634244 83.9043708181278 0.482191238564825 91.4363309596678 
17.35                          0.432620360359773 73.8732569814056 0.361238178510502 75.5848134544041 0.361238178510502 75.584813454404  0.4367806497738  90.6113397160349 
17.4                           0.394182197796058 73.6622153881344 0.394513086329155 66.937571344777  0.394513086329155 66.9375713447769 0.395077391228212 90.9620327697933 
17.45                          0.362158816146346 74.4356988373618 0.426627557571848 58.0759734596896 0.426627557571849 58.0759734596896 0.360077142765669 92.5461273532618 
17.5                           0.338106069564925 75.8808021399794 0.456853549774342 49.1168341649763 0.456853549774343 49.1168341649762 0.333926254782031 95.0963423060663 
17.55                          0.321906502733162 77.4409375650503 0.484767415753267 40.1649043366863 0.484767415753268 40.1649043366862 0.316998597094664 98.0121473421646 
17.6                           0.3117481698163  78.5297444012685 0.510272006937575 31.3008742385196 0.510272006937577 31.3008742385195 0.307641566647874 100.587524750663 
17.65                          0.304852203446405 78.7593849793474 0.533535754679783 22.5757922219547 0.533535754679785 22.5757922219545 0.302882941546551 102.319199733411 
17.7                           0.298413332179471 78.0147912034867 0.554885985797089 14.011978214407  0.55488598579709 14.0119782144069 0.299554849448398 103.039676677168 
17.75                          0.290213360159148 76.3858287204923 0.574698933567304 5.60844882768189 0.574698933567304 5.60844882768172 0.295095619496089 102.846254406614 
17.8                           0.27880422220542 74.0679730280439 0.593314177243703 -2.65170179040522 0.593314177243704 -2.65170179040536 0.287817151285522 101.971691434261 
17.85                          0.263437182330962 71.2996509935424 0.610982668700673 -10.7939810197736 0.610982668700674 -10.7939810197737 0.276840000116899 100.697763102508 
17.9                           0.24392050772599 68.3460569051032 0.627845300730229 -18.8463604307559 0.627845300730229 -18.8463604307559 0.261930978399143 99.3257505690184 
17.95                          0.22050255901936 65.521087141035  0.643934483410172 -26.834719900918 0.643934483410172 -26.834719900918 0.243367757482572 98.1859740152457 
18                             0.193817682779381 63.2478550276769 0.65919134807672 -34.7798612628838 0.65919134807672 -34.7798612628837 0.22187209944725 97.6709000412579 
18.05                          0.164920656033804 62.1798332251606 0.673492756098772 -42.695918873612 0.673492756098774 -42.6959188736118 0.198621204923531 98.2817795195611 
18.1                           0.135474715716576 63.4341621937219 0.686683473019399 -50.5899606275356 0.686683473019401 -50.5899606275353 0.175339272129511 100.666770546272 
18.15                          0.108262170937459 68.9564453601257 0.698609278539719 -58.4625710141825 0.698609278539721 -58.4625710141823 0.154441614206868 105.567212139953 
18.2                           0.0881682863385255 81.3545920950097 0.709146823205108 -66.3091918019412 0.709146823205112 -66.309191801941 0.139045356053763 113.453276164785 
18.25                          0.0819721064499707 100.082412722572 0.718226357823399 -74.1219618906878 0.718226357823402 -74.1219618906876 0.132304312257994 123.689709677927 
18.3                           0.0921449044511497 116.925383811888 0.725844499677481 -81.8917671191306 0.725844499677485 -81.8917671191304 0.1357187709912  134.103070900866 
18.35                          0.113024196189609 126.116164700349 0.732065961162855 -89.6102100094039 0.732065961162858 -89.6102100094038 0.147950857306083 142.354769091368 
18.4                           0.13809788739275 129.029761356861 0.737015211999011 -97.2712535119103 0.737015211999014 -97.2712535119103 0.165913272125155 147.544544238498 
18.45                          0.163613572593639 128.148925693405 0.740860746604173 -104.872376757287 0.740860746604175 -104.872376757287 0.186587550085458 150.001616471638 
18.5                           0.187684795035127 125.027257487603 0.743795501988465 -112.415183112588 0.743795501988465 -112.415183112588 0.207785798839431 150.413386916862 
18.55                          0.209359455372786 120.509569693057 0.74601689925763 -119.905494975038 0.746016899257628 -119.905494975038 0.228111977889902 149.38503234785  
18.6                           0.228181652878595 115.057767759984 0.747709194560892 -127.353036098046 0.747709194560889 -127.353036098046 0.246737896208838 147.351481911914 
18.65                          0.243995902242669 108.932338292604 0.749029724341455 -134.770834009728 0.749029724341451 -134.770834009728 0.263217020853638 144.603241680996 
18.7                           0.256851677889732 102.284365305603 0.750099581658358 -142.174476950894 0.750099581658353 -142.174476950894 0.277359898947645 141.326813127107 
18.75                          0.26695169223994 95.2036823457691 0.750998477336976 -149.581342434744 0.750998477336972 -149.581342434743 0.28915345150316 137.635906368473 
18.8                           0.274621263951336 87.7459764584913 0.751763067451052 -157.009888959796 0.751763067451048 -157.009888959796 0.298707502113052 133.591917599037 
18.85                          0.280288527133398 79.9496193102955 0.752387801553882 -164.479076146396 0.752387801553879 -164.479076146396 0.306218080920256 129.216437171902 
18.9                           0.284469781202404 71.8473586551884 0.752827258222767 -172.007954680628 0.752827258222766 -172.007954680627 0.311941629961512 124.498504694812 
18.95                          0.287756132109807 63.4752216394379 0.752998894660892 -179.615445149933 0.752998894660892 -179.615445149932 0.316177299360641 119.398661648667 
19                             0.290798736116474 54.8793712092207 0.752785100220768 172.679699094176 0.752785100220769 172.679699094177 0.319256810327123 113.851369750623 
19.05                          0.29429126797629 46.1205279603416 0.752033423597085 164.858779669755 0.752033423597086 164.858779669755 0.321543232842703 107.767154761928 
19.1                           0.298949908456552 37.2747946883922 0.750553915065784 156.902965382644 0.750553915065784 156.902965382644 0.323441353425796 101.03587353558  
19.15                          0.30549274624903 28.4295383970133 0.748112822104735 148.793153510736 0.748112822104732 148.793153510736 0.325422440413592 93.5327675366493 
19.2                           0.314620890272755 19.6737561304303 0.744422585194242 140.51006542175  0.744422585194235 140.51006542175  0.328063920355056 85.1293962854189 
19.25                          0.327001445922455 11.0841517523754 0.739129421731333 132.034825088528 0.739129421731321 132.034825088527 0.332098024240124 75.7118144729647 
19.3                           0.34324751907431 2.71039784561296 0.731801957293543 123.350317086224 0.731801957293525 123.350317086223 0.338451418016617 65.2075079788797 
19.35                          0.363884734967432 -5.4354163454004 0.721927374318856 114.44361826823  0.721927374318834 114.443618268229 0.348241832743576 53.6189372404797 
19.4                           0.389292128561123 -13.3804694142232 0.708924862811779 105.309686522255 0.708924862811755 105.309686522255 0.362687514057119 41.0540386145455 
19.45                          0.419612697356249 -21.1818641145485 0.692188145771003 95.9561967564751 0.69218814577098 95.9561967564752 0.382900649568458 27.7362898570215 
19.5                           0.454646697782679 -28.908065178343 0.671166415763837 86.4088890401478 0.671166415763817 86.4088890401482 0.409591552841165 13.9791925623508 
19.55                          0.493763037166315 -36.6166821522568 0.64548244151602 76.7161031231439 0.645482441516008 76.7161031231444 0.442784379376825 0.129109669979214 
19.6                           0.535877734548998 -44.3358495327732 0.615066915508137 66.9506090494692 0.615066915508133 66.9506090494696 0.481675924060746 -13.4969765873436 
19.65                          0.579538611822552 -52.0551173906089 0.580266224403037 57.2069123314946 0.580266224403041 57.2069123314944 0.524716886195646 -26.6505001529945 
19.7                           0.623117203241356 -59.7279931175499 0.541872704649074 47.593331918193  0.541872704649082 47.5933319181917 0.569893879796659 -39.1595836015309 
19.75                          0.665058073675195 -67.2838942782885 0.501046908766268 38.2201217331543 0.501046908766277 38.2201217331517 0.615108505131846 -50.9183308648156 
19.8                           0.704104451862656 -74.6443109166917 0.459146403641859 29.1867122510857 0.459146403641866 29.1867122510817 0.658525603451047 -61.8717000598706 
19.85                          0.739430906457772 -81.7375959475055 0.417517832579435 20.5715886171711 0.417517832579435 20.5715886171657 0.698795828406459 -72.003064964424 
19.9                           0.770660338167061 -88.508712831333 0.377319655092243 12.4270813795463 0.377319655092234 12.4270813795396 0.73512257977394 -81.3249821658068 
19.95                          0.79779070488557 -94.9230353983288 0.339418635913991 4.77929897511809 0.339418635913974 4.77929897511077 0.767203540035778 -89.8716151308063 
20                             0.821079509704197 -100.9654158116  0.304365612265655 -2.36818541749338 0.304365612265631 -2.36818541750102 0.795105822073617 -97.6918726185569 
20.05                          0.840928761543102 -106.636564841609 0.272429177346206 -9.02884315505732 0.272429177346176 -9.02884315506473 0.819129355701832 -104.843254059899 
20.1                           0.857794385788557 -111.948573169807 0.243658037432007 -15.2275338910021 0.243658037431974 -15.2275338910089 0.839691805606556 -111.386749617968 
20.15                          0.872126395062241 -116.920741787352 0.217948404227499 -20.9956559156507 0.217948404227465 -20.9956559156564 0.857246830480173 -117.383025843236 
20.2                           0.88433574382892 -121.5762483869  0.195102789349208 -26.3674663204704 0.195102789349174 -26.3674663204749 0.872233834920762 -122.889877894885 
20.25                          0.894780199761721 -125.939746941765 0.174875080170007 -31.3775457302423 0.174875080169976 -31.3775457302453 0.885051712734911 -127.960748157546 
20.3                           0.903761925334986 -130.03578186392 0.157001958579312 -36.0592036822174 0.157001958579284 -36.0592036822191 0.896048475332966 -132.644042289346 
20.35                          0.911531298359815 -133.887827482057 0.14122303790185 -40.4435790401549 0.141223037901825 -40.4435790401553 0.905520235491907 -136.982985686131 
20.4                           0.918293428302585 -137.51776885587 0.127292635532668 -44.5592158846574 0.127292635532648 -44.5592158846566 0.913715035818838 -141.015812867531 
20.45                          0.924215323588537 -140.945674653609 0.114985796234105 -48.4319441317048 0.114985796234089 -48.4319441317031 0.920838720997411 -144.77613934286 
20.5                           0.929432664392758 -144.189752362842 0.104100601539621 -52.0849428487978 0.104100601539608 -52.0849428487956 0.927061268659772 -148.293415312195 
20.55                          0.93405573556834 -147.26641020856 0.0944582226059379 -55.5389041041296 0.094458222605929 -55.5389041041271 0.932522771371466 -151.593398486144 
20.6                           0.938174403297802 -150.190376110498 0.0859017011041827 -58.8122446373159 0.0859017011041769 -58.8122446373136 0.937338721574675 -154.698609833645 
20.65                          0.9418621813628  -152.974842389896 0.0782940931724563 -61.9213330559933 0.0782940931724531 -61.9213330559914 0.94160450328397 -157.628753494614 
20.7                           0.945179500520182 -155.63161733678 0.0715163685397548 -64.8807137881294 0.0715163685397533 -64.8807137881282 0.945399120747435 -160.401092948035 
20.75                          0.948176312140611 -158.171272821397 0.0654652953443098 -67.7033176607845 0.0654652953443097 -67.7033176607845 0.948788249190987 -163.030781924733 
20.8                           0.950894151019184 -160.603282231172 0.060051437350702 -70.4006543135903 0.0600514373507029 -70.4006543135914 0.951826709340263 -165.531152073256 
20.85                          0.953367766319779 -162.936146138795 0.0551973256588753 -72.9829848337939 0.0551973256588768 -72.9829848337964 0.954560464991338 -167.913961119122 
20.9                           0.955626411239804 -165.177504956613 0.0508358281440562 -75.4594748061617 0.0508358281440579 -75.4594748061655 0.957028232212617 -170.189605924307 
20.95                          0.957694864576506 -167.334238876856 0.0469087174983586 -77.8383289279472 0.0469087174983602 -77.8383289279523 0.959262775463629 -172.367304916085 
21                             0.959594242277591 -169.412555943871 0.0433654266816162 -80.1269087847139 0.0433654266816174 -80.1269087847202 0.961291952790682 -174.455254097099 
21.05                          0.961342644576089 -171.418069350853 0.0401619748088106 -82.3318355311685 0.0401619748088115 -82.3318355311759 0.96313956051218 -176.46076044295 
21.1                           0.962955674280333 -173.355865124204 0.037260044438171 -84.4590792048467 0.0372600444381714 -84.459079204855 0.964826017827445 -178.390356038561 
21.15                          0.964446853874426 -175.230561331066 0.0346261912691282 -86.5140362995117 0.0346261912691282 -86.5140362995208 0.966368923562897 179.750104145586 
21.2                           0.965827962905837 -177.046359867153 0.0322311684230914 -88.5015970862526 0.0322311684230908 -88.5015970862621 0.967783510626196 177.955358353635 
21.25                          0.967109312345919 -178.807091780934 0.0300493491666026 -90.426204019693 0.0300493491666017 -90.4262040197027 0.969083018433834 176.220665910238 
21.3                           0.968299968907971 179.483743016923 0.0280582337973423 -92.2919024182199 0.0280582337973411 -92.2919024182293 0.970278999372394 174.541745066719 
21.35                          0.969407939452398 177.822940914267 0.0262380282532924 -94.1023844673059 0.0262380282532909 -94.1023844673151 0.971381572034353 172.914719321564 
21.4                           0.97044032340615 176.207563980375 0.0245712837221017 -95.8610274664501 0.0245712837221002 -95.8610274664586 0.972399631354883 171.336070946855 
21.45                          0.971403439422659 174.634913010193 0.0230425880749451 -97.5709271235882 0.0230425880749435 -97.5709271235961 0.973341023717919 169.802600652884 
21.5                           0.972302931192081 173.102503745949 0.0216383013127968 -99.2349265957672 0.0216383013127951 -99.2349265957745 0.974212693478523 168.311392491752 
21.55                          0.973143856290157 171.608045859379 0.0203463283968871 -100.855641880737 0.0203463283968856 -100.855641880743 0.975020806069683 166.85978324217  
21.6                           0.973930761158796 170.149424335897 0.0191559238521446 -102.435484080264 0.0191559238521432 -102.435484080269 0.975770851850713 165.445335635963 
21.65                          0.974667744690199 168.72468295213  0.0180575233997516 -103.97667898169 0.0180575233997504 -103.976678981694 0.976467734053296 164.065814885773 
21.7                           0.97535851239915 167.332009581138 0.0170425986107384 -105.481284338897 0.0170425986107375 -105.4812843389  0.977115843544439 162.719168056327 
21.75                          0.9760064227844  165.969723096402 0.0161035311944514 -106.9512051768  0.0161035311944508 -106.951205176802 0.977719122617969 161.403505890981 
21.8                           0.976614527176743 164.636261677082 0.0152335040600825 -108.388207394094 0.0152335040600821 -108.388207394095 0.978281119620116 160.117086763412 
21.85                          0.977185604130405 163.330172343892 0.0144264067308152 -109.793929896527 0.0144264067308151 -109.793929896527 0.978805035888791 158.858302473168 
21.9                           0.97772218922223 162.050101577921 0.013676753061334 -111.169895456857 0.0136767530613342 -111.169895456857 0.979293766223603 157.625665644831 
21.95                          0.978226600969175 160.79478689435  0.0129796095215026 -112.517520467031 0.0129796095215031 -112.51752046703 0.979749933891427 156.417798525167 
22                             0.978700963450718 159.563049259865 0.0123305325714134 -113.838123722481 0.012330532571414 -113.83812372248 0.980175921000129 155.233423001818 
22.05                          0.979147226122686 158.353786256988 0.0117255138737553 -115.132934356936 0.0117255138737562 -115.132934356934 0.9805738949329  154.071351691816 
22.1                           0.979567181227682 157.165965910936 0.0111609322753234 -116.403099028276 0.0111609322753244 -116.403099028274 0.980945831421027 152.930479969124 
22.15                          0.979962479141033 155.998621105285 0.0106335116461769 -117.649688441169 0.0106335116461781 -117.649688441167 0.981293534739054 151.809778818237 
22.2                           0.980334641936919 154.850844521918 0.0101402837972174 -118.873703279873 0.0101402837972187 -118.873703279871 0.981618655428961 150.70828841599  
22.25                          0.980685075414706 153.721784048648 0.00967855580877197 -120.076079614451 0.00967855580877344 -120.076079614449 0.981922705896142 149.62511235668  
22.3                           0.981015079788677 152.610638604775 0.0092458811974554 -121.257693835136 0.00924588119745692 -121.257693835134 0.982207074167122 148.559412446654 
22.35                          0.981325859213819 151.516654340803 0.0088400344289077 -122.419367162539 0.00884003442890924 -122.419367162537 0.982473036054981 147.51040400401  
22.4                           0.981618530294876 150.439121173672 0.00845898835227076 -123.561869775467 0.00845898835227231 -123.561869775466 0.982721765941759 146.477351607172 
22.45                          0.981894129704688 149.377369623373 0.00810089419038836 -124.685924593147 0.00810089419038989 -124.685924593147 0.982954346356504 145.45956524316  
22.5                           0.982153621019984 148.330767920724 0.00776406376930127 -125.792210744402 0.00776406376930274 -125.792210744402 0.983171776501859 144.456396812377 
22.55                          0.982397900867831 147.298719359504 0.00744695371298388 -126.881366752749 0.00744695371298528 -126.881366752749 0.98337497986039 143.467236951988 
22.6                           0.982627804463267 146.280659869123 0.00714815136555857 -127.953993463256 0.00714815136555992 -127.953993463256 0.983564810993624 142.491512144518 
22.65                          0.982844110607925 145.276055786631 0.00686636223435301 -129.010656734323 0.00686636223435421 -129.010656734324 0.983742061631232 141.528682082175 
22.7                           0.983047546210325 144.284401809179 0.0066003987739204 -130.051889915201 0.00660039877392146 -130.051889915201 0.98390746613466 140.57823726089  
22.75                          0.983238790380703 143.305219110054 0.00634917035417833 -131.078196127994 0.00634917035417927 -131.078196127994 0.984061706408319 139.639696781007 
22.8                           0.983418478146624 142.338053603197 0.00611167427568889 -132.090050371099 0.00611167427568961 -132.0900503711  0.984205416321876 138.712606334173 
22.85                          0.983587203829865 141.382474342696 0.00588698771226715 -133.087901459389 0.00588698771226772 -133.08790145939 0.984339185699013 137.796536358261 
22.9                           0.983745524120154 140.438072045118 0.00567426047596171 -134.072173815031 0.00567426047596209 -134.072173815032 0.984463563921023 136.891080344165 
22.95                          0.983893960877085 139.504457723801 0.0054727085123244 -135.043269121541 0.00547270851232459 -135.043269121542 0.984579063187524 135.995853280029 
23                             0.98403300368785 138.581261425295 0.00528160804506821 -136.001567852519 0.0052816080450682 -136.001567852519 0.984686161471431 135.110490220062 
