! Touchstone file exported from HFSS 3D Layout Design 2026.1.0
!        File:           D:/Work/ADS/HFSS_VERDICT/hfss_sma_connector_cpw.aedt
!        Generated:      02:39:46 PM Aug  6, 2026
!        Design:         SINGLE_END_SMA_CPW_30MM
!        Project:        hfss_sma_connector_cpw
!
! Variables:
!        $sma_Base_D = 6.25mm
!        $sma_Base_L = 8mm
!        $sma_Feet_L = 4mm
!        $sma_Feet_W = 1mm
!        $sma_Front_L = 1.5mm
!        $sma_Front_W = 6.5mm
!        $sma_Hole_D = 1.25mm
!        $sma_PTFE_D = 4.2mm
!        $sma_Pin_D = 0.95mm
!        $sma_Pin_P = 1.7mm
!
# GHz S MA R 50.000000
! Terminal data exported
! Port[1] = Port1
! Port[2] = S1_1_Pin_T1
0.5                            0.0790505838351181 -132.411680799569 0.986832768424585 -41.7864365438059 0.986832768424585 -41.786436543806 0.0793826349512465 -132.985442021681 
0.6                            0.0918178006082325 -140.897582303695 0.98414156489686 -50.0360221612045 0.984141564896866 -50.0360221612048 0.0921216350522992 -141.377887851096 
0.7                            0.103182115652583 -149.364428082327 0.981509989789917 -58.2595947335641 0.981509989789923 -58.2595947335644 0.103417013804039 -149.620922811784 
0.8                            0.113023184898079 -157.845203712791 0.978984922500656 -66.4609321658936 0.97898492250066 -66.4609321658939 0.113154994418937 -157.717673688316 
0.9                            0.121243352807219 -166.369158675789 0.976606659595412 -74.6433076609119 0.976606659595414 -74.6433076609121 0.121246415040674 -165.662593791785 
1                              0.127769744684185 -174.965648499168 0.974410908246819 -82.809952212615 0.97441090824682 -82.8099522126151 0.127628367393474 -173.44298626089 
1.1                            0.132555612622268 176.333179546434 0.972426821403701 -90.9642895686641 0.972426821403701 -90.9642895686641 0.132265630063894 178.960755314659 
1.2                            0.135581423186646 167.490138729439 0.970674198475299 -99.109984288005 0.970674198475299 -99.1099842880049 0.135152010227367 171.575927484338 
1.3                            0.136856281788059 158.460693661731 0.969161168425466 -107.250867104683 0.969161168425466 -107.250867104683 0.136312096116779 164.43922442266  
1.4                            0.13642024524653 149.190184133732 0.967882802991057 -115.390790261918 0.967882802991057 -115.390790261918 0.135804022978912 157.599373660893 
1.5                            0.134348066525141 139.610205803393 0.966820738089716 -123.533450259979 0.966820738089715 -123.533450259979 0.133723887674086 151.120758223571 
1.6                            0.130755009601778 129.633784120083 0.965943739467703 -131.682203807877 0.965943739467703 -131.682203807876 0.13021251326853 145.088049888895 
1.7                            0.125805591428276 119.149071383647 0.965209100396982 -139.839894955422 0.965209100396982 -139.839894955422 0.125465381804287 139.611615890305 
1.8                            0.119726430913326 108.011713624797 0.964564744032165 -148.008706290636 0.964564744032165 -148.008706290636 0.119746618884918 134.832649533502 
1.9                            0.112824638958772 96.0373670616059 0.96395189456505 -156.190043638653 0.96395189456505 -156.190043638653 0.113407545455765 130.92495856089  
2                              0.105512706728847 82.9993918606631 0.963308169480887 -164.384461090392 0.963308169480887 -164.384461090392 0.106908472014463 128.086099469467 
2.1                            0.0983376972172704 68.6446446831048 0.962570928284016 -172.591630873013 0.962570928284017 -172.591630873013 0.100836898494433 126.503669220317 
2.2                            0.092002434332834 52.7530430363418 0.961680694044121 179.189639791329 0.961680694044122 179.189639791329 0.0959033508629138 126.277816359865 
2.3                            0.0873447229678694 35.2713466797131 0.960584448716603 170.961345263322 0.960584448716603 170.961345263322 0.0928805711274935 127.297491462382 
2.4                            0.0852187770062344 16.5025456191689 0.95923859801677 162.726174690331 0.95923859801677 162.726174690331 0.0924559154203584 129.132075325611 
2.5                            0.0862571911780823 -2.80445080263922 0.957611412420294 154.487367822466 0.957611412420294 154.487367822466 0.0950293345575407 131.071551496846 
2.6                            0.0906289834346321 -21.6707532491052 0.955684780856672 146.248541988987 0.955684780856673 146.248541988987 0.100581298425695 132.370009321378 
2.7                            0.0979968662790034 -39.3117761947378 0.953455162417995 138.013500797583 0.953455162417996 138.013500797583 0.108715970715237 132.519535457128 
2.8                            0.107705865785863 -55.3835331430612 0.950933684479762 129.786036302535 0.950933684479762 129.786036302535 0.118832736395866 131.342019677938 
2.9                            0.119022907631387 -69.9143648242624 0.94814540527936 121.56973655641  0.94814540527936 121.56973655641  0.130295121762768 128.903405932435 
3                              0.131283178660649 -83.1158939248103 0.94512782577789 113.367809577575 0.94512782577789 113.367809577575 0.142526935833554 125.384565388233 
3.1                            0.143937450899208 -95.2419391682732 0.941928790476063 105.182932957632 0.941928790476062 105.182932957632 0.155043948989285 120.991427657147 
3.2                            0.15654837045386 -106.523355641389 0.938603953026173 97.0171358603293 0.938603953026171 97.0171358603293 0.167452398817377 115.912435291788 
3.3                            0.168771360471989 -117.149641264723 0.935213996844395 88.8717173685285 0.935213996844393 88.8717173685285 0.179436443374605 110.305281809255 
3.4                            0.1803353268806  -127.270447410323 0.931821794253382 80.7472023726978 0.931821794253379 80.7472023726979 0.190744582225703 104.297008842684 
3.5                            0.191027268882805 -137.003056526426 0.928489664017368 72.6433337653247 0.928489664017365 72.6433337653247 0.201178219170281 97.9887154085536 
3.6                            0.200680865609247 -146.440285630942 0.925276852518554 64.5590978173409 0.925276852518552 64.5590978173409 0.210582772466585 91.4610577809367 
3.7                            0.209168149623752 -155.65712378578 0.922237324857805 56.4927783587315 0.922237324857802 56.4927783587316 0.21884092101844 84.7791793898881 
3.8                            0.216393414376345 -164.71587417421 0.919417914726129 48.4420347540285 0.919417914726127 48.4420347540286 0.225867486657339 77.996751152152  
3.9                            0.222288753397754 -173.670025953967 0.916856850341207 40.4039985615523 0.916856850341206 40.4039985615523 0.231605572421531 71.1591808864685 
4                              0.226810858695633 177.432836472942 0.914582650588086 32.3753840517153 0.914582650588085 32.3753840517153 0.236023719476266 64.3061539693367 
4.1                            0.229938868287395 168.548814083561 0.912613371510356 24.3526082760872 0.912613371510355 24.3526082760873 0.239113958209604 57.473668353068  
4.2                            0.231673155816509 159.635951514888 0.910956177832224 16.3319169750386 0.910956177832224 16.3319169750386 0.240890704137768 50.6956949358598 
4.3                            0.232035015900252 150.652818394597 0.909607215653854 8.30951316241473 0.909607215653854 8.30951316241473 0.241390490423514 44.0055537866527 
4.4                            0.231067231209617 141.557309149472 0.908551768698413 0.281685639590252 0.908551768698414 0.281685639590345 0.240672540230286 37.437054024598  
4.5                            0.228835519269023 132.305603139309 0.907764689109292 -7.75506508566465 0.907764689109293 -7.75506508566466 0.238820164468042 31.025398685204  
4.6                            0.225430849962802 122.851277752731 0.907211102396107 -15.8039059849567 0.907211102396109 -15.8039059849566 0.235942919300229 24.8078009327221 
4.7                            0.220972592368248 113.144633350164 0.906847392443662 -23.8675584840258 0.906847392443665 -23.8675584840257 0.232179362410164 18.8236890175011 
4.8                            0.215612374923092 103.13238483162  0.906622474533757 -31.9481962253051 0.906622474533759 -31.9481962253052 0.227700089915442 13.1142913054418 
4.9                            0.209538394265063 92.758015686615  0.906479360510573 -40.0473569915993 0.906479360510574 -40.0473569915993 0.222710494228095 7.72129505414146 
5                              0.202979634407194 81.9632856215009 0.906357009586623 -48.1658724955276 0.906357009586626 -48.1658724955276 0.21745233801881 2.68418963438526 
5.1                            0.196208992617389 70.6916123185191 0.906192440730388 -56.3038199093437 0.906192440730389 -56.3038199093437 0.212202800164827 -1.96409806296749 
5.2                            0.189543599393366 58.8942153714724 0.905923059076208 -64.4604988984347 0.905923059076209 -64.4604988984347 0.207269204844847 -6.20347094699786 
5.3                            0.183339721991351 46.5397726994918 0.905489121565735 -72.6344374257517 0.905489121565736 -72.6344374257516 0.202977436148569 -10.0344713338039 
5.4                            0.177978901607179 33.6274713657974 0.904836239488706 -80.8234286478437 0.904836239488706 -80.8234286478436 0.199652504889017 -13.4862727915717 
5.5                            0.173842248653167 20.2013140430831 0.903917792065501 -89.0245998191742 0.903917792065501 -89.0245998191742 0.197591379673024 -16.622271089506 
5.6                            0.171272373405154 6.36060971438562 0.902697110328741 -97.2345123274042 0.902697110328744 -97.2345123274041 0.197031148306547 -19.5399974109998 
5.7                            0.170527920245421 -7.74044368752381 0.901149288376315 -105.449289944001 0.901149288376316 -105.449289944001 0.198118933440328 -22.3629869018228 
5.8                            0.171742263683237 -21.9091643895885 0.899262492128682 -113.664770303711 0.899262492128684 -113.664770303711 0.200891694179777 -25.2251621044286 
5.9                            0.174900698402373 -35.944557961696 0.897038664266312 -121.876672771884 0.897038664266313 -121.876672771884 0.205272169427096 -28.25192032075  
6                              0.179845133085263 -49.6706871093691 0.894493565604071 -130.080774464074 0.894493565604072 -130.080774464074 0.211081993102228 -31.5439118571542 
6.1                            0.186303907761352 -62.9605396218158 0.891656142881846 -138.273085439899 0.891656142881848 -138.273085439899 0.218067299935038 -35.1680206287915 
6.2                            0.193934809281517 -75.7438409813638 0.88856726430633 -146.450014104942 0.888567264306328 -146.450014104942 0.225929169467472 -39.1565013900881 
6.3                            0.202367613202144 -88.0009354922784 0.885277910321434 -154.6085146114  0.885277910321432 -154.6085146114  0.234351972559047 -43.5121320974729 
6.4                            0.211237329761446 -99.7495394708334 0.881846942198338 -162.74620943331 0.881846942198337 -162.74620943331 0.2430255864438  -48.2161125585219 
6.5                            0.220205629083947 -111.030697255334 0.878338591433126 -170.861482106755 0.878338591433124 -170.861482106755 0.251660436329257 -53.2360143687873 
6.6                            0.22897205391566 -121.897430763722 0.874819817610482 -178.953537130622 0.87481981761048 -178.953537130622 0.259996234365877 -58.5322993225275 
6.7                            0.237278072466395 -132.40700687972 0.871357672909663 172.977574013825 0.871357672909662 172.977574013825 0.2678060297118  -64.0629648549024 
6.8                            0.244906825337301 -142.616360464991 0.868016791317031 164.930960034463 0.868016791317028 164.930960034463 0.274897174154081 -69.7864763106466 
6.9                            0.251680652789691 -152.579784334247 0.864857094401168 156.904928119546 0.864857094401165 156.904928119546 0.281110480737689 -75.6633741533766 
7                              0.257457735911596 -162.348059589041 0.86193177778064 148.897050291272 0.861931777780641 148.897050291272 0.286318476797781 -81.6569575919777 
7.1                            0.262128635362565 -171.968416291334 0.859285617023002 140.904254151984 0.859285617023004 140.904254151984 0.290423342356606 -87.7333712195386 
7.2                            0.265613162478604 178.515072419108 0.856953611324148 132.922934045813 0.856953611324148 132.922934045813 0.293354904992253 -93.8613295181449 
7.3                            0.267857812438951 169.060899492637 0.854959969271335 124.94907856201  0.854959969271337 124.94907856201  0.295068919965504 -100.011635913619 
7.4                            0.268833872183109 159.629467862543 0.853317433414138 116.978410322532 0.853317433414142 116.978410322532 0.295545776370436 -106.156596814254 
7.5                            0.268536247121877 150.182437748335 0.85202693840614 109.006534038677 0.852026938406143 109.006534038677 0.294789714129079 -112.269395846648 
7.6                            0.266983005501542 140.682113004373 0.851077599605852 101.029088824557 0.851077599605852 101.029088824557 0.292828594494906 -118.323475885902 
7.7                            0.264215602504806 131.090889631173 0.850447033291869 93.0419006793192 0.850447033291869 93.0419006793191 0.28971422383239 -124.291973325736 
7.8                            0.26029970816155 121.370792499067 0.850102013909746 85.0411308840732 0.850102013909742 85.0411308840733 0.285523175151386 -130.147258285489 
7.9                            0.255326516456962 111.483143036093 0.849999475862316 77.0234158195146 0.849999475862312 77.0234158195147 0.280357974836235 -135.860654898684 
8                              0.249414350226881 101.388431833797 0.850087865272014 68.9859934405017 0.850087865272013 68.9859934405018 0.274348416241225 -141.402446175697 
8.1                            0.242710288648537 91.0465175051842 0.850308839239104 60.9268114147719 0.850308839239102 60.9268114147721 0.267652623885015 -146.742304983144 
8.2                            0.235391420717733 80.4173365594467 0.850599295380416 52.8446118387401 0.850599295380413 52.8446118387405 0.260457324882069 -151.850328269495 
8.3                            0.22766515884625 69.4623811384282 0.850893692790955 44.7389875940006 0.850893692790953 44.7389875940008 0.252976603329033 -156.698868180644 
8.4                            0.219767829949118 58.1472578349844 0.851126598202113 36.6104059160413 0.851126598202112 36.6104059160415 0.245448256312247 -161.265319338929 
8.5                            0.211960523009181 46.4456266984278 0.851235360625162 28.4601957055124 0.851235360625161 28.4601957055125 0.238126810679782 -165.535889672648 
8.6                            0.204520999058318 34.3446401939697 0.851162788155196 20.2904965716384 0.851162788155196 20.2904965716382 0.231272417133924 -169.51010460478 
8.7                            0.197730548700466 21.8515405006581 0.850859676830548 12.104169536643  0.850859676830549 12.104169536643  0.225135362897953 -173.205361394738 
8.8                            0.191855302255287 9.00027625036429 0.850287028645954 3.90467164135066 0.850287028645955 3.90467164135031 0.219936944822486 -176.660357984157 
8.9                            0.187122926195205 -4.14395337616249 0.849417798266359 -4.30410082224981 0.849417798266359 -4.30410082225025 0.215848840969278 -179.935923065514 
9                              0.183697808803546 -17.4848607262161 0.848238027925311 -12.5179933333641 0.848238027925311 -12.5179933333645 0.212974485722138 176.887977366483 
9.1                            0.181659972757049 -30.9019008442375 0.846747266782939 -20.7327892990401 0.846747266782938 -20.7327892990407 0.211336548805112 173.719289436347 
9.2                            0.180993626344047 -44.2635094863243 0.844958220885613 -28.9444108809279 0.844958220885614 -28.944410880928 0.210873770548088 170.463745115591 
9.3                            0.181589327635144 -57.4435995738949 0.842895636399702 -37.1491135282443 0.842895636399704 -37.1491135282441 0.211448116898086 167.035150366061 
9.4                            0.183259598790152 -70.3364938328758 0.840594474167172 -45.3436636544096 0.840594474167176 -45.3436636544089 0.2128604178807  163.363528528406 
9.5                            0.185763621084846 -82.8662770828306 0.838097480277379 -53.5254901114132 0.838097480277387 -53.525490111412 0.214870674371644 159.399534588565 
9.6                            0.188834624917461 -94.9892156457441 0.835452289555073 -61.6928019352854 0.835452289555089 -61.6928019352837 0.217218863415608 155.115015979357 
9.7                            0.192204375782746 -106.690546429145 0.832708213922987 -69.8446669636096 0.832708213923005 -69.8446669636078 0.219643150342782 150.500728091701 
9.8                            0.195621599275089 -117.978207506252 0.829912866201916 -77.9810480458937 0.829912866201933 -77.9810480458918 0.221894084397199 145.562618260669 
9.9                            0.198863680007893 -128.875905441089 0.827108755780248 -86.1027954034774 0.827108755780265 -86.1027954034761 0.223744793596566 140.317884370774 
10                             0.201742575821862 -139.417026574219 0.82432997151154 -94.2115950591713 0.82432997151154 -94.2115950591713 0.224998003012283 134.791537461434 
