! Touchstone file exported from HFSS 3D Layout Design 2026.1.0
!        File:           D:/Work/ADS/HFSS_VERDICT/hfss_sma_connector_cpw.aedt
!        Generated:      02:05:48 PM Aug  6, 2026
!        Design:         SINGLE_END_SMA_CPW_30MM
!        Project:        hfss_sma_connector_cpw
!
! Variables:
!        $sma_Base_D = 6.25mm
!        $sma_Base_L = 8mm
!        $sma_Feet_L = 4mm
!        $sma_Feet_W = 1mm
!        $sma_Front_L = 1.5mm
!        $sma_Front_W = 6.5mm
!        $sma_Hole_D = 1.25mm
!        $sma_PTFE_D = 4.2mm
!        $sma_Pin_D = 0.95mm
!        $sma_Pin_P = 1.7mm
!
# GHz S MA R 50.000000
! Terminal data exported
! Port[1] = Port1
! Port[2] = S1_1_Pin_T1
0.5                            0.0720334388289286 -130.845205235797 0.98750590469845 -41.6314074454642 0.987505904698451 -41.6314074454642 0.0722664811152491 -134.396645236965 
0.6                            0.0836687408189145 -139.004264342084 0.985061813894821 -49.8553899797318 0.985061813894822 -49.8553899797315 0.0838615024239471 -143.115262746893 
0.7                            0.0940255656147583 -147.126597728654 0.982645145981944 -58.0576190403206 0.982645145981947 -58.0576190403202 0.0941353951446244 -151.699855282775 
0.8                            0.102991221831348 -155.241993067012 0.980307125916096 -66.2400829881421 0.980307125916099 -66.2400829881419 0.102983257861582 -160.158606592327 
0.9                            0.110472569986561 -163.375247562871 0.978092206822134 -74.4052231671721 0.978092206822137 -74.405223167172 0.110320385146446 -168.491971146194 
1                              0.116397758129008 -171.550075750272 0.976036503146141 -82.5558015050313 0.976036503146142 -82.5558015050313 0.116083158799539 -176.693848798329 
1.1                            0.120717147315356 -179.791640376214 0.9741670830215  -90.6948274253684 0.9741670830215  -90.6948274253684 0.120230327020461 175.248116105528 
1.2                            0.123403849354663 171.871470640858 0.97250122997965 -98.8254880760507 0.972501229979649 -98.8254880760507 0.122744216063403 167.352997818631 
1.3                            0.124454320502716 163.40528430866  0.971045764123005 -106.951057194994 0.971045764123004 -106.951057194994 0.123631938462533 159.647862195126 
1.4                            0.123889373705618 154.768068781943 0.969796662714348 -115.074780555655 0.969796662714347 -115.074780555655 0.122926905027911 152.169983314997 
1.5                            0.121755935733938 145.907103586915 0.968739148956538 -123.199746261017 0.968739148956537 -123.199746261017 0.120691069955774 144.970249760622 
1.6                            0.118129933191219 136.754036723659 0.967848322167959 -131.328751210795 0.967848322167959 -131.328751210795 0.117018460058795 138.118157484463 
1.7                            0.113120882101934 127.218051119254 0.967090329832978 -139.464174796368 0.967090329832978 -139.464174796368 0.112040750805345 131.708954759077 
1.8                            0.106879146998232 117.175752102202 0.966424033429202 -147.607869363882 0.966424033429202 -147.607869363882 0.105936031308303 125.873590268412 
1.9                            0.0996075376865891 106.456422117549 0.965803087051515 -155.761075116414 0.965803087051515 -155.761075116414 0.0989424937896854 120.791762566796 
2                              0.0915800396230898 94.8216784547449 0.965178323397395 -163.924365187477 0.965178323397396 -163.924365187477 0.0913794542618542 116.706491013253 
2.1                            0.0831718581611532 81.9417919354572 0.964500321936676 -172.097624643629 0.964500321936677 -172.097624643629 0.0836779684380855 113.932339769845 
2.2                            0.0749048882959067 67.3835144787155 0.963722018628918 179.719934872566 0.963722018628918 179.719934872566 0.0764190407830602 112.832862684182 
2.3                            0.0675038572048371 50.660475461618  0.962801207180711 171.529725280741 0.962801207180711 171.529725280741 0.0703604302304252 113.712375940096 
2.4                            0.0619208535697779 31.4610321836694 0.961702781356467 163.333699574438 0.961702781356467 163.333699574438 0.0663934386164445 116.557491107036 
2.5                            0.0592067518178845 10.1365727656556 0.960400578819175 155.134241390484 0.960400578819174 155.134241390484 0.0653400966899305 120.709998179462 
2.6                            0.060111551580942 -11.9269571495524 0.95887871060106 146.934033163013 0.95887871060106 146.934033163013 0.067610464028887 124.881756455744 
2.7                            0.0646462787477041 -32.8758176386802 0.957132295760225 138.735910794366 0.957132295760224 138.735910794366 0.0729963106736553 127.778290237939 
2.8                            0.0721177912150438 -51.5358924537594 0.955167565007893 130.542713577136 0.955167565007892 130.542713577136 0.0808293272676264 128.729963092279 
2.9                            0.0815772909323193 -67.7436031615327 0.953001345202012 122.357138197366 0.953001345202013 122.357138197366 0.0903118016729016 127.717084366536 
3                              0.0921740824379043 -81.880997511276 0.950659982778333 114.181605024731 0.950659982778334 114.181605024731 0.100734096250586 125.044352449562 
3.1                            0.10325695844422 -94.4351458540879 0.948177802839255 106.01814363431  0.948177802839255 106.01814363431  0.111535974267368 121.079700029892 
3.2                            0.11434952571062 -105.819780898787 0.94559522747763 97.8683027714666 0.94559522747763 97.8683027714666 0.122292114757745 116.14393717393  
3.3                            0.125102183464754 -116.345469298176 0.942956689780443 89.7330879825692 0.942956689780445 89.7330879825692 0.13268076621593 110.487301592737 
3.4                            0.135253741269621 -126.236823044619 0.940308478935593 81.6129281174018 0.940308478935593 81.6129281174018 0.142456647505355 104.297464343223 
3.5                            0.144605856039798 -135.656155876089 0.937696639058624 73.5076700658645 0.937696639058624 73.5076700658645 0.151431580815463 97.7141491042977 
3.6                            0.153006768555878 -144.722770935931 0.935165023207684 65.4165995700511 0.935165023207684 65.4165995700511 0.159461390054944 90.842330324989  
3.7                            0.160340890580007 -153.526764884032 0.932753578526219 57.3384848349744 0.93275357852622 57.3384848349744 0.166437072368954 83.7623884324289 
3.8                            0.166521946697829 -162.138520407454 0.930496912270875 49.2716389641612 0.930496912270875 49.2716389641613 0.172278752883756 76.537530391294  
3.9                            0.171488309018846 -170.615206318137 0.928423164599925 41.2139969348028 0.928423164599925 41.2139969348029 0.176931473509306 69.2191612111218 
4                              0.175199755558462 -179.005297245041 0.926553194332019 33.1632028315049 0.926553194332019 33.1632028315049 0.180362252568381 61.850823742229  
4.1                            0.177635230872443 172.648185691964 0.924900069303346 25.1167032927253 0.924900069303346 25.1167032927253 0.182558095377986 54.4711724309397 
4.2                            0.178791386046962 164.305239578588 0.923468843439464 17.0718435044198 0.923468843439464 17.0718435044198 0.183524781785088 47.116311973142  
4.3                            0.178681788587014 155.926927055485 0.922256597575285 9.02596252648892 0.922256597575284 9.02596252648892 0.183286342709277 39.8217311879009 
4.4                            0.17733676006224 147.473679615708 0.921252719403146 0.976485200383147 0.921252719403146 0.976485200383146 0.18188518920069 32.6239897685191 
4.5                            0.174803843734519 138.903690944882 0.920439398568894 -7.07899168128881 0.920439398568894 -7.07899168128881 0.179382889471815 25.5622593153642 
4.6                            0.171148939548167 130.171275915251 0.919792314756048 -15.1426208866567 0.919792314756048 -15.1426208866568 0.175861608991287 18.6797670861707 
4.7                            0.166458177371457 121.225108249598 0.919281498598747 -23.2162355761477 0.919281498598746 -23.2162355761477 0.171426235717375 12.0251254459895 
4.8                            0.160840632943546 112.006302755262 0.918872346600629 -31.3012908592089 0.918872346600628 -31.3012908592089 0.166207196905628 5.6534308505557  
4.9                            0.154432017029637 102.446408311378 0.918526771239181 -39.3988173138297 0.918526771239179 -39.3988173138298 0.160363910480946 -0.373145909212624 
5                              0.147399460224426 92.4655814905901 0.918204465628405 -47.5093875851976 0.918204465628403 -47.5093875851976 0.154088653224127 -5.98581709009619 
5.1                            0.139947407300654 81.9716118217411 0.9178642582585  -55.6330970763086 0.917864258258498 -55.6330970763086 0.147610286314171 -11.1116055156217 
5.2                            0.132324283186865 70.8612012024687 0.917465527491558 -63.7695596193756 0.917465527491554 -63.7695596193757 0.141196641868006 -15.6791275221857 
5.3                            0.124828733476058 59.0260655369339 0.916969638100313 -71.9179188283525 0.91696963810031 -71.9179188283525 0.135153355354455 -19.6294147371339 
5.4                            0.117812502132343 46.3678187648398 0.916341354043   -80.0768755366369 0.916341354042998 -80.0768755366369 0.129815660611797 -22.9329504437517 
5.5                            0.11167419384604 32.8259929336537 0.915550174119146 -88.2447312872734 0.915550174119145 -88.2447312872734 0.125528880109852 -25.6117109487135 
5.6                            0.106835249637154 18.4197921013102 0.914571531674432 -96.4194472537877 0.914571531674429 -96.4194472537878 0.122614707195205 -27.7600389766307 
5.7                            0.103690222393444 3.29229678432727 0.91338779769502 -104.598717245498 0.913387797695017 -104.598717245498 0.121325799915521 -29.5525296229214 
5.8                            0.102534038571939 -12.271377241697 0.911989029771947 -112.780052642025 0.911989029771943 -112.780052642025 0.121800065959349 -31.2269461280938 
5.9                            0.103489715737196 -27.8832801916802 0.910373418258164 -120.960876287389 0.910373418258162 -120.960876287389 0.124032275548917 -33.0413453358869 
6                              0.106473865841216 -43.1470191309358 0.908547395376298 -129.138621652479 0.908547395376293 -129.138621652479 0.127876279135544 -35.2218854021922 
6.1                            0.111221452795498 -57.7571364706884 0.906525392009392 -137.31083304493 0.906525392009388 -137.31083304493 0.133076477722355 -37.9249543056588 
6.2                            0.117354034346832 -71.5484545713144 0.90432924852272 -145.475262389156 0.904329248522717 -145.475262389156 0.139313803349257 -41.2264326418309 
6.3                            0.12445451531532 -84.4852384799483 0.901987307783302 -153.62995816365 0.901987307783299 -153.62995816365 0.146249311305964 -45.1337615448462 
6.4                            0.132121490207782 -96.6188210516543 0.899533238026429 -161.773342470926 0.899533238026425 -161.773342470926 0.153555677641958 -49.607984588884 
6.5                            0.139997479808759 -108.044311646636 0.897004648191507 -169.904272886266 0.897004648191505 -169.904272886266 0.1609352189755  -54.5850200269311 
6.6                            0.14777794667546 -118.870294659399 0.894441567389591 -178.022086607141 0.894441567389589 -178.022086607141 0.168127584407662 -59.9913064065738 
6.7                            0.155209955323358 -129.202175502214 0.891884862805052 173.873374592867 0.89188486280505 173.873374592867 0.174911122820247 -65.7533717037475 
6.8                            0.162086714951636 -139.135024434787 0.889374667064352 165.781759115396 0.889374667064352 165.781759115397 0.181101043606678 -71.8027367311705 
6.9                            0.168241318828087 -148.751774746438 0.886948878185212 157.70221960104  0.886948878185209 157.70221960104  0.186546313176949 -78.0778080940611 
7                              0.173541091903065 -158.123987628988 0.884641784371189 149.633445156603 0.884641784371189 149.633445156603 0.191126337153126 -84.5240445972977 
7.1                            0.177882987241945 -167.313624845971 0.8824828539749  141.573710019105 0.882482853974899 141.573710019105 0.194747939181312 -91.0932291375196 
7.2                            0.181190060147346 -176.375064013999 0.880495719559784 133.520936530429 0.880495719559782 133.520936530429 0.197342865477102 -97.7423286357549 
7.3                            0.183408912223975 174.642968692541 0.878697375368958 125.472770050955 0.878697375368952 125.472770050955 0.198865912198728 -104.432198408546 
7.4                            0.184507977005877 165.695652292973 0.877097600347353 117.426663306706 0.87709760034735 117.426663306706 0.199293714615509 -111.126256018481 
7.5                            0.184476537997519 156.740513326249 0.875698614288642 109.379967593091 0.87569861428864 109.379967593091 0.19862420810814 -117.789180745405 
7.6                            0.183324396858818 147.73601842719  0.874494972311488 101.330028201815 0.874494972311484 101.330028201815 0.196876747839892 -124.38566495994 
7.7                            0.181082132186813 138.64026973215  0.873473701923306 93.2742813581369 0.873473701923304 93.2742813581369 0.194092845426438 -130.879239251247 
7.8                            0.177801904329265 129.409765184546 0.872614686335653 85.2103498319889 0.872614686335652 85.210349831989  0.190337442485866 -137.231208427488 
7.9                            0.173558767279782 119.998212004742 0.871891296250553 77.1361342169396 0.871891296250549 77.1361342169397 0.185700590298859 -143.399770821087 
8                              0.168452441318712 110.355430956781 0.871271268863257 69.0498966767731 0.871271268863255 69.0498966767732 0.180299338575924 -149.339453837394 
8.1                            0.162609470124453 100.426476295843 0.870717826346089 60.9503337831972 0.870717826346087 60.9503337831973 0.174279546331127 -155.001092539414 
8.2                            0.156185612808518 90.1512446655141 0.870191015999129 52.8366349712696 0.870191015999128 52.8366349712696 0.167817197452038 -160.332711645709 
8.3                            0.14936816581363 79.4650839303464 0.869649240554651 44.7085231944073 0.86964924055465 44.7085231944072 0.161118606878994 -165.281836688986 
8.4                            0.142377609550711 68.3012552814163 0.869050930497294 36.5662746425053 0.869050930497295 36.5662746425052 0.154418615355935 -169.799907758887 
8.5                            0.135467453595354 56.5964985023661 0.868356292186729 28.4107149565947 0.868356292186729 28.4107149565947 0.147975502970243 -173.849463243895 
8.6                            0.128920378280301 44.3011707618352 0.867529048236987 20.2431902662747 0.867529048236989 20.2431902662745 0.142061029239098 -177.414337965955 
8.7                            0.123037907147475 31.3949051503544 0.866538072694047 12.0655125852673 0.866538072694047 12.0655125852673 0.136944073494307 179.488059158327 
8.8                            0.118120542242037 17.9065622413077 0.865358815818066 3.87988056911684 0.865358815818067 3.87988056911666 0.13286738289589 176.795363829195 
8.9                            0.114436850881304 3.93290044080447 0.863974414030596 -4.31122174081722 0.863974414030597 -4.31122174081732 0.130019428377911 174.39490104555  
9                              0.112184686040181 -10.3544386634053 0.862376391148342 -12.5051439406755 0.862376391148344 -12.5051439406757 0.128506906189868 172.129782642227 
9.1                            0.111454659471693 -24.724145695908 0.860564877296696 -20.6992003543772 0.860564877296696 -20.6992003543772 0.128335976611471 169.818312581052 
9.2                            0.112210226360908 -38.9236773308771 0.858548300203377 -28.8908063677795 0.858548300203377 -28.8908063677796 0.129409169591041 167.281896185796 
9.3                            0.114294344862125 -52.7269640392464 0.856342536851245 -37.0776125176976 0.856342536851242 -37.0776125176976 0.13153940869648 164.371565990666 
9.4                            0.117460479294495 -65.9705525005879 0.853969547800662 -45.2576287007631 0.853969547800661 -45.257628700763 0.134476011445293 160.984197643709 
9.5                            0.121414974354596 -78.5658514181483 0.85145554787252 -53.429331229099 0.85145554787252 -53.4293312290986 0.137934223373243 157.065595717429 
9.6                            0.125856340447026 -90.4900889802762 0.848828792046967 -61.5917462455473 0.848828792046969 -61.5917462455466 0.141621239694593 152.60370791524  
9.7                            0.130503173950216 -101.766938257729 0.846117072520649 -69.7445040826329 0.846117072520648 -69.7445040826322 0.145255553184763 147.617553231106 
9.8                            0.135109598208431 -112.446772020905 0.84334503177598 -77.8878603448054 0.843345031775978 -77.8878603448049 0.148579908536388 142.146339727994 
9.9                            0.139471099929699 -122.591527916715 0.84053139888342 -86.0226806619189 0.840531398883423 -86.0226806619185 0.151369784953596 136.24095446796  
10                             0.143424438533394 -132.265045925602 0.837686255064069 -94.1503870963536 0.837686255064067 -94.1503870963536 0.153439375724361 129.958182010626 
