! markimicrowave.com
! Date: Thu Jul 30 2026 10:00:21 GMT+0800 (中国标准时间)
# Hz S DB R 50.00
!Frequency        S11 dB       S11 Deg       S21 dB      S21 Deg      S12 dB      S12 Deg      S22 dB       S22 Deg      
675000000.00000    -0.00000    174.00748    -65.69955    84.00748    -65.69955    84.00748    -0.00000    174.00748
676574453.77367    -0.00000    173.99333    -65.67879    83.99333    -65.67879    83.99333    -0.00000    173.99333
678152579.99873    -0.00000    173.97915    -65.65803    83.97915    -65.65803    83.97915    -0.00000    173.97915
679734387.24126    -0.00000    173.96493    -65.63726    83.96493    -65.63726    83.96493    -0.00000    173.96493
681319884.08731    -0.00000    173.95068    -65.61650    83.95068    -65.61650    83.95068    -0.00000    173.95068
682909079.14299    -0.00000    173.93639    -65.59573    83.93639    -65.59573    83.93639    -0.00000    173.93639
684501981.03444    -0.00000    173.92207    -65.57495    83.92207    -65.57495    83.92207    -0.00000    173.92207
686098598.40796    -0.00000    173.90771    -65.55418    83.90771    -65.55418    83.90771    -0.00000    173.90771
687698939.93000    -0.00000    173.89332    -65.53340    83.89332    -65.53340    83.89332    -0.00000    173.89332
689303014.28722    -0.00000    173.87889    -65.51262    83.87889    -65.51262    83.87889    -0.00000    173.87889
690910830.18655    -0.00000    173.86443    -65.49184    83.86443    -65.49184    83.86443    -0.00000    173.86443
692522396.35523    -0.00000    173.84994    -65.47105    83.84994    -65.47105    83.84994    -0.00000    173.84994
694137721.54085    -0.00000    173.83541    -65.45026    83.83541    -65.45026    83.83541    -0.00000    173.83541
695756814.51141    -0.00000    173.82084    -65.42947    83.82084    -65.42947    83.82084    -0.00000    173.82084
697379684.05536    -0.00000    173.80624    -65.40868    83.80624    -65.40868    83.80624    -0.00000    173.80624
699006338.98165    -0.00000    173.79160    -65.38788    83.79160    -65.38788    83.79160    -0.00000    173.79160
700636788.11977    -0.00000    173.77693    -65.36708    83.77693    -65.36708    83.77693    -0.00000    173.77693
702271040.31981    -0.00000    173.76222    -65.34628    83.76222    -65.34628    83.76222    -0.00000    173.76222
703909104.45251    -0.00000    173.74748    -65.32547    83.74748    -65.32547    83.74748    -0.00000    173.74748
705550989.40930    -0.00000    173.73270    -65.30467    83.73270    -65.30467    83.73270    -0.00000    173.73270
707196704.10232    -0.00000    173.71788    -65.28386    83.71788    -65.28386    83.71788    -0.00000    173.71788
708846257.46455    -0.00000    173.70303    -65.26304    83.70303    -65.26304    83.70303    -0.00000    173.70303
710499658.44976    -0.00000    173.68814    -65.24223    83.68814    -65.24223    83.68814    -0.00000    173.68814
712156916.03264    -0.00000    173.67322    -65.22141    83.67322    -65.22141    83.67322    -0.00000    173.67322
713818039.20878    -0.00000    173.65826    -65.20059    83.65826    -65.20059    83.65826    -0.00000    173.65826
715483036.99477    -0.00000    173.64326    -65.17976    83.64326    -65.17976    83.64326    -0.00000    173.64326
717151918.42825    -0.00000    173.62823    -65.15894    83.62823    -65.15894    83.62823    -0.00000    173.62823
718824692.56790    -0.00000    173.61316    -65.13811    83.61316    -65.13811    83.61316    -0.00000    173.61316
720501368.49356    -0.00000    173.59805    -65.11728    83.59805    -65.11728    83.59805    -0.00000    173.59805
722181955.30625    -0.00000    173.58291    -65.09644    83.58291    -65.09644    83.58291    -0.00000    173.58291
723866462.12819    -0.00000    173.56773    -65.07560    83.56773    -65.07560    83.56773    -0.00000    173.56773
725554898.10291    -0.00000    173.55252    -65.05476    83.55252    -65.05476    83.55252    -0.00000    173.55252
727247272.39524    -0.00000    173.53726    -65.03392    83.53726    -65.03392    83.53726    -0.00000    173.53726
728943594.19141    -0.00000    173.52197    -65.01307    83.52197    -65.01307    83.52197    -0.00000    173.52197
730643872.69907    -0.00000    173.50665    -64.99222    83.50665    -64.99222    83.50665    -0.00000    173.50665
732348117.14734    -0.00000    173.49128    -64.97137    83.49128    -64.97137    83.49128    -0.00000    173.49128
734056336.78687    -0.00000    173.47588    -64.95051    83.47588    -64.95051    83.47588    -0.00000    173.47588
735768540.88990    -0.00000    173.46044    -64.92965    83.46044    -64.92965    83.46044    -0.00000    173.46044
737484738.75027    -0.00000    173.44496    -64.90879    83.44496    -64.90879    83.44496    -0.00000    173.44496
739204939.68354    -0.00000    173.42945    -64.88792    83.42945    -64.88792    83.42945    -0.00000    173.42945
740929153.02695    -0.00000    173.41389    -64.86705    83.41389    -64.86705    83.41389    -0.00000    173.41389
742657388.13955    -0.00000    173.39830    -64.84618    83.39830    -64.84618    83.39830    -0.00000    173.39830
744389654.40222    -0.00000    173.38267    -64.82531    83.38267    -64.82531    83.38267    -0.00000    173.38267
746125961.21771    -0.00000    173.36701    -64.80443    83.36701    -64.80443    83.36701    -0.00000    173.36701
747866318.01071    -0.00000    173.35130    -64.78355    83.35130    -64.78355    83.35130    -0.00000    173.35130
749610734.22789    -0.00000    173.33556    -64.76267    83.33556    -64.76267    83.33556    -0.00000    173.33556
751359219.33795    -0.00000    173.31978    -64.74178    83.31978    -64.74178    83.31978    -0.00000    173.31978
753111782.83168    -0.00000    173.30396    -64.72089    83.30396    -64.72089    83.30396    -0.00000    173.30396
754868434.22202    -0.00000    173.28810    -64.70000    83.28810    -64.70000    83.28810    -0.00000    173.28810
756629183.04408    -0.00000    173.27220    -64.67910    83.27220    -64.67910    83.27220    -0.00000    173.27220
758394038.85521    -0.00000    173.25627    -64.65820    83.25627    -64.65820    83.25627    -0.00000    173.25627
760163011.23507    -0.00000    173.24029    -64.63730    83.24029    -64.63730    83.24029    -0.00000    173.24029
761936109.78565    -0.00000    173.22428    -64.61640    83.22428    -64.61640    83.22428    -0.00000    173.22428
763713344.13136    -0.00000    173.20822    -64.59549    83.20822    -64.59549    83.20822    -0.00000    173.20822
765494723.91902    -0.00000    173.19213    -64.57457    83.19213    -64.57457    83.19213    -0.00000    173.19213
767280258.81799    -0.00000    173.17600    -64.55366    83.17600    -64.55366    83.17600    -0.00000    173.17600
769069958.52015    -0.00000    173.15983    -64.53274    83.15983    -64.53274    83.15983    -0.00000    173.15983
770863832.74002    -0.00000    173.14362    -64.51182    83.14362    -64.51182    83.14362    -0.00000    173.14362
772661891.21475    -0.00000    173.12737    -64.49089    83.12737    -64.49089    83.12737    -0.00000    173.12737
774464143.70423    -0.00000    173.11108    -64.46996    83.11108    -64.46996    83.11108    -0.00000    173.11108
776270599.99108    -0.00000    173.09475    -64.44903    83.09475    -64.44903    83.09475    -0.00000    173.09475
778081269.88079    -0.00000    173.07838    -64.42810    83.07838    -64.42810    83.07838    -0.00000    173.07838
779896163.20166    -0.00000    173.06197    -64.40716    83.06197    -64.40716    83.06197    -0.00000    173.06197
781715289.80495    -0.00000    173.04552    -64.38621    83.04552    -64.38621    83.04552    -0.00000    173.04552
783538659.56491    -0.00000    173.02902    -64.36527    83.02902    -64.36527    83.02902    -0.00000    173.02902
785366282.37879    -0.00000    173.01249    -64.34432    83.01249    -64.34432    83.01249    -0.00000    173.01249
787198168.16695    -0.00000    172.99592    -64.32337    82.99592    -64.32337    82.99592    -0.00000    172.99592
789034326.87288    -0.00000    172.97931    -64.30241    82.97931    -64.30241    82.97931    -0.00000    172.97931
790874768.46325    -0.00000    172.96266    -64.28145    82.96266    -64.28145    82.96266    -0.00000    172.96266
792719502.92800    -0.00000    172.94596    -64.26049    82.94596    -64.26049    82.94596    -0.00000    172.94596
794568540.28037    -0.00000    172.92923    -64.23952    82.92923    -64.23952    82.92923    -0.00000    172.92923
796421890.55694    -0.00000    172.91245    -64.21855    82.91245    -64.21855    82.91245    -0.00000    172.91245
798279563.81772    -0.00000    172.89564    -64.19758    82.89564    -64.19758    82.89564    -0.00000    172.89564
800141570.14616    -0.00000    172.87878    -64.17660    82.87878    -64.17660    82.87878    -0.00000    172.87878
802007919.64926    -0.00000    172.86188    -64.15562    82.86188    -64.15562    82.86188    -0.00000    172.86188
803878622.45757    -0.00000    172.84494    -64.13464    82.84494    -64.13464    82.84494    -0.00000    172.84494
805753688.72527    -0.00000    172.82796    -64.11365    82.82796    -64.11365    82.82796    -0.00000    172.82796
807633128.63026    -0.00000    172.81093    -64.09266    82.81093    -64.09266    82.81093    -0.00000    172.81093
809516952.37413    -0.00000    172.79387    -64.07166    82.79387    -64.07166    82.79387    -0.00000    172.79387
811405170.18230    -0.00000    172.77676    -64.05066    82.77676    -64.05066    82.77676    -0.00000    172.77676
813297792.30404    -0.00000    172.75961    -64.02966    82.75961    -64.02966    82.75961    -0.00000    172.75961
815194829.01251    -0.00000    172.74242    -64.00865    82.74242    -64.00865    82.74242    -0.00000    172.74242
817096290.60483    -0.00000    172.72518    -63.98764    82.72518    -63.98764    82.72518    -0.00000    172.72518
819002187.40215    -0.00000    172.70791    -63.96663    82.70791    -63.96663    82.70791    -0.00000    172.70791
820912529.74971    -0.00000    172.69059    -63.94561    82.69059    -63.94561    82.69059    -0.00000    172.69059
822827328.01685    -0.00000    172.67323    -63.92459    82.67323    -63.92459    82.67323    -0.00000    172.67323
824746592.59712    -0.00000    172.65582    -63.90356    82.65582    -63.90356    82.65582    -0.00000    172.65582
826670333.90829    -0.00000    172.63837    -63.88253    82.63837    -63.88253    82.63837    -0.00000    172.63837
828598562.39244    -0.00000    172.62088    -63.86150    82.62088    -63.86150    82.62088    -0.00000    172.62088
830531288.51602    -0.00000    172.60335    -63.84046    82.60335    -63.84046    82.60335    -0.00000    172.60335
832468522.76989    -0.00000    172.58577    -63.81942    82.58577    -63.81942    82.58577    -0.00000    172.58577
834410275.66935    -0.00000    172.56815    -63.79838    82.56815    -63.79838    82.56815    -0.00000    172.56815
836356557.75427    -0.00000    172.55049    -63.77733    82.55049    -63.77733    82.55049    -0.00000    172.55049
838307379.58907    -0.00000    172.53278    -63.75628    82.53278    -63.75628    82.53278    -0.00000    172.53278
840262751.76284    -0.00000    172.51503    -63.73522    82.51503    -63.73522    82.51503    -0.00000    172.51503
842222684.88934    -0.00000    172.49724    -63.71416    82.49724    -63.71416    82.49724    -0.00000    172.49724
844187189.60711    -0.00000    172.47940    -63.69309    82.47940    -63.69309    82.47940    -0.00000    172.47940
846156276.57950    -0.00000    172.46152    -63.67202    82.46152    -63.67202    82.46152    -0.00000    172.46152
848129956.49473    -0.00000    172.44359    -63.65095    82.44359    -63.65095    82.44359    -0.00000    172.44359
850108240.06594    -0.00000    172.42562    -63.62987    82.42562    -63.62987    82.42562    -0.00000    172.42562
852091138.03128    -0.00000    172.40760    -63.60879    82.40760    -63.60879    82.40760    -0.00000    172.40760
854078661.15393    -0.00000    172.38954    -63.58771    82.38954    -63.58771    82.38954    -0.00000    172.38954
856070820.22217    -0.00000    172.37144    -63.56662    82.37144    -63.56662    82.37144    -0.00000    172.37144
858067626.04948    -0.00000    172.35329    -63.54552    82.35329    -63.54552    82.35329    -0.00000    172.35329
860069089.47451    -0.00000    172.33510    -63.52443    82.33510    -63.52443    82.33510    -0.00000    172.33510
862075221.36125    -0.00000    172.31686    -63.50333    82.31686    -63.50333    82.31686    -0.00000    172.31686
864086032.59897    -0.00000    172.29857    -63.48222    82.29857    -63.48222    82.29857    -0.00000    172.29857
866101534.10238    -0.00000    172.28024    -63.46111    82.28024    -63.46111    82.28024    -0.00000    172.28024
868121736.81164    -0.00000    172.26187    -63.43999    82.26187    -63.43999    82.26187    -0.00000    172.26187
870146651.69242    -0.00000    172.24345    -63.41888    82.24345    -63.41888    82.24345    -0.00000    172.24345
872176289.73599    -0.00000    172.22498    -63.39775    82.22498    -63.39775    82.22498    -0.00000    172.22498
874210661.95922    -0.00000    172.20647    -63.37662    82.20647    -63.37662    82.20647    -0.00000    172.20647
876249779.40472    -0.00000    172.18791    -63.35549    82.18791    -63.35549    82.18791    -0.00000    172.18791
878293653.14081    -0.00000    172.16931    -63.33436    82.16931    -63.33436    82.16931    -0.00000    172.16931
880342294.26167    -0.00000    172.15066    -63.31322    82.15066    -63.31322    82.15066    -0.00000    172.15066
882395713.88733    -0.00000    172.13197    -63.29207    82.13197    -63.29207    82.13197    -0.00000    172.13197
884453923.16378    -0.00000    172.11322    -63.27092    82.11322    -63.27092    82.11322    -0.00000    172.11322
886516933.26299    -0.00000    172.09443    -63.24977    82.09443    -63.24977    82.09443    -0.00000    172.09443
888584755.38299    -0.00000    172.07560    -63.22861    82.07560    -63.22861    82.07560    -0.00000    172.07560
890657400.74794    -0.00000    172.05672    -63.20744    82.05672    -63.20744    82.05672    -0.00000    172.05672
892734880.60817    -0.00000    172.03779    -63.18628    82.03779    -63.18628    82.03779    -0.00000    172.03779
894817206.24027    -0.00000    172.01881    -63.16510    82.01881    -63.16510    82.01881    -0.00000    172.01881
896904388.94710    -0.00000    171.99979    -63.14393    81.99979    -63.14393    81.99979    -0.00000    171.99979
898996440.05792    -0.00000    171.98072    -63.12275    81.98072    -63.12275    81.98072    -0.00000    171.98072
901093370.92839    -0.00000    171.96160    -63.10156    81.96160    -63.10156    81.96160    -0.00000    171.96160
903195192.94067    -0.00000    171.94243    -63.08037    81.94243    -63.08037    81.94243    -0.00000    171.94243
905301917.50347    -0.00000    171.92322    -63.05917    81.92322    -63.05917    81.92322    -0.00000    171.92322
907413556.05210    -0.00000    171.90396    -63.03797    81.90396    -63.03797    81.90396    -0.00000    171.90396
909530120.04856    -0.00000    171.88465    -63.01677    81.88465    -63.01677    81.88465    -0.00000    171.88465
911651620.98156    -0.00000    171.86529    -62.99556    81.86529    -62.99556    81.86529    -0.00000    171.86529
913778070.36664    -0.00000    171.84589    -62.97434    81.84589    -62.97434    81.84589    -0.00000    171.84589
915909479.74618    -0.00000    171.82643    -62.95313    81.82643    -62.95313    81.82643    -0.00000    171.82643
918045860.68948    -0.00000    171.80693    -62.93190    81.80693    -62.93190    81.80693    -0.00000    171.80693
920187224.79284    -0.00000    171.78738    -62.91067    81.78738    -62.91067    81.78738    -0.00000    171.78738
922333583.67960    -0.00000    171.76778    -62.88944    81.76778    -62.88944    81.76778    -0.00000    171.76778
924484949.00021    -0.00000    171.74813    -62.86820    81.74813    -62.86820    81.74813    -0.00000    171.74813
926641332.43229    -0.00000    171.72844    -62.84696    81.72844    -62.84696    81.72844    -0.00000    171.72844
928802745.68072    -0.00000    171.70869    -62.82571    81.70869    -62.82571    81.70869    -0.00000    171.70869
930969200.47766    -0.00000    171.68889    -62.80445    81.68889    -62.80445    81.68889    -0.00000    171.68889
933140708.58265    -0.00000    171.66905    -62.78320    81.66905    -62.78320    81.66905    -0.00000    171.66905
935317281.78264    -0.00000    171.64915    -62.76193    81.64915    -62.76193    81.64915    -0.00000    171.64915
937498931.89210    -0.00000    171.62921    -62.74066    81.62921    -62.74066    81.62921    -0.00000    171.62921
939685670.75303    -0.00000    171.60921    -62.71939    81.60921    -62.71939    81.60921    -0.00000    171.60921
941877510.23508    -0.00000    171.58917    -62.69811    81.58917    -62.69811    81.58917    -0.00000    171.58917
944074462.23557    -0.00000    171.56907    -62.67683    81.56907    -62.67683    81.56907    -0.00000    171.56907
946276538.67956    -0.00000    171.54893    -62.65554    81.54893    -62.65554    81.54893    -0.00000    171.54893
948483751.51995    -0.00000    171.52873    -62.63424    81.52873    -62.63424    81.52873    -0.00000    171.52873
950696112.73750    -0.00000    171.50849    -62.61294    81.50849    -62.61294    81.50849    -0.00000    171.50849
952913634.34093    -0.00000    171.48819    -62.59164    81.48819    -62.59164    81.48819    -0.00000    171.48819
955136328.36696    -0.00000    171.46784    -62.57033    81.46784    -62.57033    81.46784    -0.00000    171.46784
957364206.88040    -0.00000    171.44744    -62.54901    81.44744    -62.54901    81.44744    -0.00000    171.44744
959597281.97418    -0.00000    171.42699    -62.52769    81.42699    -62.52769    81.42699    -0.00000    171.42699
961835565.76946    -0.00000    171.40649    -62.50637    81.40649    -62.50637    81.40649    -0.00000    171.40649
964079070.41565    -0.00000    171.38594    -62.48503    81.38594    -62.48503    81.38594    -0.00000    171.38594
966327808.09051    -0.00000    171.36533    -62.46370    81.36533    -62.46370    81.36533    -0.00000    171.36533
968581791.00022    -0.00000    171.34468    -62.44235    81.34468    -62.44235    81.34468    -0.00000    171.34468
970841031.37941    -0.00000    171.32397    -62.42101    81.32397    -62.42101    81.32397    -0.00000    171.32397
973105541.49125    -0.00000    171.30321    -62.39965    81.30321    -62.39965    81.30321    -0.00000    171.30321
975375333.62752    -0.00000    171.28240    -62.37829    81.28240    -62.37829    81.28240    -0.00000    171.28240
977650420.10867    -0.00000    171.26153    -62.35693    81.26153    -62.35693    81.26153    -0.00000    171.26153
979930813.28389    -0.00000    171.24061    -62.33556    81.24061    -62.33556    81.24061    -0.00000    171.24061
982216525.53117    -0.00000    171.21964    -62.31418    81.21964    -62.31418    81.21964    -0.00000    171.21964
984507569.25737    -0.00000    171.19862    -62.29280    81.19862    -62.29280    81.19862    -0.00000    171.19862
986803956.89830    -0.00000    171.17755    -62.27142    81.17755    -62.27142    81.17755    -0.00000    171.17755
989105700.91876    -0.00000    171.15642    -62.25002    81.15642    -62.25002    81.15642    -0.00000    171.15642
991412813.81265    -0.00000    171.13523    -62.22863    81.13523    -62.22863    81.13523    -0.00000    171.13523
993725308.10298    -0.00000    171.11400    -62.20722    81.11400    -62.20722    81.11400    -0.00000    171.11400
996043196.34200    -0.00000    171.09271    -62.18581    81.09271    -62.18581    81.09271    -0.00000    171.09271
998366491.11122    -0.00000    171.07137    -62.16440    81.07137    -62.16440    81.07137    -0.00000    171.07137
1000695205.02150    -0.00000    171.04997    -62.14297    81.04997    -62.14297    81.04997    -0.00000    171.04997
1003029350.71312    -0.00000    171.02852    -62.12155    81.02852    -62.12155    81.02852    -0.00000    171.02852
1005368940.85583    -0.00000    171.00702    -62.10011    81.00702    -62.10011    81.00702    -0.00000    171.00702
1007713988.14897    -0.00000    170.98546    -62.07867    80.98546    -62.07867    80.98546    -0.00000    170.98546
1010064505.32145    -0.00000    170.96384    -62.05723    80.96384    -62.05723    80.96384    -0.00000    170.96384
1012420505.13190    -0.00000    170.94217    -62.03578    80.94217    -62.03578    80.94217    -0.00000    170.94217
1014782000.36872    -0.00000    170.92045    -62.01432    80.92045    -62.01432    80.92045    -0.00000    170.92045
1017149003.85010    -0.00000    170.89867    -61.99286    80.89867    -61.99286    80.89867    -0.00000    170.89867
1019521528.42417    -0.00000    170.87684    -61.97139    80.87684    -61.97139    80.87684    -0.00000    170.87684
1021899586.96901    -0.00000    170.85495    -61.94991    80.85495    -61.94991    80.85495    -0.00000    170.85495
1024283192.39274    -0.00000    170.83301    -61.92843    80.83301    -61.92843    80.83301    -0.00000    170.83301
1026672357.63359    -0.00000    170.81101    -61.90694    80.81101    -61.90694    80.81101    -0.00000    170.81101
1029067095.65997    -0.00000    170.78895    -61.88545    80.78895    -61.88545    80.78895    -0.00000    170.78895
1031467419.47052    -0.00000    170.76684    -61.86395    80.76684    -61.86395    80.76684    -0.00000    170.76684
1033873342.09423    -0.00000    170.74467    -61.84244    80.74467    -61.84244    80.74467    -0.00000    170.74467
1036284876.59047    -0.00000    170.72245    -61.82093    80.72245    -61.82093    80.72245    -0.00000    170.72245
1038702036.04906    -0.00000    170.70017    -61.79941    80.70017    -61.79941    80.70017    -0.00000    170.70017
1041124833.59036    -0.00000    170.67783    -61.77788    80.67783    -61.77788    80.67783    -0.00000    170.67783
1043553282.36534    -0.00000    170.65544    -61.75635    80.65544    -61.75635    80.65544    -0.00000    170.65544
1045987395.55564    -0.00000    170.63299    -61.73481    80.63299    -61.73481    80.63299    -0.00000    170.63299
1048427186.37363    -0.00000    170.61048    -61.71326    80.61048    -61.71326    80.61048    -0.00000    170.61048
1050872668.06253    -0.00000    170.58792    -61.69171    80.58792    -61.69171    80.58792    -0.00000    170.58792
1053323853.89643    -0.00000    170.56529    -61.67015    80.56529    -61.67015    80.56529    -0.00000    170.56529
1055780757.18038    -0.00000    170.54261    -61.64859    80.54261    -61.64859    80.54261    -0.00000    170.54261
1058243391.25047    -0.00000    170.51988    -61.62702    80.51988    -61.62702    80.51988    -0.00000    170.51988
1060711769.47391    -0.00000    170.49708    -61.60544    80.49708    -61.60544    80.49708    -0.00000    170.49708
1063185905.24906    -0.00000    170.47423    -61.58385    80.47423    -61.58385    80.47423    -0.00000    170.47423
1065665812.00556    -0.00000    170.45132    -61.56226    80.45132    -61.56226    80.45132    -0.00000    170.45132
1068151503.20435    -0.00000    170.42834    -61.54066    80.42834    -61.54066    80.42834    -0.00000    170.42834
1070642992.33780    -0.00000    170.40532    -61.51906    80.40532    -61.51906    80.40532    -0.00000    170.40532
1073140292.92971    -0.00000    170.38223    -61.49744    80.38223    -61.49744    80.38223    -0.00000    170.38223
1075643418.53547    -0.00000    170.35908    -61.47582    80.35908    -61.47582    80.35908    -0.00000    170.35908
1078152382.74204    -0.00000    170.33587    -61.45420    80.33587    -61.45420    80.33587    -0.00000    170.33587
1080667199.16812    -0.00000    170.31261    -61.43256    80.31261    -61.43256    80.31261    -0.00000    170.31261
1083187881.46414    -0.00000    170.28928    -61.41092    80.28928    -61.41092    80.28928    -0.00000    170.28928
1085714443.31239    -0.00000    170.26590    -61.38928    80.26590    -61.38928    80.26590    -0.00000    170.26590
1088246898.42706    -0.00000    170.24245    -61.36762    80.24245    -61.36762    80.24245    -0.00000    170.24245
1090785260.55434    -0.00000    170.21895    -61.34596    80.21895    -61.34596    80.21895    -0.00000    170.21895
1093329543.47249    -0.00000    170.19538    -61.32429    80.19538    -61.32429    80.19538    -0.00000    170.19538
1095879760.99188    -0.00000    170.17176    -61.30262    80.17176    -61.30262    80.17176    -0.00000    170.17176
1098435926.95512    -0.00000    170.14807    -61.28093    80.14807    -61.28093    80.14807    -0.00000    170.14807
1100998055.23709    -0.00000    170.12433    -61.25924    80.12433    -61.25924    80.12433    -0.00000    170.12433
1103566159.74505    -0.00000    170.10052    -61.23755    80.10052    -61.23755    80.10052    -0.00000    170.10052
1106140254.41869    -0.00000    170.07665    -61.21584    80.07665    -61.21584    80.07665    -0.00000    170.07665
1108720353.23022    -0.00000    170.05272    -61.19413    80.05272    -61.19413    80.05272    -0.00000    170.05272
1111306470.18443    -0.00000    170.02873    -61.17241    80.02873    -61.17241    80.02873    -0.00000    170.02873
1113898619.31879    -0.00000    170.00467    -61.15068    80.00467    -61.15068    80.00467    -0.00000    170.00467
1116496814.70349    -0.00000    169.98056    -61.12895    79.98056    -61.12895    79.98056    -0.00000    169.98056
1119101070.44157    -0.00000    169.95638    -61.10720    79.95638    -61.10720    79.95638    -0.00000    169.95638
1121711400.66894    -0.00000    169.93214    -61.08545    79.93214    -61.08545    79.93214    -0.00000    169.93214
1124327819.55451    -0.00000    169.90784    -61.06370    79.90784    -61.06370    79.90784    -0.00000    169.90784
1126950341.30020    -0.00000    169.88347    -61.04193    79.88347    -61.04193    79.88347    -0.00000    169.88347
1129578980.14109    -0.00000    169.85905    -61.02016    79.85905    -61.02016    79.85905    -0.00000    169.85905
1132213750.34546    -0.00000    169.83456    -60.99838    79.83456    -60.99838    79.83456    -0.00000    169.83456
1134854666.21484    -0.00000    169.81000    -60.97659    79.81000    -60.97659    79.81000    -0.00000    169.81000
1137501742.08416    -0.00000    169.78538    -60.95479    79.78538    -60.95479    79.78538    -0.00000    169.78538
1140154992.32177    -0.00000    169.76070    -60.93299    79.76070    -60.93299    79.76070    -0.00000    169.76070
1142814431.32952    -0.00000    169.73596    -60.91118    79.73596    -60.91118    79.73596    -0.00000    169.73596
1145480073.54288    -0.00000    169.71115    -60.88936    79.71115    -60.88936    79.71115    -0.00000    169.71115
1148151933.43096    -0.00000    169.68628    -60.86753    79.68628    -60.86753    79.68628    -0.00000    169.68628
1150830025.49665    -0.00000    169.66134    -60.84569    79.66134    -60.84569    79.66134    -0.00000    169.66134
1153514364.27665    -0.00000    169.63634    -60.82385    79.63634    -60.82385    79.63634    -0.00000    169.63634
1156204964.34157    -0.00000    169.61127    -60.80199    79.61127    -60.80199    79.61127    -0.00000    169.61127
1158901840.29601    -0.00000    169.58614    -60.78013    79.58614    -60.78013    79.58614    -0.00000    169.58614
1161605006.77863    -0.00000    169.56094    -60.75827    79.56094    -60.75827    79.56094    -0.00000    169.56094
1164314478.46225    -0.00000    169.53568    -60.73639    79.53568    -60.73639    79.53568    -0.00000    169.53568
1167030270.05389    -0.00000    169.51035    -60.71450    79.51035    -60.71450    79.51035    -0.00000    169.51035
1169752396.29489    -0.00000    169.48496    -60.69261    79.48496    -60.69261    79.48496    -0.00000    169.48496
1172480871.96098    -0.00000    169.45950    -60.67071    79.45950    -60.67071    79.45950    -0.00000    169.45950
1175215711.86233    -0.00000    169.43397    -60.64880    79.43397    -60.64880    79.43397    -0.00000    169.43397
1177956930.84370    -0.00000    169.40838    -60.62688    79.40838    -60.62688    79.40838    -0.00000    169.40838
1180704543.78443    -0.00000    169.38272    -60.60495    79.38272    -60.60495    79.38272    -0.00000    169.38272
1183458565.59858    -0.00000    169.35700    -60.58301    79.35700    -60.58301    79.35700    -0.00000    169.35700
1186219011.23502    -0.00000    169.33120    -60.56107    79.33120    -60.56107    79.33120    -0.00000    169.33120
1188985895.67745    -0.00000    169.30534    -60.53911    79.30534    -60.53911    79.30534    -0.00000    169.30534
1191759233.94455    -0.00000    169.27942    -60.51715    79.27942    -60.51715    79.27942    -0.00000    169.27942
1194539041.09002    -0.00000    169.25342    -60.49518    79.25342    -60.49518    79.25342    -0.00000    169.25342
1197325332.20268    -0.00000    169.22736    -60.47320    79.22736    -60.47320    79.22736    -0.00000    169.22736
1200118122.40653    -0.00000    169.20123    -60.45121    79.20123    -60.45121    79.20123    -0.00000    169.20123
1202917426.86087    -0.00000    169.17503    -60.42921    79.17503    -60.42921    79.17503    -0.00000    169.17503
1205723260.76033    -0.00000    169.14876    -60.40721    79.14876    -60.40721    79.14876    -0.00000    169.14876
1208535639.33501    -0.00000    169.12242    -60.38519    79.12242    -60.38519    79.12242    -0.00000    169.12242
1211354577.85052    -0.00000    169.09602    -60.36316    79.09602    -60.36316    79.09602    -0.00000    169.09602
1214180091.60808    -0.00000    169.06954    -60.34113    79.06954    -60.34113    79.06954    -0.00000    169.06954
1217012195.94460    -0.00000    169.04300    -60.31909    79.04300    -60.31909    79.04300    -0.00000    169.04300
1219850906.23276    -0.00000    169.01638    -60.29703    79.01638    -60.29703    79.01638    -0.00000    169.01638
1222696237.88111    -0.00000    168.98970    -60.27497    78.98970    -60.27497    78.98970    -0.00000    168.98970
1225548206.33413    -0.00000    168.96295    -60.25290    78.96295    -60.25290    78.96295    -0.00000    168.96295
1228406827.07233    -0.00000    168.93612    -60.23082    78.93612    -60.23082    78.93612    -0.00000    168.93612
1231272115.61231    -0.00000    168.90923    -60.20873    78.90923    -60.20873    78.90923    -0.00000    168.90923
1234144087.50690    -0.00000    168.88226    -60.18663    78.88226    -60.18663    78.88226    -0.00000    168.88226
1237022758.34516    -0.00000    168.85523    -60.16452    78.85523    -60.16452    78.85523    -0.00000    168.85523
1239908143.75256    -0.00000    168.82812    -60.14240    78.82812    -60.14240    78.82812    -0.00000    168.82812
1242800259.39099    -0.00000    168.80094    -60.12027    78.80094    -60.12027    78.80094    -0.00000    168.80094
1245699120.95887    -0.00000    168.77369    -60.09813    78.77369    -60.09813    78.77369    -0.00000    168.77369
1248604744.19125    -0.00000    168.74637    -60.07599    78.74637    -60.07599    78.74637    -0.00000    168.74637
1251517144.85987    -0.00000    168.71897    -60.05383    78.71897    -60.05383    78.71897    -0.00000    168.71897
1254436338.77326    -0.00000    168.69151    -60.03166    78.69151    -60.03166    78.69151    -0.00000    168.69151
1257362341.77684    -0.00000    168.66397    -60.00948    78.66397    -60.00948    78.66397    -0.00000    168.66397
1260295169.75296    -0.00000    168.63636    -59.98730    78.63636    -59.98730    78.63636    -0.00000    168.63636
1263234838.62105    -0.00000    168.60867    -59.96510    78.60867    -59.96510    78.60867    -0.00000    168.60867
1266181364.33765    -0.00000    168.58091    -59.94289    78.58091    -59.94289    78.58091    -0.00000    168.58091
1269134762.89652    -0.00000    168.55308    -59.92067    78.55308    -59.92067    78.55308    -0.00000    168.55308
1272095050.32873    -0.00000    168.52518    -59.89845    78.52518    -59.89845    78.52518    -0.00000    168.52518
1275062242.70274    -0.00000    168.49720    -59.87621    78.49720    -59.87621    78.49720    -0.00000    168.49720
1278036356.12451    -0.00000    168.46914    -59.85396    78.46914    -59.85396    78.46914    -0.00000    168.46914
1281017406.73753    -0.00000    168.44102    -59.83170    78.44102    -59.83170    78.44102    -0.00000    168.44102
1284005410.72298    -0.00000    168.41281    -59.80943    78.41281    -59.80943    78.41281    -0.00000    168.41281
1287000384.29977    -0.00000    168.38454    -59.78715    78.38454    -59.78715    78.38454    -0.00000    168.38454
1290002343.72462    -0.00000    168.35618    -59.76486    78.35618    -59.76486    78.35618    -0.00000    168.35618
1293011305.29221    -0.00000    168.32775    -59.74256    78.32775    -59.74256    78.32775    -0.00000    168.32775
1296027285.33520    -0.00000    168.29925    -59.72025    78.29925    -59.72025    78.29925    -0.00000    168.29925
1299050300.22436    -0.00000    168.27067    -59.69792    78.27067    -59.69792    78.27067    -0.00000    168.27067
1302080366.36862    -0.00000    168.24201    -59.67559    78.24201    -59.67559    78.24201    -0.00000    168.24201
1305117500.21523    -0.00000    168.21328    -59.65325    78.21328    -59.65325    78.21328    -0.00000    168.21328
1308161718.24974    -0.00000    168.18447    -59.63089    78.18447    -59.63089    78.18447    -0.00000    168.18447
1311213036.99622    -0.00000    168.15559    -59.60852    78.15559    -59.60852    78.15559    -0.00000    168.15559
1314271473.01724    -0.00000    168.12662    -59.58615    78.12662    -59.58615    78.12662    -0.00000    168.12662
1317337042.91401    -0.00000    168.09758    -59.56376    78.09758    -59.56376    78.09758    -0.00000    168.09758
1320409763.32648    -0.00000    168.06847    -59.54136    78.06847    -59.54136    78.06847    -0.00000    168.06847
1323489650.93339    -0.00000    168.03927    -59.51895    78.03927    -59.51895    78.03927    -0.00000    168.03927
1326576722.45240    -0.00000    168.00999    -59.49653    78.00999    -59.49653    78.00999    -0.00000    168.00999
1329670994.64015    -0.00000    167.98064    -59.47409    77.98064    -59.47409    77.98064    -0.00000    167.98064
1332772484.29238    -0.00000    167.95121    -59.45165    77.95121    -59.45165    77.95121    -0.00000    167.95121
1335881208.24399    -0.00000    167.92170    -59.42919    77.92170    -59.42919    77.92170    -0.00000    167.92170
1338997183.36917    -0.00000    167.89211    -59.40672    77.89211    -59.40672    77.89211    -0.00000    167.89211
1342120426.58146    -0.00001    167.86244    -59.38424    77.86244    -59.38424    77.86244    -0.00001    167.86244
1345250954.83384    -0.00001    167.83269    -59.36175    77.83269    -59.36175    77.83269    -0.00001    167.83269
1348388785.11884    -0.00001    167.80286    -59.33925    77.80286    -59.33925    77.80286    -0.00001    167.80286
1351533934.46863    -0.00001    167.77295    -59.31673    77.77295    -59.31673    77.77295    -0.00001    167.77295
1354686419.95510    -0.00001    167.74296    -59.29421    77.74296    -59.29421    77.74296    -0.00001    167.74296
1357846258.68998    -0.00001    167.71289    -59.27167    77.71289    -59.27167    77.71289    -0.00001    167.71289
1361013467.82489    -0.00001    167.68274    -59.24912    77.68274    -59.24912    77.68274    -0.00001    167.68274
1364188064.55146    -0.00001    167.65251    -59.22655    77.65251    -59.22655    77.65251    -0.00001    167.65251
1367370066.10144    -0.00001    167.62219    -59.20398    77.62219    -59.20398    77.62219    -0.00001    167.62219
1370559489.74674    -0.00001    167.59179    -59.18139    77.59179    -59.18139    77.59179    -0.00001    167.59179
1373756352.79959    -0.00001    167.56131    -59.15879    77.56131    -59.15879    77.56131    -0.00001    167.56131
1376960672.61259    -0.00001    167.53075    -59.13618    77.53075    -59.13618    77.53075    -0.00001    167.53075
1380172466.57880    -0.00001    167.50011    -59.11356    77.50011    -59.11356    77.50011    -0.00001    167.50011
1383391752.13188    -0.00001    167.46938    -59.09092    77.46938    -59.09092    77.46938    -0.00001    167.46938
1386618546.74612    -0.00001    167.43857    -59.06827    77.43857    -59.06827    77.43857    -0.00001    167.43857
1389852867.93659    -0.00001    167.40767    -59.04561    77.40767    -59.04561    77.40767    -0.00001    167.40767
1393094733.25921    -0.00001    167.37670    -59.02293    77.37670    -59.02293    77.37670    -0.00001    167.37670
1396344160.31086    -0.00001    167.34563    -59.00024    77.34563    -59.00024    77.34563    -0.00001    167.34563
1399601166.72945    -0.00001    167.31449    -58.97754    77.31449    -58.97754    77.31449    -0.00001    167.31449
1402865770.19403    -0.00001    167.28325    -58.95483    77.28325    -58.95483    77.28325    -0.00001    167.28325
1406137988.42491    -0.00001    167.25194    -58.93210    77.25194    -58.93210    77.25194    -0.00001    167.25194
1409417839.18369    -0.00001    167.22053    -58.90936    77.22053    -58.90936    77.22053    -0.00001    167.22053
1412705340.27345    -0.00001    167.18905    -58.88661    77.18905    -58.88661    77.18905    -0.00001    167.18905
1416000509.53875    -0.00001    167.15747    -58.86384    77.15747    -58.86384    77.15747    -0.00001    167.15747
1419303364.86581    -0.00001    167.12581    -58.84106    77.12581    -58.84106    77.12581    -0.00001    167.12581
1422613924.18255    -0.00001    167.09406    -58.81827    77.09406    -58.81827    77.09406    -0.00001    167.09406
1425932205.45872    -0.00001    167.06223    -58.79546    77.06223    -58.79546    77.06223    -0.00001    167.06223
1429258226.70596    -0.00001    167.03031    -58.77264    77.03031    -58.77264    77.03031    -0.00001    167.03031
1432592005.97794    -0.00001    166.99830    -58.74981    76.99830    -58.74981    76.99830    -0.00001    166.99830
1435933561.37045    -0.00001    166.96620    -58.72696    76.96620    -58.72696    76.96620    -0.00001    166.96620
1439282911.02148    -0.00001    166.93402    -58.70410    76.93402    -58.70410    76.93402    -0.00001    166.93402
1442640073.11132    -0.00001    166.90175    -58.68122    76.90175    -58.68122    76.90175    -0.00001    166.90175
1446005065.86267    -0.00001    166.86939    -58.65833    76.86939    -58.65833    76.86939    -0.00001    166.86939
1449377907.54074    -0.00001    166.83693    -58.63543    76.83693    -58.63543    76.83693    -0.00001    166.83693
1452758616.45334    -0.00001    166.80440    -58.61251    76.80440    -58.61251    76.80440    -0.00001    166.80440
1456147210.95098    -0.00001    166.77177    -58.58958    76.77177    -58.58958    76.77177    -0.00001    166.77177
1459543709.42699    -0.00001    166.73905    -58.56663    76.73905    -58.56663    76.73905    -0.00001    166.73905
1462948130.31758    -0.00001    166.70624    -58.54367    76.70624    -58.54367    76.70624    -0.00001    166.70624
1466360492.10198    -0.00001    166.67334    -58.52070    76.67334    -58.52070    76.67334    -0.00001    166.67334
1469780813.30250    -0.00001    166.64035    -58.49771    76.64035    -58.49771    76.64035    -0.00001    166.64035
1473209112.48469    -0.00001    166.60726    -58.47470    76.60726    -58.47470    76.60726    -0.00001    166.60726
1476645408.25737    -0.00001    166.57409    -58.45168    76.57409    -58.45168    76.57409    -0.00001    166.57409
1480089719.27279    -0.00001    166.54082    -58.42865    76.54082    -58.42865    76.54082    -0.00001    166.54082
1483542064.22669    -0.00001    166.50746    -58.40560    76.50746    -58.40560    76.50746    -0.00001    166.50746
1487002461.85843    -0.00001    166.47401    -58.38254    76.47401    -58.38254    76.47401    -0.00001    166.47401
1490470930.95108    -0.00001    166.44047    -58.35946    76.44047    -58.35946    76.44047    -0.00001    166.44047
1493947490.33150    -0.00001    166.40683    -58.33636    76.40683    -58.33636    76.40683    -0.00001    166.40683
1497432158.87049    -0.00001    166.37310    -58.31325    76.37310    -58.31325    76.37310    -0.00001    166.37310
1500924955.48287    -0.00001    166.33928    -58.29013    76.33928    -58.29013    76.33928    -0.00001    166.33928
1504425899.12755    -0.00001    166.30536    -58.26699    76.30536    -58.26699    76.30536    -0.00001    166.30536
1507935008.80768    -0.00001    166.27135    -58.24383    76.27135    -58.24383    76.27135    -0.00001    166.27135
1511452303.57075    -0.00001    166.23724    -58.22066    76.23724    -58.22066    76.23724    -0.00001    166.23724
1514977802.50865    -0.00001    166.20304    -58.19747    76.20304    -58.19747    76.20304    -0.00001    166.20304
1518511524.75782    -0.00001    166.16874    -58.17427    76.16874    -58.17427    76.16874    -0.00001    166.16874
1522053489.49934    -0.00001    166.13434    -58.15105    76.13434    -58.15105    76.13434    -0.00001    166.13434
1525603715.95900    -0.00001    166.09985    -58.12781    76.09985    -58.12781    76.09985    -0.00001    166.09985
1529162223.40748    -0.00001    166.06527    -58.10456    76.06527    -58.10456    76.06527    -0.00001    166.06527
1532729031.16037    -0.00001    166.03058    -58.08129    76.03058    -58.08129    76.03058    -0.00001    166.03058
1536304158.57834    -0.00001    165.99580    -58.05801    75.99580    -58.05801    75.99580    -0.00001    165.99580
1539887625.06720    -0.00001    165.96092    -58.03471    75.96092    -58.03471    75.96092    -0.00001    165.96092
1543479450.07804    -0.00001    165.92594    -58.01139    75.92594    -58.01139    75.92594    -0.00001    165.92594
1547079653.10732    -0.00001    165.89087    -57.98806    75.89087    -57.98806    75.89087    -0.00001    165.89087
1550688253.69696    -0.00001    165.85569    -57.96471    75.85569    -57.96471    75.85569    -0.00001    165.85569
1554305271.43447    -0.00001    165.82042    -57.94134    75.82042    -57.94134    75.82042    -0.00001    165.82042
1557930725.95307    -0.00001    165.78505    -57.91796    75.78505    -57.91796    75.78505    -0.00001    165.78505
1561564636.93173    -0.00001    165.74957    -57.89455    75.74957    -57.89455    75.74957    -0.00001    165.74957
1565207024.09536    -0.00001    165.71400    -57.87113    75.71400    -57.87113    75.71400    -0.00001    165.71400
1568857907.21487    -0.00001    165.67832    -57.84770    75.67832    -57.84770    75.67832    -0.00001    165.67832
1572517306.10727    -0.00001    165.64255    -57.82425    75.64255    -57.82425    75.64255    -0.00001    165.64255
1576185240.63581    -0.00001    165.60667    -57.80077    75.60667    -57.80077    75.60667    -0.00001    165.60667
1579861730.71007    -0.00001    165.57069    -57.77729    75.57069    -57.77729    75.57069    -0.00001    165.57069
1583546796.28607    -0.00001    165.53461    -57.75378    75.53461    -57.75378    75.53461    -0.00001    165.53461
1587240457.36637    -0.00001    165.49843    -57.73026    75.49843    -57.73026    75.49843    -0.00001    165.49843
1590942734.00019    -0.00001    165.46215    -57.70671    75.46215    -57.70671    75.46215    -0.00001    165.46215
1594653646.28351    -0.00001    165.42576    -57.68315    75.42576    -57.68315    75.42576    -0.00001    165.42576
1598373214.35920    -0.00001    165.38926    -57.65958    75.38926    -57.65958    75.38926    -0.00001    165.38926
1602101458.41710    -0.00001    165.35267    -57.63598    75.35267    -57.63598    75.35267    -0.00001    165.35267
1605838398.69416    -0.00001    165.31597    -57.61237    75.31597    -57.61237    75.31597    -0.00001    165.31597
1609584055.47451    -0.00001    165.27916    -57.58873    75.27916    -57.58873    75.27916    -0.00001    165.27916
1613338449.08960    -0.00001    165.24225    -57.56508    75.24225    -57.56508    75.24225    -0.00001    165.24225
1617101599.91831    -0.00001    165.20523    -57.54141    75.20523    -57.54141    75.20523    -0.00001    165.20523
1620873528.38705    -0.00001    165.16811    -57.51772    75.16811    -57.51772    75.16811    -0.00001    165.16811
1624654254.96989    -0.00001    165.13088    -57.49401    75.13088    -57.49401    75.13088    -0.00001    165.13088
1628443800.18864    -0.00001    165.09354    -57.47029    75.09354    -57.47029    75.09354    -0.00001    165.09354
1632242184.61296    -0.00001    165.05610    -57.44654    75.05610    -57.44654    75.05610    -0.00001    165.05610
1636049428.86054    -0.00001    165.01855    -57.42277    75.01855    -57.42277    75.01855    -0.00001    165.01855
1639865553.59711    -0.00001    164.98089    -57.39899    74.98089    -57.39899    74.98089    -0.00001    164.98089
1643690579.53663    -0.00001    164.94312    -57.37518    74.94312    -57.37518    74.94312    -0.00001    164.94312
1647524527.44137    -0.00001    164.90524    -57.35136    74.90524    -57.35136    74.90524    -0.00001    164.90524
1651367418.12204    -0.00001    164.86726    -57.32752    74.86726    -57.32752    74.86726    -0.00001    164.86726
1655219272.43786    -0.00001    164.82916    -57.30365    74.82916    -57.30365    74.82916    -0.00001    164.82916
1659080111.29675    -0.00001    164.79095    -57.27977    74.79095    -57.27977    74.79095    -0.00001    164.79095
1662949955.65535    -0.00001    164.75264    -57.25586    74.75264    -57.25586    74.75264    -0.00001    164.75264
1666828826.51921    -0.00001    164.71421    -57.23194    74.71421    -57.23194    74.71421    -0.00001    164.71421
1670716744.94289    -0.00001    164.67567    -57.20800    74.67567    -57.20800    74.67567    -0.00001    164.67567
1674613732.03002    -0.00001    164.63702    -57.18403    74.63702    -57.18403    74.63702    -0.00001    164.63702
1678519808.93349    -0.00001    164.59825    -57.16004    74.59825    -57.16004    74.59825    -0.00001    164.59825
1682434996.85550    -0.00001    164.55938    -57.13604    74.55938    -57.13604    74.55938    -0.00001    164.55938
1686359317.04774    -0.00001    164.52039    -57.11201    74.52039    -57.11201    74.52039    -0.00001    164.52039
1690292790.81143    -0.00001    164.48128    -57.08796    74.48128    -57.08796    74.48128    -0.00001    164.48128
1694235439.49751    -0.00001    164.44207    -57.06389    74.44207    -57.06389    74.44207    -0.00001    164.44207
1698187284.50671    -0.00001    164.40273    -57.03980    74.40273    -57.03980    74.40273    -0.00001    164.40273
1702148347.28967    -0.00001    164.36329    -57.01569    74.36329    -57.01569    74.36329    -0.00001    164.36329
1706118649.34706    -0.00001    164.32372    -56.99155    74.32372    -56.99155    74.32372    -0.00001    164.32372
1710098212.22972    -0.00001    164.28404    -56.96740    74.28404    -56.96740    74.28404    -0.00001    164.28404
1714087057.53875    -0.00001    164.24425    -56.94322    74.24425    -56.94322    74.24425    -0.00001    164.24425
1718085206.92563    -0.00001    164.20434    -56.91902    74.20434    -56.91902    74.20434    -0.00001    164.20434
1722092682.09235    -0.00001    164.16431    -56.89479    74.16431    -56.89479    74.16431    -0.00001    164.16431
1726109504.79151    -0.00001    164.12416    -56.87055    74.12416    -56.87055    74.12416    -0.00001    164.12416
1730135696.82647    -0.00001    164.08389    -56.84628    74.08389    -56.84628    74.08389    -0.00001    164.08389
1734171280.05141    -0.00001    164.04351    -56.82199    74.04351    -56.82199    74.04351    -0.00001    164.04351
1738216276.37151    -0.00001    164.00300    -56.79768    74.00300    -56.79768    74.00300    -0.00001    164.00300
1742270707.74306    -0.00001    163.96238    -56.77335    73.96238    -56.77335    73.96238    -0.00001    163.96238
1746334596.17353    -0.00001    163.92164    -56.74899    73.92164    -56.74899    73.92164    -0.00001    163.92164
1750407963.72173    -0.00001    163.88077    -56.72461    73.88077    -56.72461    73.88077    -0.00001    163.88077
1754490832.49796    -0.00001    163.83978    -56.70020    73.83978    -56.70020    73.83978    -0.00001    163.83978
1758583224.66403    -0.00001    163.79868    -56.67577    73.79868    -56.67577    73.79868    -0.00001    163.79868
1762685162.43350    -0.00001    163.75745    -56.65132    73.75745    -56.65132    73.75745    -0.00001    163.75745
1766796668.07171    -0.00001    163.71609    -56.62684    73.71609    -56.62684    73.71609    -0.00001    163.71609
1770917763.89594    -0.00001    163.67462    -56.60234    73.67462    -56.60234    73.67462    -0.00001    163.67462
1775048472.27554    -0.00001    163.63302    -56.57782    73.63302    -56.57782    73.63302    -0.00001    163.63302
1779188815.63203    -0.00001    163.59129    -56.55327    73.59129    -56.55327    73.59129    -0.00001    163.59129
1783338816.43921    -0.00001    163.54945    -56.52870    73.54945    -56.52870    73.54945    -0.00001    163.54945
1787498497.22333    -0.00001    163.50747    -56.50410    73.50747    -56.50410    73.50747    -0.00001    163.50747
1791667880.56316    -0.00001    163.46537    -56.47948    73.46537    -56.47948    73.46537    -0.00001    163.46537
1795846989.09015    -0.00001    163.42315    -56.45483    73.42315    -56.45483    73.42315    -0.00001    163.42315
1800035845.48854    -0.00001    163.38079    -56.43016    73.38079    -56.43016    73.38079    -0.00001    163.38079
1804234472.49547    -0.00001    163.33831    -56.40546    73.33831    -56.40546    73.33831    -0.00001    163.33831
1808442892.90112    -0.00001    163.29570    -56.38074    73.29570    -56.38074    73.29570    -0.00001    163.29570
1812661129.54882    -0.00001    163.25297    -56.35599    73.25297    -56.35599    73.25297    -0.00001    163.25297
1816889205.33520    -0.00001    163.21010    -56.33122    73.21010    -56.33122    73.21010    -0.00001    163.21010
1821127143.21029    -0.00001    163.16711    -56.30642    73.16711    -56.30642    73.16711    -0.00001    163.16711
1825374966.17765    -0.00001    163.12398    -56.28159    73.12398    -56.28159    73.12398    -0.00001    163.12398
1829632697.29448    -0.00001    163.08072    -56.25674    73.08072    -56.25674    73.08072    -0.00001    163.08072
1833900359.67181    -0.00001    163.03734    -56.23186    73.03734    -56.23186    73.03734    -0.00001    163.03734
1838177976.47451    -0.00001    162.99382    -56.20695    72.99382    -56.20695    72.99382    -0.00001    162.99382
1842465570.92154    -0.00001    162.95017    -56.18202    72.95017    -56.18202    72.95017    -0.00001    162.95017
1846763166.28598    -0.00001    162.90638    -56.15706    72.90638    -56.15706    72.90638    -0.00001    162.90638
1851070785.89522    -0.00001    162.86247    -56.13208    72.86247    -56.13208    72.86247    -0.00001    162.86247
1855388453.13106    -0.00001    162.81841    -56.10706    72.81841    -56.10706    72.81841    -0.00001    162.81841
1859716191.42982    -0.00001    162.77423    -56.08202    72.77423    -56.08202    72.77423    -0.00001    162.77423
1864054024.28250    -0.00001    162.72991    -56.05695    72.72991    -56.05695    72.72991    -0.00001    162.72991
1868401975.23488    -0.00001    162.68545    -56.03186    72.68545    -56.03186    72.68545    -0.00001    162.68545
1872760067.88769    -0.00001    162.64086    -56.00673    72.64086    -56.00673    72.64086    -0.00001    162.64086
1877128325.89668    -0.00001    162.59613    -55.98158    72.59613    -55.98158    72.59613    -0.00001    162.59613
1881506772.97279    -0.00001    162.55126    -55.95639    72.55126    -55.95639    72.55126    -0.00001    162.55126
1885895432.88227    -0.00001    162.50625    -55.93118    72.50625    -55.93118    72.50625    -0.00001    162.50625
1890294329.44680    -0.00001    162.46111    -55.90594    72.46111    -55.90594    72.46111    -0.00001    162.46111
1894703486.54361    -0.00001    162.41583    -55.88068    72.41583    -55.88068    72.41583    -0.00001    162.41583
1899122928.10566    -0.00001    162.37040    -55.85538    72.37040    -55.85538    72.37040    -0.00001    162.37040
1903552678.12169    -0.00001    162.32484    -55.83005    72.32484    -55.83005    72.32484    -0.00001    162.32484
1907992760.63644    -0.00001    162.27913    -55.80469    72.27913    -55.80469    72.27913    -0.00001    162.27913
1912443199.75070    -0.00001    162.23328    -55.77931    72.23328    -55.77931    72.23328    -0.00001    162.23328
1916904019.62149    -0.00001    162.18729    -55.75389    72.18729    -55.75389    72.18729    -0.00001    162.18729
1921375244.46217    -0.00001    162.14116    -55.72844    72.14116    -55.72844    72.14116    -0.00001    162.14116
1925856898.54259    -0.00001    162.09489    -55.70297    72.09489    -55.70297    72.09489    -0.00001    162.09489
1930349006.18921    -0.00001    162.04847    -55.67746    72.04847    -55.67746    72.04847    -0.00001    162.04847
1934851591.78521    -0.00001    162.00190    -55.65192    72.00190    -55.65192    72.00190    -0.00001    162.00190
1939364679.77066    -0.00001    161.95519    -55.62635    71.95519    -55.62635    71.95519    -0.00001    161.95519
1943888294.64266    -0.00001    161.90833    -55.60075    71.90833    -55.60075    71.90833    -0.00001    161.90833
1948422460.95540    -0.00001    161.86133    -55.57511    71.86133    -55.57511    71.86133    -0.00001    161.86133
1952967203.32037    -0.00001    161.81417    -55.54945    71.81417    -55.54945    71.81417    -0.00001    161.81417
1957522546.40649    -0.00001    161.76687    -55.52375    71.76687    -55.52375    71.76687    -0.00001    161.76687
1962088514.94017    -0.00001    161.71943    -55.49802    71.71943    -55.49802    71.71943    -0.00001    161.71943
1966665133.70555    -0.00001    161.67183    -55.47226    71.67183    -55.47226    71.67183    -0.00001    161.67183
1971252427.54453    -0.00001    161.62408    -55.44647    71.62408    -55.44647    71.62408    -0.00001    161.62408
1975850421.35699    -0.00001    161.57618    -55.42064    71.57618    -55.42064    71.57618    -0.00001    161.57618
1980459140.10087    -0.00001    161.52813    -55.39478    71.52813    -55.39478    71.52813    -0.00001    161.52813
1985078608.79233    -0.00001    161.47992    -55.36888    71.47992    -55.36888    71.47992    -0.00001    161.47992
1989708852.50589    -0.00001    161.43156    -55.34296    71.43156    -55.34296    71.43156    -0.00001    161.43156
1994349896.37453    -0.00001    161.38305    -55.31699    71.38305    -55.31699    71.38305    -0.00001    161.38305
1999001765.58990    -0.00001    161.33439    -55.29100    71.33439    -55.29100    71.33439    -0.00001    161.33439
2003664485.40236    -0.00001    161.28557    -55.26497    71.28557    -55.26497    71.28557    -0.00001    161.28557
2008338081.12120    -0.00001    161.23659    -55.23891    71.23659    -55.23891    71.23659    -0.00001    161.23659
2013022578.11473    -0.00001    161.18746    -55.21281    71.18746    -55.21281    71.18746    -0.00001    161.18746
2017718001.81044    -0.00001    161.13817    -55.18667    71.13817    -55.18667    71.13817    -0.00001    161.13817
2022424377.69511    -0.00001    161.08872    -55.16050    71.08872    -55.16050    71.08872    -0.00001    161.08872
2027141731.31501    -0.00001    161.03911    -55.13430    71.03911    -55.13430    71.03911    -0.00001    161.03911
2031870088.27596    -0.00001    160.98935    -55.10806    70.98935    -55.10806    70.98935    -0.00001    160.98935
2036609474.24351    -0.00001    160.93942    -55.08178    70.93942    -55.08178    70.93942    -0.00001    160.93942
2041359914.94310    -0.00001    160.88933    -55.05547    70.88933    -55.05547    70.88933    -0.00001    160.88933
2046121436.16014    -0.00001    160.83908    -55.02912    70.83908    -55.02912    70.83908    -0.00001    160.83908
2050894063.74022    -0.00001    160.78867    -55.00273    70.78867    -55.00273    70.78867    -0.00001    160.78867
2055677823.58920    -0.00001    160.73810    -54.97631    70.73810    -54.97631    70.73810    -0.00001    160.73810
2060472741.67336    -0.00001    160.68736    -54.94984    70.68736    -54.94984    70.68736    -0.00001    160.68736
2065278844.01955    -0.00001    160.63645    -54.92334    70.63645    -54.92334    70.63645    -0.00001    160.63645
2070096156.71533    -0.00001    160.58538    -54.89681    70.58538    -54.89681    70.58538    -0.00001    160.58538
2074924705.90912    -0.00001    160.53414    -54.87023    70.53414    -54.87023    70.53414    -0.00001    160.53414
2079764517.81031    -0.00001    160.48274    -54.84362    70.48274    -54.84362    70.48274    -0.00001    160.48274
2084615618.68945    -0.00001    160.43117    -54.81697    70.43117    -54.81697    70.43117    -0.00001    160.43117
2089478034.87834    -0.00001    160.37943    -54.79027    70.37943    -54.79027    70.37943    -0.00001    160.37943
2094351792.77023    -0.00001    160.32751    -54.76354    70.32751    -54.76354    70.32751    -0.00001    160.32751
2099236918.81989    -0.00001    160.27543    -54.73677    70.27543    -54.73677    70.27543    -0.00001    160.27543
2104133439.54385    -0.00001    160.22318    -54.70996    70.22318    -54.70996    70.22318    -0.00001    160.22318
2109041381.52044    -0.00001    160.17075    -54.68311    70.17075    -54.68311    70.17075    -0.00001    160.17075
2113960771.39002    -0.00001    160.11816    -54.65622    70.11816    -54.65622    70.11816    -0.00001    160.11816
2118891635.85507    -0.00001    160.06538    -54.62929    70.06538    -54.62929    70.06538    -0.00001    160.06538
2123834001.68037    -0.00002    160.01244    -54.60232    70.01244    -54.60232    70.01244    -0.00002    160.01244
2128787895.69312    -0.00002    159.95931    -54.57530    69.95931    -54.57530    69.95931    -0.00002    159.95931
2133753344.78308    -0.00002    159.90602    -54.54825    69.90602    -54.54825    69.90602    -0.00002    159.90602
2138730375.90275    -0.00002    159.85254    -54.52115    69.85254    -54.52115    69.85254    -0.00002    159.85254
2143719016.06750    -0.00002    159.79888    -54.49401    69.79888    -54.49401    69.79888    -0.00002    159.79888
2148719292.35571    -0.00002    159.74505    -54.46682    69.74505    -54.46682    69.74505    -0.00002    159.74505
2153731231.90892    -0.00002    159.69104    -54.43960    69.69104    -54.43960    69.69104    -0.00002    159.69104
2158754861.93197    -0.00002    159.63684    -54.41233    69.63684    -54.41233    69.63684    -0.00002    159.63684
2163790209.69316    -0.00002    159.58246    -54.38501    69.58246    -54.38501    69.58246    -0.00002    159.58246
2168837302.52440    -0.00002    159.52790    -54.35766    69.52790    -54.35766    69.52790    -0.00002    159.52790
2173896167.82135    -0.00002    159.47316    -54.33025    69.47316    -54.33025    69.47316    -0.00002    159.47316
2178966833.04357    -0.00002    159.41823    -54.30281    69.41823    -54.30281    69.41823    -0.00002    159.41823
2184049325.71467    -0.00002    159.36312    -54.27532    69.36312    -54.27532    69.36312    -0.00002    159.36312
2189143673.42246    -0.00002    159.30782    -54.24778    69.30782    -54.24778    69.30782    -0.00002    159.30782
2194249903.81910    -0.00002    159.25233    -54.22020    69.25233    -54.22020    69.25233    -0.00002    159.25233
2199368044.62125    -0.00002    159.19666    -54.19257    69.19666    -54.19257    69.19666    -0.00002    159.19666
2204498123.61021    -0.00002    159.14079    -54.16489    69.14079    -54.16489    69.14079    -0.00002    159.14079
2209640168.63209    -0.00002    159.08474    -54.13717    69.08474    -54.13717    69.08474    -0.00002    159.08474
2214794207.59796    -0.00002    159.02849    -54.10941    69.02849    -54.10941    69.02849    -0.00002    159.02849
2219960268.48399    -0.00002    158.97205    -54.08159    68.97205    -54.08159    68.97205    -0.00002    158.97205
2225138379.33157    -0.00002    158.91542    -54.05373    68.91542    -54.05373    68.91542    -0.00002    158.91542
2230328568.24754    -0.00002    158.85859    -54.02581    68.85859    -54.02581    68.85859    -0.00002    158.85859
2235530863.40429    -0.00002    158.80157    -53.99785    68.80157    -53.99785    68.80157    -0.00002    158.80157
2240745293.03992    -0.00002    158.74435    -53.96984    68.74435    -53.96984    68.74435    -0.00002    158.74435
2245971885.45839    -0.00002    158.68693    -53.94179    68.68693    -53.94179    68.68693    -0.00002    158.68693
2251210669.02968    -0.00002    158.62932    -53.91368    68.62932    -53.91368    68.62932    -0.00002    158.62932
2256461672.18996    -0.00002    158.57150    -53.88552    68.57150    -53.88552    68.57150    -0.00002    158.57150
2261724923.44171    -0.00002    158.51349    -53.85731    68.51349    -53.85731    68.51349    -0.00002    158.51349
2267000451.35389    -0.00002    158.45527    -53.82905    68.45527    -53.82905    68.45527    -0.00002    158.45527
2272288284.56211    -0.00002    158.39685    -53.80074    68.39685    -53.80074    68.39685    -0.00002    158.39685
2277588451.76878    -0.00002    158.33823    -53.77238    68.33823    -53.77238    68.33823    -0.00002    158.33823
2282900981.74324    -0.00002    158.27940    -53.74396    68.27940    -53.74396    68.27940    -0.00002    158.27940
2288225903.32195    -0.00002    158.22037    -53.71550    68.22037    -53.71550    68.22037    -0.00002    158.22037
2293563245.40862    -0.00002    158.16113    -53.68698    68.16113    -53.68698    68.16113    -0.00002    158.16113
2298913036.97438    -0.00002    158.10168    -53.65840    68.10168    -53.65840    68.10168    -0.00002    158.10168
2304275307.05795    -0.00002    158.04202    -53.62978    68.04202    -53.62978    68.04202    -0.00002    158.04202
2309650084.76577    -0.00002    157.98216    -53.60109    67.98216    -53.60109    67.98216    -0.00002    157.98216
2315037399.27217    -0.00002    157.92208    -53.57236    67.92208    -53.57236    67.92208    -0.00002    157.92208
2320437279.81955    -0.00002    157.86178    -53.54357    67.86178    -53.54357    67.86178    -0.00002    157.86178
2325849755.71849    -0.00002    157.80128    -53.51472    67.80128    -53.51472    67.80128    -0.00002    157.80128
2331274856.34795    -0.00002    157.74056    -53.48582    67.74056    -53.48582    67.74056    -0.00002    157.74056
2336712611.15543    -0.00002    157.67962    -53.45686    67.67962    -53.45686    67.67962    -0.00002    157.67962
2342163049.65709    -0.00002    157.61846    -53.42785    67.61846    -53.42785    67.61846    -0.00002    157.61846
2347626201.43796    -0.00002    157.55709    -53.39877    67.55709    -53.39877    67.55709    -0.00002    157.55709
2353102096.15207    -0.00002    157.49549    -53.36964    67.49549    -53.36964    67.49549    -0.00002    157.49549
2358590763.52263    -0.00002    157.43368    -53.34046    67.43368    -53.34046    67.43368    -0.00002    157.43368
2364092233.34216    -0.00002    157.37164    -53.31121    67.37164    -53.31121    67.37164    -0.00002    157.37164
2369606535.47267    -0.00002    157.30938    -53.28190    67.30938    -53.28190    67.30938    -0.00002    157.30938
2375133699.84584    -0.00002    157.24690    -53.25254    67.24690    -53.25254    67.24690    -0.00002    157.24690
2380673756.46318    -0.00002    157.18418    -53.22311    67.18418    -53.22311    67.18418    -0.00002    157.18418
2386226735.39613    -0.00002    157.12125    -53.19363    67.12125    -53.19363    67.12125    -0.00002    157.12125
2391792666.78634    -0.00002    157.05808    -53.16408    67.05808    -53.16408    67.05808    -0.00002    157.05808
2397371580.84569    -0.00002    156.99468    -53.13447    66.99468    -53.13447    66.99468    -0.00002    156.99468
2402963507.85659    -0.00002    156.93105    -53.10480    66.93105    -53.10480    66.93105    -0.00002    156.93105
2408568478.17206    -0.00002    156.86719    -53.07506    66.86719    -53.07506    66.86719    -0.00002    156.86719
2414186522.21592    -0.00002    156.80309    -53.04527    66.80309    -53.04527    66.80309    -0.00002    156.80309
2419817670.48296    -0.00002    156.73876    -53.01541    66.73876    -53.01541    66.73876    -0.00002    156.73876
2425461953.53911    -0.00002    156.67420    -52.98548    66.67420    -52.98548    66.67420    -0.00002    156.67420
2431119402.02155    -0.00002    156.60939    -52.95549    66.60939    -52.95549    66.60939    -0.00002    156.60939
2436790046.63898    -0.00002    156.54435    -52.92544    66.54435    -52.92544    66.54435    -0.00002    156.54435
2442473918.17168    -0.00002    156.47906    -52.89532    66.47906    -52.89532    66.47906    -0.00002    156.47906
2448171047.47178    -0.00002    156.41353    -52.86513    66.41353    -52.86513    66.41353    -0.00002    156.41353
2453881465.46331    -0.00002    156.34776    -52.83488    66.34776    -52.83488    66.34776    -0.00002    156.34776
2459605203.14249    -0.00002    156.28175    -52.80456    66.28175    -52.80456    66.28175    -0.00002    156.28175
2465342291.57780    -0.00002    156.21549    -52.77417    66.21549    -52.77417    66.21549    -0.00002    156.21549
2471092761.91020    -0.00002    156.14898    -52.74371    66.14898    -52.74371    66.14898    -0.00002    156.14898
2476856645.35329    -0.00002    156.08222    -52.71318    66.08222    -52.71318    66.08222    -0.00002    156.08222
2482633973.19347    -0.00002    156.01521    -52.68259    66.01521    -52.68259    66.01521    -0.00002    156.01521
2488424776.79013    -0.00002    155.94794    -52.65192    65.94794    -52.65192    65.94794    -0.00002    155.94794
2494229087.57578    -0.00002    155.88043    -52.62118    65.88043    -52.62118    65.88043    -0.00002    155.88043
2500046937.05629    -0.00002    155.81265    -52.59037    65.81265    -52.59037    65.81265    -0.00002    155.81265
2505878356.81097    -0.00002    155.74462    -52.55949    65.74462    -52.55949    65.74462    -0.00002    155.74462
2511723378.49281    -0.00002    155.67634    -52.52854    65.67634    -52.52854    65.67634    -0.00002    155.67634
2517582033.82865    -0.00002    155.60779    -52.49751    65.60779    -52.49751    65.60779    -0.00002    155.60779
2523454354.61930    -0.00002    155.53898    -52.46641    65.53898    -52.46641    65.53898    -0.00002    155.53898
2529340372.73978    -0.00002    155.46991    -52.43523    65.46991    -52.43523    65.46991    -0.00002    155.46991
2535240120.13943    -0.00002    155.40057    -52.40398    65.40057    -52.40398    65.40057    -0.00002    155.40057
2541153628.84213    -0.00003    155.33097    -52.37265    65.33097    -52.37265    65.33097    -0.00003    155.33097
2547080930.94644    -0.00003    155.26110    -52.34124    65.26110    -52.34124    65.26110    -0.00003    155.26110
2553022058.62582    -0.00003    155.19095    -52.30976    65.19095    -52.30976    65.19095    -0.00003    155.19095
2558977044.12874    -0.00003    155.12054    -52.27820    65.12054    -52.27820    65.12054    -0.00003    155.12054
2564945919.77892    -0.00003    155.04986    -52.24656    65.04986    -52.24656    65.04986    -0.00003    155.04986
2570928717.97545    -0.00003    154.97890    -52.21485    64.97890    -52.21485    64.97890    -0.00003    154.97890
2576925471.19303    -0.00003    154.90766    -52.18305    64.90766    -52.18305    64.90766    -0.00003    154.90766
2582936211.98206    -0.00003    154.83614    -52.15117    64.83614    -52.15117    64.83614    -0.00003    154.83614
2588960972.96889    -0.00003    154.76435    -52.11921    64.76435    -52.11921    64.76435    -0.00003    154.76435
2594999786.85597    -0.00003    154.69227    -52.08717    64.69227    -52.08717    64.69227    -0.00003    154.69227
2601052686.42204    -0.00003    154.61991    -52.05504    64.61991    -52.05504    64.61991    -0.00003    154.61991
2607119704.52227    -0.00003    154.54726    -52.02283    64.54726    -52.02283    64.54726    -0.00003    154.54726
2613200874.08851    -0.00003    154.47433    -51.99054    64.47433    -51.99054    64.47433    -0.00003    154.47433
2619296228.12936    -0.00003    154.40111    -51.95816    64.40111    -51.95816    64.40111    -0.00003    154.40111
2625405799.73046    -0.00003    154.32759    -51.92569    64.32759    -51.92569    64.32759    -0.00003    154.32759
2631529622.05462    -0.00003    154.25379    -51.89314    64.25379    -51.89314    64.25379    -0.00003    154.25379
2637667728.34199    -0.00003    154.17969    -51.86050    64.17969    -51.86050    64.17969    -0.00003    154.17969
2643820151.91026    -0.00003    154.10529    -51.82778    64.10529    -51.82778    64.10529    -0.00003    154.10529
2649986926.15484    -0.00003    154.03060    -51.79496    64.03060    -51.79496    64.03060    -0.00003    154.03060
2656168084.54901    -0.00003    153.95560    -51.76205    63.95560    -51.76205    63.95560    -0.00003    153.95560
2662363660.64416    -0.00003    153.88030    -51.72906    63.88030    -51.72906    63.88030    -0.00003    153.88030
2668573688.06993    -0.00003    153.80470    -51.69597    63.80470    -51.69597    63.80470    -0.00003    153.80470
2674798200.53438    -0.00003    153.72879    -51.66279    63.72879    -51.66279    63.72879    -0.00003    153.72879
2681037231.82422    -0.00003    153.65257    -51.62951    63.65257    -51.62951    63.65257    -0.00003    153.65257
2687290815.80496    -0.00003    153.57605    -51.59614    63.57605    -51.59614    63.57605    -0.00003    153.57605
2693558986.42112    -0.00003    153.49921    -51.56268    63.49921    -51.56268    63.49921    -0.00003    153.49921
2699841777.69635    -0.00003    153.42205    -51.52912    63.42205    -51.52912    63.42205    -0.00003    153.42205
2706139223.73370    -0.00003    153.34458    -51.49546    63.34458    -51.49546    63.34458    -0.00003    153.34458
2712451358.71576    -0.00003    153.26679    -51.46171    63.26679    -51.46171    63.26679    -0.00003    153.26679
2718778216.90485    -0.00003    153.18868    -51.42786    63.18868    -51.42786    63.18868    -0.00003    153.18868
2725119832.64320    -0.00003    153.11024    -51.39391    63.11024    -51.39391    63.11024    -0.00003    153.11024
2731476240.35315    -0.00003    153.03148    -51.35986    63.03148    -51.35986    63.03148    -0.00003    153.03148
2737847474.53733    -0.00003    152.95240    -51.32570    62.95240    -51.32570    62.95240    -0.00003    152.95240
2744233569.77885    -0.00003    152.87298    -51.29145    62.87298    -51.29145    62.87298    -0.00003    152.87298
2750634560.74148    -0.00003    152.79323    -51.25709    62.79323    -51.25709    62.79323    -0.00003    152.79323
2757050482.16986    -0.00003    152.71315    -51.22262    62.71315    -51.22262    62.71315    -0.00003    152.71315
2763481368.88965    -0.00003    152.63273    -51.18806    62.63273    -51.18806    62.63273    -0.00003    152.63273
2769927255.80776    -0.00003    152.55197    -51.15338    62.55197    -51.15338    62.55197    -0.00003    152.55197
2776388177.91251    -0.00003    152.47087    -51.11860    62.47087    -51.11860    62.47087    -0.00003    152.47087
2782864170.27384    -0.00003    152.38942    -51.08371    62.38942    -51.08371    62.38942    -0.00003    152.38942
2789355268.04348    -0.00003    152.30763    -51.04871    62.30763    -51.04871    62.30763    -0.00003    152.30763
2795861506.45516    -0.00003    152.22549    -51.01360    62.22549    -51.01360    62.22549    -0.00003    152.22549
2802382920.82479    -0.00003    152.14300    -50.97838    62.14300    -50.97838    62.14300    -0.00003    152.14300
2808919546.55067    -0.00003    152.06016    -50.94305    62.06016    -50.94305    62.06016    -0.00003    152.06016
2815471419.11366    -0.00004    151.97696    -50.90760    61.97696    -50.90760    61.97696    -0.00004    151.97696
2822038574.07735    -0.00004    151.89340    -50.87204    61.89340    -50.87204    61.89340    -0.00004    151.89340
2828621047.08832    -0.00004    151.80948    -50.83636    61.80948    -50.83636    61.80948    -0.00004    151.80948
2835218873.87628    -0.00004    151.72520    -50.80057    61.72520    -50.80057    61.72520    -0.00004    151.72520
2841832090.25430    -0.00004    151.64055    -50.76466    61.64055    -50.76466    61.64055    -0.00004    151.64055
2848460732.11896    -0.00004    151.55553    -50.72863    61.55553    -50.72863    61.55553    -0.00004    151.55553
2855104835.45058    -0.00004    151.47014    -50.69247    61.47014    -50.69247    61.47014    -0.00004    151.47014
2861764436.31341    -0.00004    151.38438    -50.65620    61.38438    -50.65620    61.38438    -0.00004    151.38438
2868439570.85581    -0.00004    151.29824    -50.61980    61.29824    -50.61980    61.29824    -0.00004    151.29824
2875130275.31045    -0.00004    151.21171    -50.58328    61.21171    -50.58328    61.21171    -0.00004    151.21171
2881836585.99454    -0.00004    151.12481    -50.54664    61.12481    -50.54664    61.12481    -0.00004    151.12481
2888558539.30999    -0.00004    151.03752    -50.50987    61.03752    -50.50987    61.03752    -0.00004    151.03752
2895296171.74362    -0.00004    150.94984    -50.47297    60.94984    -50.47297    60.94984    -0.00004    150.94984
2902049519.86732    -0.00004    150.86177    -50.43594    60.86177    -50.43594    60.86177    -0.00004    150.86177
2908818620.33834    -0.00004    150.77331    -50.39878    60.77331    -50.39878    60.77331    -0.00004    150.77331
2915603509.89941    -0.00004    150.68445    -50.36149    60.68445    -50.36149    60.68445    -0.00004    150.68445
2922404225.37896    -0.00004    150.59519    -50.32407    60.59519    -50.32407    60.59519    -0.00004    150.59519
2929220803.69132    -0.00004    150.50552    -50.28651    60.50552    -50.28651    60.50552    -0.00004    150.50552
2936053281.83694    -0.00004    150.41545    -50.24882    60.41545    -50.24882    60.41545    -0.00004    150.41545
2942901696.90256    -0.00004    150.32497    -50.21099    60.32497    -50.21099    60.32497    -0.00004    150.32497
2949766086.06143    -0.00004    150.23408    -50.17302    60.23408    -50.17302    60.23408    -0.00004    150.23408
2956646486.57351    -0.00004    150.14277    -50.13491    60.14277    -50.13491    60.14277    -0.00004    150.14277
2963542935.78566    -0.00004    150.05104    -50.09666    60.05104    -50.09666    60.05104    -0.00004    150.05104
2970455471.13186    -0.00004    149.95889    -50.05827    59.95889    -50.05827    59.95889    -0.00004    149.95889
2977384130.13342    -0.00004    149.86631    -50.01974    59.86631    -50.01974    59.86631    -0.00004    149.86631
2984328950.39915    -0.00004    149.77331    -49.98106    59.77331    -49.98106    59.77331    -0.00004    149.77331
2991289969.62557    -0.00004    149.67987    -49.94223    59.67987    -49.94223    59.67987    -0.00004    149.67987
2998267225.59716    -0.00004    149.58600    -49.90325    59.58600    -49.90325    59.58600    -0.00004    149.58600
3005260756.18653    -0.00004    149.49169    -49.86412    59.49169    -49.86412    59.49169    -0.00004    149.49169
3012270599.35460    -0.00005    149.39694    -49.82484    59.39694    -49.82484    59.39694    -0.00005    149.39694
3019296793.15086    -0.00005    149.30174    -49.78541    59.30174    -49.78541    59.30174    -0.00005    149.30174
3026339375.71355    -0.00005    149.20609    -49.74582    59.20609    -49.74582    59.20609    -0.00005    149.20609
3033398385.26986    -0.00005    149.10999    -49.70608    59.10999    -49.70608    59.10999    -0.00005    149.10999
3040473860.13614    -0.00005    149.01343    -49.66617    59.01343    -49.66617    59.01343    -0.00005    149.01343
3047565838.71813    -0.00005    148.91641    -49.62611    58.91641    -49.62611    58.91641    -0.00005    148.91641
3054674359.51115    -0.00005    148.81893    -49.58589    58.81893    -49.58589    58.81893    -0.00005    148.81893
3061799461.10029    -0.00005    148.72098    -49.54550    58.72098    -49.54550    58.72098    -0.00005    148.72098
3068941182.16068    -0.00005    148.62256    -49.50494    58.62256    -49.50494    58.62256    -0.00005    148.62256
3076099561.45762    -0.00005    148.52366    -49.46422    58.52366    -49.46422    58.52366    -0.00005    148.52366
3083274637.84685    -0.00005    148.42428    -49.42334    58.42428    -49.42334    58.42428    -0.00005    148.42428
3090466450.27474    -0.00005    148.32442    -49.38228    58.32442    -49.38228    58.32442    -0.00005    148.32442
3097675037.77851    -0.00005    148.22407    -49.34104    58.22407    -49.34104    58.22407    -0.00005    148.22407
3104900439.48642    -0.00005    148.12323    -49.29964    58.12323    -49.29964    58.12323    -0.00005    148.12323
3112142694.61802    -0.00005    148.02190    -49.25806    58.02190    -49.25806    58.02190    -0.00005    148.02190
3119401842.48431    -0.00005    147.92006    -49.21630    57.92006    -49.21630    57.92006    -0.00005    147.92006
3126677922.48803    -0.00005    147.81772    -49.17436    57.81772    -49.17436    57.81772    -0.00005    147.81772
3133970974.12376    -0.00005    147.71487    -49.13223    57.71487    -49.13223    57.71487    -0.00005    147.71487
3141281036.97826    -0.00005    147.61151    -49.08993    57.61151    -49.08993    57.61151    -0.00005    147.61151
3148608150.73061    -0.00005    147.50763    -49.04743    57.50763    -49.04743    57.50763    -0.00005    147.50763
3155952355.15244    -0.00005    147.40323    -49.00475    57.40323    -49.00475    57.40323    -0.00005    147.40323
3163313690.10816    -0.00006    147.29830    -48.96188    57.29830    -48.96188    57.29830    -0.00006    147.29830
3170692195.55512    -0.00006    147.19285    -48.91882    57.19285    -48.91882    57.19285    -0.00006    147.19285
3178087911.54393    -0.00006    147.08686    -48.87556    57.08686    -48.87556    57.08686    -0.00006    147.08686
3185500878.21859    -0.00006    146.98032    -48.83211    56.98032    -48.83211    56.98032    -0.00006    146.98032
3192931135.81673    -0.00006    146.87325    -48.78846    56.87325    -48.78846    56.87325    -0.00006    146.87325
3200378724.66986    -0.00006    146.76562    -48.74460    56.76562    -48.74460    56.76562    -0.00006    146.76562
3207843685.20355    -0.00006    146.65744    -48.70054    56.65744    -48.70054    56.65744    -0.00006    146.65744
3215326057.93766    -0.00006    146.54870    -48.65628    56.54870    -48.65628    56.54870    -0.00006    146.54870
3222825883.48656    -0.00006    146.43940    -48.61181    56.43940    -48.61181    56.43940    -0.00006    146.43940
3230343202.55937    -0.00006    146.32953    -48.56713    56.32953    -48.56713    56.32953    -0.00006    146.32953
3237878055.96015    -0.00006    146.21908    -48.52223    56.21908    -48.52223    56.21908    -0.00006    146.21908
3245430484.58815    -0.00006    146.10805    -48.47713    56.10805    -48.47713    56.10805    -0.00006    146.10805
3253000529.43800    -0.00006    145.99644    -48.43180    55.99644    -48.43180    55.99644    -0.00006    145.99644
3260588231.59999    -0.00006    145.88424    -48.38625    55.88424    -48.38625    55.88424    -0.00006    145.88424
3268193632.26019    -0.00006    145.77144    -48.34048    55.77144    -48.34048    55.77144    -0.00006    145.77144
3275816772.70079    -0.00006    145.65805    -48.29449    55.65805    -48.29449    55.65805    -0.00006    145.65805
3283457694.30025    -0.00007    145.54404    -48.24826    55.54404    -48.24826    55.54404    -0.00007    145.54404
3291116438.53356    -0.00007    145.42943    -48.20181    55.42943    -48.20181    55.42943    -0.00007    145.42943
3298793046.97244    -0.00007    145.31419    -48.15512    55.31419    -48.15512    55.31419    -0.00007    145.31419
3306487561.28558    -0.00007    145.19833    -48.10820    55.19833    -48.10820    55.19833    -0.00007    145.19833
3314200023.23888    -0.00007    145.08185    -48.06103    55.08185    -48.06103    55.08185    -0.00007    145.08185
3321930474.69561    -0.00007    144.96473    -48.01363    54.96473    -48.01363    54.96473    -0.00007    144.96473
3329678957.61674    -0.00007    144.84696    -47.96598    54.84696    -47.96598    54.84696    -0.00007    144.84696
3337445514.06109    -0.00007    144.72855    -47.91809    54.72855    -47.91809    54.72855    -0.00007    144.72855
3345230186.18560    -0.00007    144.60948    -47.86994    54.60948    -47.86994    54.60948    -0.00007    144.60948
3353033016.24551    -0.00007    144.48976    -47.82154    54.48976    -47.82154    54.48976    -0.00007    144.48976
3360854046.59467    -0.00007    144.36937    -47.77288    54.36937    -47.77288    54.36937    -0.00007    144.36937
3368693319.68567    -0.00007    144.24830    -47.72397    54.24830    -47.72397    54.24830    -0.00007    144.24830
3376550878.07015    -0.00007    144.12656    -47.67479    54.12656    -47.67479    54.12656    -0.00007    144.12656
3384426764.39900    -0.00008    144.00413    -47.62534    54.00413    -47.62534    54.00413    -0.00008    144.00413
3392321021.42260    -0.00008    143.88101    -47.57563    53.88101    -47.57563    53.88101    -0.00008    143.88101
3400233691.99102    -0.00008    143.75719    -47.52565    53.75719    -47.52565    53.75719    -0.00008    143.75719
3408164819.05432    -0.00008    143.63266    -47.47538    53.63266    -47.47538    53.63266    -0.00008    143.63266
3416114445.66271    -0.00008    143.50742    -47.42484    53.50742    -47.42484    53.50742    -0.00008    143.50742
3424082614.96682    -0.00008    143.38145    -47.37402    53.38145    -47.37402    53.38145    -0.00008    143.38145
3432069370.21793    -0.00008    143.25476    -47.32291    53.25476    -47.32291    53.25476    -0.00008    143.25476
3440074754.76822    -0.00008    143.12734    -47.27151    53.12734    -47.27151    53.12734    -0.00008    143.12734
3448098812.07097    -0.00008    142.99917    -47.21982    52.99917    -47.21982    52.99917    -0.00008    142.99917
3456141585.68085    -0.00008    142.87025    -47.16783    52.87025    -47.16783    52.87025    -0.00008    142.87025
3464203119.25407    -0.00008    142.74057    -47.11554    52.74057    -47.11554    52.74057    -0.00008    142.74057
3472283456.54871    -0.00009    142.61013    -47.06295    52.61013    -47.06295    52.61013    -0.00009    142.61013
3480382641.42489    -0.00009    142.47892    -47.01005    52.47892    -47.01005    52.47892    -0.00009    142.47892
3488500717.84506    -0.00009    142.34692    -46.95683    52.34692    -46.95683    52.34692    -0.00009    142.34692
3496637729.87420    -0.00009    142.21413    -46.90330    52.21413    -46.90330    52.21413    -0.00009    142.21413
3504793721.68008    -0.00009    142.08054    -46.84945    52.08054    -46.84945    52.08054    -0.00009    142.08054
3512968737.53349    -0.00009    141.94615    -46.79528    51.94615    -46.79528    51.94615    -0.00009    141.94615
3521162821.80845    -0.00009    141.81094    -46.74078    51.81094    -46.74078    51.81094    -0.00009    141.81094
3529376018.98254    -0.00009    141.67491    -46.68594    51.67491    -46.68594    51.67491    -0.00009    141.67491
3537608373.63706    -0.00009    141.53805    -46.63077    51.53805    -46.63077    51.53805    -0.00009    141.53805
3545859930.45728    -0.00010    141.40034    -46.57526    51.40034    -46.57526    51.40034    -0.00010    141.40034
3554130734.23272    -0.00010    141.26179    -46.51940    51.26179    -46.51940    51.26179    -0.00010    141.26179
3562420829.85738    -0.00010    141.12237    -46.46319    51.12237    -46.46319    51.12237    -0.00010    141.12237
3570730262.32994    -0.00010    140.98209    -46.40663    50.98209    -46.40663    50.98209    -0.00010    140.98209
3579059076.75408    -0.00010    140.84092    -46.34971    50.84092    -46.34971    50.84092    -0.00010    140.84092
3587407318.33866    -0.00010    140.69887    -46.29243    50.69887    -46.29243    50.69887    -0.00010    140.69887
3595775032.39800    -0.00010    140.55592    -46.23477    50.55592    -46.23477    50.55592    -0.00010    140.55592
3604162264.35213    -0.00010    140.41206    -46.17674    50.41206    -46.17674    50.41206    -0.00010    140.41206
3612569059.72700    -0.00011    140.26728    -46.11834    50.26728    -46.11834    50.26728    -0.00011    140.26728
3620995464.15478    -0.00011    140.12157    -46.05955    50.12157    -46.05955    50.12157    -0.00011    140.12157
3629441523.37402    -0.00011    139.97493    -46.00037    49.97493    -46.00037    49.97493    -0.00011    139.97493
3637907283.23002    -0.00011    139.82733    -45.94080    49.82733    -45.94080    49.82733    -0.00011    139.82733
3646392789.67499    -0.00011    139.67878    -45.88083    49.67878    -45.88083    49.67878    -0.00011    139.67878
3654898088.76831    -0.00011    139.52925    -45.82045    49.52925    -45.82045    49.52925    -0.00011    139.52925
3663423226.67683    -0.00012    139.37874    -45.75967    49.37874    -45.75967    49.37874    -0.00012    139.37874
3671968249.67507    -0.00012    139.22723    -45.69847    49.22723    -45.69847    49.22723    -0.00012    139.22723
3680533204.14545    -0.00012    139.07472    -45.63685    49.07472    -45.63685    49.07472    -0.00012    139.07472
3689118136.57862    -0.00012    138.92119    -45.57480    48.92119    -45.57480    48.92119    -0.00012    138.92119
3697723093.57368    -0.00012    138.76663    -45.51232    48.76663    -45.51232    48.76663    -0.00012    138.76663
3706348121.83838    -0.00012    138.61103    -45.44940    48.61103    -45.44940    48.61103    -0.00012    138.61103
3714993268.18945    -0.00013    138.45437    -45.38603    48.45437    -45.38603    48.45437    -0.00013    138.45437
3723658579.55281    -0.00013    138.29664    -45.32222    48.29664    -45.32222    48.29664    -0.00013    138.29664
3732344102.96385    -0.00013    138.13784    -45.25794    48.13784    -45.25794    48.13784    -0.00013    138.13784
3741049885.56764    -0.00013    137.97794    -45.19321    47.97794    -45.19321    47.97794    -0.00013    137.97794
3749775974.61923    -0.00013    137.81694    -45.12800    47.81694    -45.12800    47.81694    -0.00013    137.81694
3758522417.48392    -0.00014    137.65482    -45.06232    47.65482    -45.06232    47.65482    -0.00014    137.65482
3767289261.63747    -0.00014    137.49156    -44.99615    47.49156    -44.99615    47.49156    -0.00014    137.49156
3776076554.66637    -0.00014    137.32716    -44.92950    47.32716    -44.92950    47.32716    -0.00014    137.32716
3784884344.26810    -0.00014    137.16159    -44.86234    47.16159    -44.86234    47.16159    -0.00014    137.16159
3793712678.25143    -0.00014    136.99485    -44.79469    46.99485    -44.79469    46.99485    -0.00014    136.99485
3802561604.53662    -0.00015    136.82691    -44.72652    46.82691    -44.72652    46.82691    -0.00015    136.82691
3811431171.15571    -0.00015    136.65777    -44.65783    46.65777    -44.65783    46.65777    -0.00015    136.65777
3820321426.25277    -0.00015    136.48741    -44.58862    46.48741    -44.58862    46.48741    -0.00015    136.48741
3829232418.08419    -0.00015    136.31581    -44.51887    46.31581    -44.51887    46.31581    -0.00015    136.31581
3838164195.01890    -0.00016    136.14296    -44.44859    46.14296    -44.44859    46.14296    -0.00016    136.14296
3847116805.53864    -0.00016    135.96884    -44.37775    45.96884    -44.37775    45.96884    -0.00016    135.96884
3856090298.23825    -0.00016    135.79343    -44.30635    45.79343    -44.30635    45.79343    -0.00016    135.79343
3865084721.82593    -0.00016    135.61672    -44.23440    45.61672    -44.23440    45.61672    -0.00016    135.61672
3874100125.12348    -0.00017    135.43869    -44.16186    45.43869    -44.16186    45.43869    -0.00017    135.43869
3883136557.06657    -0.00017    135.25932    -44.08875    45.25932    -44.08875    45.25932    -0.00017    135.25932
3892194066.70504    -0.00017    135.07859    -44.01504    45.07859    -44.01504    45.07859    -0.00017    135.07859
3901272703.20310    -0.00018    134.89650    -43.94074    44.89650    -43.94074    44.89650    -0.00018    134.89650
3910372515.83966    -0.00018    134.71301    -43.86583    44.71301    -43.86583    44.71301    -0.00018    134.71301
3919493554.00860    -0.00018    134.52811    -43.79030    44.52811    -43.79030    44.52811    -0.00018    134.52811
3928635867.21896    -0.00018    134.34178    -43.71414    44.34178    -43.71414    44.34178    -0.00018    134.34178
3937799505.09529    -0.00019    134.15400    -43.63735    44.15400    -43.63735    44.15400    -0.00019    134.15400
3946984517.37791    -0.00019    133.96475    -43.55991    43.96475    -43.55991    43.96475    -0.00019    133.96475
3956190953.92312    -0.00019    133.77400    -43.48182    43.77400    -43.48182    43.77400    -0.00019    133.77400
3965418864.70353    -0.00020    133.58175    -43.40306    43.58175    -43.40306    43.58175    -0.00020    133.58175
3974668299.80831    -0.00020    133.38797    -43.32363    43.38797    -43.32363    43.38797    -0.00020    133.38797
3983939309.44346    -0.00021    133.19263    -43.24351    43.19263    -43.24351    43.19263    -0.00021    133.19263
3993231943.93211    -0.00021    132.99572    -43.16270    42.99572    -43.16270    42.99572    -0.00021    132.99572
4002546253.71473    -0.00021    132.79720    -43.08118    42.79720    -43.08118    42.79720    -0.00021    132.79720
4011882289.34950    -0.00022    132.59707    -42.99894    42.59707    -42.99894    42.59707    -0.00022    132.59707
4021240101.51246    -0.00022    132.39529    -42.91598    42.39529    -42.91598    42.39529    -0.00022    132.39529
4030619740.99790    -0.00023    132.19184    -42.83227    42.19184    -42.83227    42.19184    -0.00023    132.19184
4040021258.71857    -0.00023    131.98670    -42.74781    41.98670    -42.74781    41.98670    -0.00023    131.98670
4049444705.70598    -0.00024    131.77983    -42.66259    41.77983    -42.66259    41.77983    -0.00024    131.77983
4058890133.11069    -0.00024    131.57123    -42.57659    41.57123    -42.57659    41.57123    -0.00024    131.57123
4068357592.20254    -0.00024    131.36085    -42.48981    41.36085    -42.48981    41.36085    -0.00024    131.36085
4077847134.37099    -0.00025    131.14867    -42.40223    41.14867    -42.40223    41.14867    -0.00025    131.14867
4087358811.12531    -0.00025    130.93467    -42.31383    40.93467    -42.31383    40.93467    -0.00025    130.93467
4096892674.09499    -0.00026    130.71882    -42.22461    40.71882    -42.22461    40.71882    -0.00026    130.71882
4106448775.02989    -0.00027    130.50108    -42.13455    40.50108    -42.13455    40.50108    -0.00027    130.50108
4116027165.80062    -0.00027    130.28144    -42.04364    40.28144    -42.04364    40.28144    -0.00027    130.28144
4125627898.39874    -0.00028    130.05986    -41.95186    40.05986    -41.95186    40.05986    -0.00028    130.05986
4135251024.93713    -0.00028    129.83630    -41.85920    39.83630    -41.85920    39.83630    -0.00028    129.83630
4144896597.65016    -0.00029    129.61074    -41.76565    39.61074    -41.76565    39.61074    -0.00029    129.61074
4154564668.89409    -0.00030    129.38315    -41.67119    39.38315    -41.67119    39.38315    -0.00030    129.38315
4164255291.14728    -0.00030    129.15350    -41.57580    39.15350    -41.57580    39.15350    -0.00030    129.15350
4173968517.01052    -0.00031    128.92174    -41.47948    38.92174    -41.47948    38.92174    -0.00031    128.92174
4183704399.20725    -0.00032    128.68785    -41.38220    38.68785    -41.38220    38.68785    -0.00032    128.68785
4193462990.58395    -0.00032    128.45179    -41.28396    38.45179    -41.28396    38.45179    -0.00032    128.45179
4203244344.11029    -0.00033    128.21352    -41.18472    38.21352    -41.18472    38.21352    -0.00033    128.21352
4213048512.87956    -0.00034    127.97302    -41.08449    37.97302    -41.08449    37.97302    -0.00034    127.97302
4222875550.10884    -0.00035    127.73024    -40.98324    37.73024    -40.98324    37.73024    -0.00035    127.73024
4232725509.13939    -0.00035    127.48513    -40.88095    37.48513    -40.88095    37.48513    -0.00035    127.48513
4242598443.43685    -0.00036    127.23768    -40.77761    37.23768    -40.77761    37.23768    -0.00036    127.23768
4252494406.59160    -0.00037    126.98782    -40.67319    36.98782    -40.67319    36.98782    -0.00037    126.98782
4262413452.31897    -0.00038    126.73553    -40.56769    36.73553    -40.56769    36.73553    -0.00038    126.73553
4272355634.45965    -0.00039    126.48076    -40.46108    36.48076    -40.46108    36.48076    -0.00039    126.48076
4282321006.97986    -0.00040    126.22346    -40.35334    36.22346    -40.35334    36.22346    -0.00040    126.22346
4292309623.97174    -0.00041    125.96360    -40.24446    35.96360    -40.24446    35.96360    -0.00041    125.96360
4302321539.65357    -0.00042    125.70112    -40.13441    35.70112    -40.13441    35.70112    -0.00042    125.70112
4312356808.37010    -0.00043    125.43598    -40.02317    35.43598    -40.02317    35.43598    -0.00043    125.43598
4322415484.59287    -0.00044    125.16814    -39.91073    35.16814    -39.91073    35.16814    -0.00044    125.16814
4332497622.92042    -0.00046    124.89753    -39.79706    34.89753    -39.79706    34.89753    -0.00046    124.89753
4342603278.07870    -0.00047    124.62412    -39.68214    34.62412    -39.68214    34.62412    -0.00047    124.62412
4352732504.92127    -0.00048    124.34784    -39.56596    34.34784    -39.56596    34.34784    -0.00048    124.34784
4362885358.42965    -0.00049    124.06866    -39.44847    34.06866    -39.44847    34.06866    -0.00049    124.06866
4373061893.71362    -0.00051    123.78650    -39.32968    33.78650    -39.32968    33.78650    -0.00051    123.78650
4383262166.01151    -0.00052    123.50132    -39.20954    33.50132    -39.20954    33.50132    -0.00052    123.50132
4393486230.69043    -0.00054    123.21306    -39.08804    33.21306    -39.08804    33.21306    -0.00054    123.21306
4403734143.24671    -0.00055    122.92166    -38.96515    32.92166    -38.96515    32.92166    -0.00055    122.92166
4414005959.30609    -0.00057    122.62706    -38.84085    32.62706    -38.84085    32.62706    -0.00057    122.62706
4424301734.62408    -0.00058    122.32919    -38.71512    32.32919    -38.71512    32.32919    -0.00058    122.32919
4434621525.08622    -0.00060    122.02799    -38.58791    32.02799    -38.58791    32.02799    -0.00060    122.02799
4444965386.70842    -0.00062    121.72340    -38.45922    31.72340    -38.45922    31.72340    -0.00062    121.72340
4455333375.63724    -0.00064    121.41534    -38.32901    31.41534    -38.32901    31.41534    -0.00064    121.41534
4465725548.15019    -0.00066    121.10375    -38.19726    31.10375    -38.19726    31.10375    -0.00066    121.10375
4476141960.65607    -0.00068    120.78856    -38.06393    30.78856    -38.06393    30.78856    -0.00068    120.78856
4486582669.69526    -0.00070    120.46968    -37.92899    30.46968    -37.92899    30.46968    -0.00070    120.46968
4497047731.93999    -0.00072    120.14705    -37.79243    30.14705    -37.79243    30.14705    -0.00072    120.14705
4507537204.19471    -0.00075    119.82059    -37.65420    29.82059    -37.65420    29.82059    -0.00075    119.82059
4518051143.39638    -0.00077    119.49020    -37.51428    29.49020    -37.51428    29.49020    -0.00077    119.49020
4528589606.61470    -0.00080    119.15582    -37.37263    29.15582    -37.37263    29.15582    -0.00080    119.15582
4539152651.05255    -0.00082    118.81735    -37.22922    28.81735    -37.22922    28.81735    -0.00082    118.81735
4549740334.04622    -0.00085    118.47471    -37.08402    28.47471    -37.08402    28.47471    -0.00085    118.47471
4560352713.06573    -0.00088    118.12780    -36.93699    28.12780    -36.93699    28.12780    -0.00088    118.12780
4570989845.71515    -0.00091    117.77653    -36.78810    27.77653    -36.78810    27.77653    -0.00091    117.77653
4581651789.73294    -0.00094    117.42081    -36.63732    27.42081    -36.63732    27.42081    -0.00094    117.42081
4592338602.99221    -0.00098    117.06052    -36.48460    27.06052    -36.48460    27.06052    -0.00098    117.06052
4603050343.50105    -0.00101    116.69557    -36.32991    26.69557    -36.32991    26.69557    -0.00101    116.69557
4613787069.40287    -0.00105    116.32585    -36.17321    26.32585    -36.17321    26.32585    -0.00105    116.32585
4624548838.97671    -0.00109    115.95125    -36.01446    25.95125    -36.01446    25.95125    -0.00109    115.95125
4635335710.63754    -0.00113    115.57165    -35.85362    25.57165    -35.85362    25.57165    -0.00113    115.57165
4646147742.93659    -0.00117    115.18693    -35.69065    25.18693    -35.69065    25.18693    -0.00117    115.18693
4656984994.56164    -0.00122    114.79698    -35.52550    24.79698    -35.52550    24.79698    -0.00122    114.79698
4667847524.33738    -0.00126    114.40166    -35.35814    24.40166    -35.35814    24.40166    -0.00126    114.40166
4678735391.22571    -0.00132    114.00085    -35.18852    24.00085    -35.18852    24.00085    -0.00132    114.00085
4689648654.32605    -0.00137    113.59441    -35.01659    23.59441    -35.01659    23.59441    -0.00137    113.59441
4700587372.87568    -0.00142    113.18219    -34.84230    23.18219    -34.84230    23.18219    -0.00142    113.18219
4711551606.25005    -0.00148    112.76405    -34.66562    22.76405    -34.66562    22.76405    -0.00148    112.76405
4722541413.96313    -0.00155    112.33984    -34.48648    22.33984    -34.48648    22.33984    -0.00155    112.33984
4733556855.66763    -0.00161    111.90940    -34.30484    21.90940    -34.30484    21.90940    -0.00161    111.90940
4744597991.15548    -0.00168    111.47257    -34.12064    21.47257    -34.12064    21.47257    -0.00168    111.47257
4755664880.35805    -0.00176    111.02918    -33.93384    21.02918    -33.93384    21.02918    -0.00176    111.02918
4766757583.34649    -0.00183    110.57906    -33.74438    20.57906    -33.74438    20.57906    -0.00183    110.57906
4777876160.33210    -0.00192    110.12202    -33.55220    20.12202    -33.55220    20.12202    -0.00192    110.12202
4789020671.66659    -0.00201    109.65787    -33.35724    19.65787    -33.35724    19.65787    -0.00201    109.65787
4800191177.84245    -0.00210    109.18641    -33.15945    19.18641    -33.15945    19.18641    -0.00210    109.18641
4811387739.49327    -0.00220    108.70744    -32.95876    18.70744    -32.95876    18.70744    -0.00220    108.70744
4822610417.39408    -0.00230    108.22075    -32.75511    18.22075    -32.75511    18.22075    -0.00230    108.22075
4833859272.46166    -0.00242    107.72612    -32.54844    17.72612    -32.54844    17.72612    -0.00242    107.72612
4845134365.75489    -0.00254    107.22330    -32.33868    17.22330    -32.33868    17.22330    -0.00254    107.22330
4856435758.47505    -0.00266    106.71207    -32.12576    16.71207    -32.12576    16.71207    -0.00266    106.71207
4867763511.96623    -0.00280    106.19216    -31.90961    16.19216    -31.90961    16.19216    -0.00280    106.19216
4879117687.71550    -0.00294    105.66332    -31.69017    15.66332    -31.69017    15.66332    -0.00294    105.66332
4890498347.35345    -0.00310    105.12528    -31.46735    15.12528    -31.46735    15.12528    -0.00310    105.12528
4901905552.65438    -0.00326    104.57773    -31.24108    14.57773    -31.24108    14.57773    -0.00326    104.57773
4913339365.53670    -0.00344    104.02039    -31.01128    14.02039    -31.01128    14.02039    -0.00344    104.02039
4924799848.06322    -0.00363    103.45295    -30.77787    13.45295    -30.77787    13.45295    -0.00363    103.45295
4936287062.44156    -0.00384    102.87507    -30.54076    12.87507    -30.54076    12.87507    -0.00384    102.87507
4947801071.02436    -0.00406    102.28640    -30.29988    12.28640    -30.29988    12.28640    -0.00406    102.28640
4959341936.30977    -0.00429    101.68660    -30.05512    11.68660    -30.05512    11.68660    -0.00429    101.68660
4970909720.94171    -0.00454    101.07528    -29.80641    11.07528    -29.80641    11.07528    -0.00454    101.07528
4982504487.71019    -0.00482    100.45204    -29.55364    10.45204    -29.55364    10.45204    -0.00482    100.45204
4994126299.55169    -0.00511    99.81647    -29.29672    9.81647    -29.29672    9.81647    -0.00511    99.81647
5005775219.54951    -0.00543    99.16813    -29.03554    9.16813    -29.03554    9.16813    -0.00543    99.16813
5017451310.93408    -0.00577    98.50656    -28.77000    8.50656    -28.77000    8.50656    -0.00577    98.50656
5029154637.08329    -0.00614    97.83128    -28.50000    7.83128    -28.50000    7.83128    -0.00614    97.83128
5040885261.52291    -0.00654    97.14177    -28.22543    7.14177    -28.22543    7.14177    -0.00654    97.14177
5052643247.92684    -0.00697    96.43749    -27.94616    6.43749    -27.94616    6.43749    -0.00697    96.43749
5064428660.11753    -0.00745    95.71789    -27.66208    5.71789    -27.66208    5.71789    -0.00745    95.71789
5076241562.06632    -0.00796    94.98234    -27.37307    4.98234    -27.37307    4.98234    -0.00796    94.98234
5088082017.89368    -0.00852    94.23023    -27.07899    4.23023    -27.07899    4.23023    -0.00852    94.23023
5099950091.86972    -0.00913    93.46087    -26.77973    3.46087    -26.77973    3.46087    -0.00913    93.46087
5111845848.41444    -0.00979    92.67355    -26.47514    2.67355    -26.47514    2.67355    -0.00979    92.67355
5123769352.09809    -0.01051    91.86752    -26.16507    1.86752    -26.16507    1.86752    -0.01051    91.86752
5135720667.64156    -0.01131    91.04198    -25.84939    1.04198    -25.84939    1.04198    -0.01131    91.04198
5147699859.91667    -0.01218    90.19607    -25.52794    0.19607    -25.52794    0.19607    -0.01218    90.19607
5159706993.94656    -0.01313    89.32887    -25.20057    -0.67113    -25.20057    -0.67113    -0.01313    89.32887
5171742134.90608    -0.01418    88.43944    -24.86711    -1.56056    -24.86711    -1.56056    -0.01418    88.43944
5183805348.12203    -0.01534    87.52672    -24.52738    -2.47328    -24.52738    -2.47328    -0.01534    87.52672
5195896699.07363    -0.01661    86.58962    -24.18123    -3.41038    -24.18123    -3.41038    -0.01661    86.58962
5208016253.39285    -0.01802    85.62695    -23.82846    -4.37305    -23.82846    -4.37305    -0.01802    85.62695
5220164076.86470    -0.01958    84.63746    -23.46888    -5.36254    -23.46888    -5.36254    -0.01958    84.63746
5232340235.42770    -0.02131    83.61979    -23.10230    -6.38021    -23.10230    -6.38021    -0.02131    83.61979
5244544795.17408    -0.02323    82.57247    -22.72851    -7.42753    -22.72851    -7.42753    -0.02323    82.57247
5256777822.35031    -0.02537    81.49395    -22.34731    -8.50605    -22.34731    -8.50605    -0.02537    81.49395
5269039383.35736    -0.02775    80.38254    -21.95847    -9.61746    -21.95847    -9.61746    -0.02775    80.38254
5281329544.75107    -0.03042    79.23641    -21.56177    -10.76359    -21.56177    -10.76359    -0.03042    79.23641
5293648373.24254    -0.03340    78.05359    -21.15697    -11.94641    -21.15697    -11.94641    -0.03340    78.05359
5305995935.69846    -0.03675    76.83195    -20.74383    -13.16805    -20.74383    -13.16805    -0.03675    76.83195
5318372299.14150    -0.04051    75.56919    -20.32209    -14.43081    -20.32209    -14.43081    -0.04051    75.56919
5330777530.75067    -0.04476    74.26278    -19.89150    -15.73722    -19.89150    -15.73722    -0.04476    74.26278
5343211697.86163    -0.04955    72.91000    -19.45179    -17.09000    -19.45179    -17.09000    -0.04955    72.91000
5355674867.96716    -0.05499    71.50786    -19.00268    -18.49214    -19.00268    -18.49214    -0.05499    71.50786
5368167108.71743    -0.06116    70.05311    -18.54390    -19.94689    -18.54390    -19.94689    -0.06116    70.05311
5380688487.92043    -0.06818    68.54217    -18.07515    -21.45783    -18.07515    -21.45783    -0.06818    68.54217
5393239073.54232    -0.07620    66.97115    -17.59615    -23.02885    -17.59615    -23.02885    -0.07620    66.97115
5405818933.70774    -0.08539    65.33575    -17.10661    -24.66425    -17.10661    -24.66425    -0.08539    65.33575
5418428136.70028    -0.09593    63.63124    -16.60623    -26.36876    -16.60623    -26.36876    -0.09593    63.63124
5431066750.96280    -0.10807    61.85241    -16.09473    -28.14759    -16.09473    -28.14759    -0.10807    61.85241
5443734845.09779    -0.12209    59.99353    -15.57183    -30.00647    -15.57183    -30.00647    -0.12209    59.99353
5456432487.86777    -0.13834    58.04822    -15.03728    -31.95178    -15.03728    -31.95178    -0.13834    58.04822
5469159748.19564    -0.15723    56.00945    -14.49085    -33.99055    -14.49085    -33.99055    -0.15723    56.00945
5481916695.16509    -0.17926    53.86943    -13.93234    -36.13057    -13.93234    -36.13057    -0.17926    53.86943
5494703398.02088    -0.20504    51.61951    -13.36160    -38.38049    -13.36160    -38.38049    -0.20504    51.61951
5507519926.16936    -0.23531    49.25009    -12.77857    -40.74991    -12.77857    -40.74991    -0.23531    49.25009
5520366349.17875    -0.27098    46.75058    -12.18326    -43.24942    -12.18326    -43.24942    -0.27098    46.75058
5533242736.77952    -0.31316    44.10921    -11.57582    -45.89079    -11.57582    -45.89079    -0.31316    44.10921
5546149158.86482    -0.36321    41.31303    -10.95655    -48.68697    -10.95655    -48.68697    -0.36321    41.31303
5559085685.49079    -0.42282    38.34782    -10.32598    -51.65218    -10.32598    -51.65218    -0.42282    38.34782
5572052386.87699    -0.49404    35.19806    -9.68489    -54.80194    -9.68489    -54.80194    -0.49404    35.19806
5585049333.40680    -0.57942    31.84698    -9.03442    -58.15302    -9.03442    -58.15302    -0.57942    31.84698
5598076595.62773    -0.68207    28.27671    -8.37610    -61.72329    -8.37610    -61.72329    -0.68207    28.27671
5611134244.25187    -0.80584    24.46857    -7.71203    -65.53143    -7.71203    -65.53143    -0.80584    24.46857
5624222350.15623    -0.95540    20.40359    -7.04492    -69.59641    -7.04492    -69.59641    -0.95540    20.40359
5637340984.38318    -1.13644    16.06330    -6.37823    -73.93670    -6.37823    -73.93670    -1.13644    16.06330
5650490218.14073    -1.35576    11.43086    -5.71626    -78.56914    -5.71626    -78.56914    -1.35576    11.43086
5663670122.80302    -1.62149    6.49270    -5.06424    -83.50730    -5.06424    -83.50730    -1.62149    6.49270
5676880769.91070    -1.94308    1.24044    -4.42831    -88.75956    -4.42831    -88.75956    -1.94308    1.24044
5690122231.17126    -2.33135    -4.32672    -3.81542    -94.32672    -3.81542    -94.32672    -2.33135    -4.32672
5703394578.45944    -2.79837    -10.19958    -3.23311    -100.19958    -3.23311    -100.19958    -2.79837    -10.19958
5716697883.81768    -3.35720    -16.35686    -2.68907    -106.35686    -2.68907    -106.35686    -3.35720    -16.35686
5730032219.45638    -4.02159    -22.76400    -2.19058    -112.76400    -2.19058    -112.76400    -4.02159    -22.76400
5743397657.75444    -4.80560    -29.37348    -1.74382    -119.37348    -1.74382    -119.37348    -4.80560    -29.37348
5756794271.25956    -5.72337    -36.12705    -1.35316    -126.12705    -1.35316    -126.12705    -5.72337    -36.12705
5770222132.68865    -6.78931    -42.95987    -1.02068    -132.95987    -1.02068    -132.95987    -6.78931    -42.95987
5783681314.92827    -8.01887    -49.80591    -0.74586    -139.80591    -0.74586    -139.80591    -8.01887    -49.80591
5797171891.03495    -9.43032    -56.60356    -0.52574    -146.60356    -0.52574    -146.60356    -9.43032    -56.60356
5810693934.23566    -11.04788    -63.30042    -0.35534    -153.30042    -0.35534    -153.30042    -11.04788    -63.30042
5824247517.92812    -12.90715    -69.85631    -0.22826    -159.85631    -0.22826    -159.85631    -12.90715    -69.85631
5837832715.68132    -15.06484    -76.24437    -0.13745    -166.24437    -0.13745    -166.24437    -15.06484    -76.24437
5851449601.23580    -17.61837    -82.45040    -0.07581    -172.45040    -0.07581    -172.45040    -17.61837    -82.45040
5865098248.50412    -20.75186    -88.47103    -0.03668    -178.47103    -0.03668    -178.47103    -20.75186    -88.47103
5878778731.57126    -24.87226    -94.31131    -0.01417    175.68869    -0.01417    175.68869    -24.87226    -94.31131
5892491124.69499    -31.20204    -99.98225    -0.00329    170.01775    -0.00329    170.01775    -31.20204    -99.98225
5906235502.30626    -50.73121    -105.49864    -0.00004    164.50136    -0.00004    164.50136    -50.73121    -105.49864
5920011939.00968    -35.33996    69.12281    -0.00127    159.12281    -0.00127    159.12281    -35.33996    69.12281
5933820509.58384    -29.68034    63.86481    -0.00468    153.86481    -0.00468    153.86481    -29.68034    63.86481
5947661288.98178    -27.02140    58.71048    -0.00863    148.71048    -0.00863    148.71048    -27.02140    58.71048
5961534352.33136    -25.56440    53.64404    -0.01208    143.64404    -0.01208    143.64404    -25.56440    53.64404
5975439774.93566    -24.79716    48.65119    -0.01441    138.65119    -0.01441    138.65119    -24.79716    48.65119
5989377632.27346    -24.51108    43.71937    -0.01540    133.71937    -0.01540    133.71937    -24.51108    43.71937
6003347999.99951    -24.61240    38.83779    -0.01504    128.83779    -0.01504    128.83779    -24.61240    38.83779
6017350953.94509    -25.06665    33.99748    -0.01355    123.99748    -0.01355    123.99748    -25.06665    33.99748
6031386570.11835    -25.88214    29.19117    -0.01122    119.19117    -0.01122    119.19117    -25.88214    29.19117
6045454924.70472    -27.11317    24.41317    -0.00845    114.41317    -0.00845    114.41317    -27.11317    24.41317
6059556094.06734    -28.88645    19.65920    -0.00562    109.65920    -0.00562    109.65920    -28.88645    19.65920
6073690154.74749    -31.48500    14.92620    -0.00309    104.92620    -0.00309    104.92620    -31.48500    14.92620
6087857183.46491    -35.66493    10.21214    -0.00118    100.21214    -0.00118    100.21214    -35.66493    10.21214
6102057257.11837    -44.93901    5.51579    -0.00014    95.51579    -0.00014    95.51579    -44.93901    5.51579
6116290452.78598    -45.15011    -179.16352    -0.00013    90.83648    -0.00013    90.83648    -45.15011    -179.16352
6130556847.72563    -35.46162    176.17399    -0.00124    86.17399    -0.00124    86.17399    -35.46162    176.17399
6144856519.37543    -31.01956    171.52825    -0.00344    81.52825    -0.00344    81.52825    -31.01956    171.52825
6159189545.35411    -28.15796    166.89927    -0.00664    76.89927    -0.00664    76.89927    -28.15796    166.89927
6173556003.46146    -26.09235    162.28692    -0.01069    72.28692    -0.01069    72.28692    -26.09235    162.28692
6187955971.67869    -24.51973    157.69087    -0.01537    67.69087    -0.01537    67.69087    -24.51973    157.69087
6202389528.16895    -23.29098    153.11049    -0.02040    63.11049    -0.02040    63.11049    -23.29098    153.11049
6216856751.27771    -22.32205    148.54477    -0.02552    58.54477    -0.02552    58.54477    -22.32205    148.54477
6231357719.53316    -21.56148    143.99235    -0.03042    53.99235    -0.03042    53.99235    -21.56148    143.99235
6245892511.64670    -20.97618    139.45145    -0.03483    49.45145    -0.03483    49.45145    -20.97618    139.45145
6260461206.51324    -20.54445    134.91995    -0.03848    44.91995    -0.03848    44.91995    -20.54445    134.91995
6275063883.21180    -20.25235    130.39544    -0.04117    40.39544    -0.04117    40.39544    -20.25235    130.39544
6289700621.00581    -20.09170    125.87521    -0.04273    35.87521    -0.04273    35.87521    -20.09170    125.87521
6304371499.34361    -20.05906    121.35641    -0.04306    31.35641    -0.04306    31.35641    -20.05906    121.35641
6319076597.85883    -20.15538    116.83611    -0.04211    26.83611    -0.04211    26.83611    -20.15538    116.83611
6333815996.37086    -20.38622    112.31134    -0.03992    22.31134    -0.03992    22.31134    -20.38622    112.31134
6348589774.88528    -20.76253    107.77927    -0.03659    17.77927    -0.03659    17.77927    -20.76253    107.77927
6363398013.59429    -21.30238    103.23723    -0.03230    13.23723    -0.03230    13.23723    -21.30238    103.23723
6378240792.87708    -22.03406    98.68284    -0.02727    8.68284    -0.02727    8.68284    -22.03406    98.68284
6393118193.30040    -23.00203    94.11409    -0.02181    4.11409    -0.02181    4.11409    -23.00203    94.11409
6408030295.61888    -24.27877    89.52941    -0.01624    -0.47059    -0.01624    -0.47059    -24.27877    89.52941
6422977180.77554    -25.99109    84.92771    -0.01095    -5.07229    -0.01095    -5.07229    -25.99109    84.92771
6437958929.90221    -28.38862    80.30846    -0.00630    -9.69154    -0.00630    -9.69154    -28.38862    80.30846
6452975624.31989    -32.07526    75.67169    -0.00269    -14.32831    -0.00269    -14.32831    -32.07526    75.67169
6468027345.53933    -39.34110    71.01800    -0.00051    -18.98200    -0.00051    -18.98200    -39.34110    71.01800
6483114175.26141    -47.65547    -113.65146    -0.00007    -23.65146    -0.00007    -23.65146    -47.65547    -113.65146
6498236195.37754    -34.09077    -118.33503    -0.00169    -28.33503    -0.00169    -28.33503    -34.09077    -118.33503
6513393487.97018    -28.90606    -123.03063    -0.00559    -33.03063    -0.00559    -33.03063    -28.90606    -123.03063
6528586135.31321    -25.62237    -127.73582    -0.01192    -37.73582    -0.01192    -37.73582    -25.62237    -127.73582
6543814219.87248    -23.22140    -132.44794    -0.02073    -42.44794    -0.02073    -42.44794    -23.22140    -132.44794
6559077824.30609    -21.34067    -137.16419    -0.03201    -47.16419    -0.03201    -47.16419    -21.34067    -137.16419
6574377031.46504    -19.80872    -141.88181    -0.04562    -51.88181    -0.04562    -51.88181    -19.80872    -141.88181
6589711924.39354    -18.53062    -146.59816    -0.06135    -56.59816    -0.06135    -56.59816    -18.53062    -146.59816
6605082586.32950    -17.44827    -151.31089    -0.07887    -61.31089    -0.07887    -61.31089    -17.44827    -151.31089
6620489100.70503    -16.52349    -156.01802    -0.09779    -66.01802    -0.09779    -66.01802    -16.52349    -156.01802
6635931551.14675    -15.72985    -160.71808    -0.11767    -70.71808    -0.11767    -70.71808    -15.72985    -160.71808
6651410021.47643    -15.04831    -165.41013    -0.13799    -75.41013    -0.13799    -75.41013    -15.04831    -165.41013
6666924595.71133    -14.46478    -170.09388    -0.15819    -80.09388    -0.15819    -80.09388    -14.46478    -170.09388
6682475358.06468    -13.96860    -174.76968    -0.17774    -84.76968    -0.17774    -84.76968    -13.96860    -174.76968
6698062392.94613    -13.55162    -179.43858    -0.19606    -89.43858    -0.19606    -89.43858    -13.55162    -179.43858
6713685784.96223    -13.20760    175.89776    -0.21262    -94.10224    -0.21262    -94.10224    -13.20760    175.89776
6729345618.91687    -12.93181    171.23702    -0.22693    -98.76298    -0.22693    -98.76298    -12.93181    171.23702
6745041979.81178    -12.72076    166.57634    -0.23855    -103.42366    -0.23855    -103.42366    -12.72076    166.57634
6760774952.84689    -12.57203    161.91232    -0.24710    -108.08768    -0.24710    -108.08768    -12.57203    161.91232
6776544623.42090    -12.48419    157.24117    -0.25230    -112.75883    -0.25230    -112.75883    -12.48419    157.24117
6792351077.13173    -12.45672    152.55876    -0.25395    -117.44124    -0.25395    -117.44124    -12.45672    152.55876
6808194399.77691    -12.49002    147.86075    -0.25195    -122.13925    -0.25195    -122.13925    -12.49002    147.86075
6824074677.35415    -12.58541    143.14268    -0.24632    -126.85732    -0.24632    -126.85732    -12.58541    143.14268
6839991996.06168    -12.74523    138.40009    -0.23717    -131.59991    -0.23717    -131.59991    -12.74523    138.40009
6855946442.29885    -12.97298    133.62867    -0.22474    -136.37133    -0.22474    -136.37133    -12.97298    133.62867
6871938102.66652    -13.27348    128.82436    -0.20934    -141.17564    -0.20934    -141.17564    -13.27348    128.82436
6887967063.96754    -13.65317    123.98346    -0.19143    -146.01654    -0.19143    -146.01654    -13.65317    123.98346
6904033413.20723    -14.12058    119.10280    -0.17150    -150.89720    -0.17150    -150.89720    -14.12058    119.10280
6920137237.59388    -14.68691    114.17980    -0.15017    -155.82020    -0.15017    -155.82020    -14.68691    114.17980
6936278624.53918    -15.36714    109.21259    -0.12807    -160.78741    -0.12807    -160.78741    -15.36714    109.21259
6952457661.65866    -16.18156    104.20008    -0.10590    -165.79992    -0.10590    -165.79992    -16.18156    104.20008
6968674436.77228    -17.15857    99.14203    -0.08436    -170.85797    -0.08436    -170.85797    -17.15857    99.14203
6984929037.90483    -18.33944    94.03902    -0.06413    -175.96098    -0.06413    -175.96098    -18.33944    94.03902
7001221553.28641    -19.78759    88.89251    -0.04585    178.89251    -0.04585    178.89251    -19.78759    88.89251
7017552071.35291    -21.60802    83.70469    -0.03009    173.70469    -0.03009    173.70469    -21.60802    83.70469
7033920680.74654    -23.99467    78.47846    -0.01735    168.47846    -0.01735    168.47846    -23.99467    78.47846
7050327470.31619    -27.37307    73.21724    -0.00796    163.21724    -0.00796    163.21724    -27.37307    73.21724
7066772529.11807    -33.03828    67.92480    -0.00216    157.92480    -0.00216    157.92480    -33.03828    67.92480
7083255946.41608    -54.61946    62.60507    -0.00001    152.60507    -0.00001    152.60507    -54.61946    62.60507
7099777811.68233    -34.76455    -122.73810    -0.00145    147.26190    -0.00145    147.26190    -34.76455    -122.73810
7116338214.59765    -28.43380    -128.10112    -0.00623    141.89888    -0.00623    141.89888    -28.43380    -128.10112
7132937245.05203    -24.92511    -133.48096    -0.01399    136.51904    -0.01399    136.51904    -24.92511    -133.48096
7149574993.14515    -22.54385    -138.87525    -0.02424    131.12475    -0.02424    131.12475    -22.54385    -138.87525
7166251549.18680    -20.78584    -144.28251    -0.03639    125.71749    -0.03639    125.71749    -20.78584    -144.28251
7182967003.69747    -19.43184    -149.70222    -0.04978    120.29778    -0.04978    120.29778    -19.43184    -149.70222
7199721447.40878    -18.36684    -155.13493    -0.06372    114.86507    -0.06372    114.86507    -18.36684    -155.13493
7216514971.26399    -17.52326    -160.58229    -0.07750    109.41771    -0.07750    109.41771    -17.52326    -160.58229
7233347666.41846    -16.85838    -166.04701    -0.09046    103.95299    -0.09046    103.95299    -16.85838    -166.04701
7250219624.24023    -16.34387    -171.53280    -0.10197    98.46720    -0.10197    98.46720    -16.34387    -171.53280
7267130936.31036    -15.96044    -177.04428    -0.11151    92.95572    -0.11151    92.95572    -15.96044    -177.04428
7284081694.42362    -15.69481    177.41314    -0.11864    87.41314    -0.11864    87.41314    -15.69481    177.41314
7301071990.58884    -15.53803    171.83344    -0.12306    81.83344    -0.12306    81.83344    -15.53803    171.83344
7318101917.02949    -15.48443    166.21016    -0.12461    76.21016    -0.12461    76.21016    -15.48443    166.21016
7335171566.18413    -15.53090    160.53661    -0.12327    70.53661    -0.12327    70.53661    -15.53090    160.53661
7352281030.70697    -15.67656    154.80603    -0.11914    64.80603    -0.11914    64.80603    -15.67656    154.80603
7369430403.46832    -15.92251    149.01181    -0.11250    59.01181    -0.11250    59.01181    -15.92251    149.01181
7386619777.55508    -16.27167    143.14770    -0.10370    53.14770    -0.10370    53.14770    -16.27167    143.14770
7403849246.27131    -16.72881    137.20789    -0.09323    47.20789    -0.09323    47.20789    -16.72881    137.20789
7421118903.13870    -17.30057    131.18723    -0.08162    41.18723    -0.08162    41.18723    -17.30057    131.18723
7438428841.89710    -17.99561    125.08122    -0.06945    35.08122    -0.06945    35.08122    -17.99561    125.08122
7455779156.50501    -18.82475    118.88606    -0.05730    28.88606    -0.05730    28.88606    -18.82475    118.88606
7473169941.14001    -19.80121    112.59859    -0.04570    22.59859    -0.04570    22.59859    -19.80121    112.59859
7490601290.19946    -20.94077    106.21614    -0.03511    16.21614    -0.03511    16.21614    -20.94077    106.21614
7508073298.30084    -22.26168    99.73629    -0.02588    9.73629    -0.02588    9.73629    -22.26168    99.73629
7525586060.28235    -23.78404    93.15661    -0.01821    3.15661    -0.01821    3.15661    -23.78404    93.15661
7543139671.20340    -25.52727    86.47433    -0.01218    -3.52567    -0.01218    -3.52567    -25.52727    86.47433
7560734226.34512    -27.50351    79.68594    -0.00772    -10.31406    -0.00772    -10.31406    -27.50351    79.68594
7578369821.21091    -29.70083    72.78685    -0.00466    -17.21315    -0.00466    -17.21315    -29.70083    72.78685
7596046551.52692    -32.04459    65.77110    -0.00271    -24.22890    -0.00271    -24.22890    -32.04459    65.77110
7613764513.24254    -34.32167    58.63112    -0.00161    -31.36888    -0.00161    -31.36888    -34.32167    58.63112
7631523802.53102    -36.09017    51.35764    -0.00107    -38.64236    -0.00107    -38.64236    -36.09017    51.35764
7649324515.78994    -36.75146    43.93972    -0.00092    -46.06028    -0.00092    -46.06028    -36.75146    43.93972
7667166749.64169    -35.99706    36.36491    -0.00109    -53.63509    -0.00109    -53.63509    -35.99706    36.36491
7685050600.93408    -34.15560    28.61950    -0.00167    -61.38050    -0.00167    -61.38050    -34.15560    28.61950
7702976166.74076    -31.84406    20.68881    -0.00284    -69.31119    -0.00284    -69.31119    -31.84406    20.68881
7720943544.36185    -29.52424    12.55731    -0.00485    -77.44269    -0.00485    -77.44269    -29.52424    12.55731
7738952831.32441    -27.43492    4.20837    -0.00785    -85.79163    -0.00785    -85.79163    -27.43492    4.20837
7757004125.38301    -25.68608    -4.37657    -0.01174    -94.37657    -0.01174    -94.37657    -25.68608    -4.37657
7775097524.52020    -24.34117    -13.21997    -0.01601    -103.21997    -0.01601    -103.21997    -24.34117    -13.21997
7793233126.94709    -23.46901    -22.35157    -0.01958    -112.35157    -0.01958    -112.35157    -23.46901    -22.35157
7811411031.10390    -23.19075    -31.81355    -0.02088    -121.81355    -0.02088    -121.81355    -23.19075    -31.81355
7829631335.66039    -23.76794    -41.66790    -0.01828    -131.66790    -0.01828    -131.66790    -23.76794    -41.66790
7847894139.51653    -25.89473    -52.00551    -0.01119    -142.00551    -0.01119    -142.00551    -25.89473    -52.00551
7866199541.80297    -32.62205    -62.95593    -0.00238    -152.95593    -0.00238    -152.95593    -32.62205    -62.95593
7884547641.88156    -33.32683    105.30629    -0.00202    -164.69371    -0.00202    -164.69371    -33.32683    105.30629
7902938539.34598    -21.03471    92.56895    -0.03436    -177.43105    -0.03436    -177.43105    -21.03471    92.56895
7921372334.02209    -14.79501    78.62402    -0.14641    168.62402    -0.14641    168.62402    -14.79501    78.62402
7939849125.96871    -10.40680    63.37387    -0.41464    153.37387    -0.41464    153.37387    -10.40680    63.37387
7958369015.47800    -7.11731    47.00492    -0.93778    137.00492    -0.93778    137.00492    -7.11731    47.00492
7976932103.07607    -4.68909    30.12344    -1.80256    120.12344    -1.80256    120.12344    -4.68909    30.12344
7995538489.52350    -2.98703    13.64676    -3.03370    103.64676    -3.03370    103.64676    -2.98703    13.64676
8014188275.81591    -1.86285    -1.57337    -4.57425    88.42663    -4.57425    88.42663    -1.86285    -1.57337
8032881563.18447    -1.15422    -15.07048    -6.31930    74.92952    -6.31930    74.92952    -1.15422    -15.07048
8051618453.09653    -0.71895    -26.78242    -8.16536    63.21758    -8.16536    63.21758    -0.71895    -26.78242
8070399047.25601    -0.45355    -36.88432    -10.03636    53.11568    -10.03636    53.11568    -0.45355    -36.88432
8089223447.60415    -0.29088    -45.62974    -11.88532    44.37026    -11.88532    44.37026    -0.29088    -45.62974
8108091756.31994    -0.18993    -53.26493    -13.68657    36.73507    -13.68657    36.73507    -0.18993    -53.26493
8127004075.82071    -0.12628    -59.99832    -15.42763    30.00168    -15.42763    30.00168    -0.12628    -59.99832
8145960508.76271    -0.08545    -65.99661    -17.10351    24.00339    -17.10351    24.00339    -0.08545    -65.99661
8164961158.04154    -0.05880    -71.39033    -18.71325    18.60967    -18.71325    18.60967    -0.05880    -71.39033
8184006126.79290    -0.04112    -76.28131    -20.25796    13.71869    -20.25796    13.71869    -0.04112    -76.28131
8203095518.39303    -0.02919    -80.74935    -21.73973    9.25065    -21.73973    9.25065    -0.02919    -80.74935
8222229436.45929    -0.02102    -84.85757    -23.16104    5.14243    -23.16104    5.14243    -0.02102    -84.85757
8241407984.85075    -0.01535    -88.65645    -24.52449    1.34355    -24.52449    1.34355    -0.01535    -88.65645
8260631267.66871    -0.01135    -92.18682    -25.83265    -2.18682    -25.83265    -2.18682    -0.01135    -92.18682
8279899389.25733    -0.00850    -95.48211    -27.08798    -5.48211    -27.08798    -5.48211    -0.00850    -95.48211
8299212454.20406    -0.00644    -98.56997    -28.29284    -8.56997    -28.29284    -8.56997    -0.00644    -98.56997
8318570567.34040    -0.00493    -101.47352    -29.44946    -11.47352    -29.44946    -11.47352    -0.00493    -101.47352
8337973833.74235    -0.00382    -104.21227    -30.55997    -14.21227    -30.55997    -14.21227    -0.00382    -104.21227
8357422358.73096    -0.00299    -106.80282    -31.62645    -16.80282    -31.62645    -16.80282    -0.00299    -106.80282
8376916247.87301    -0.00236    -109.25944    -32.65086    -19.25944    -32.65086    -19.25944    -0.00236    -109.25944
8396455606.98149    -0.00188    -111.59446    -33.63513    -21.59446    -33.63513    -21.59446    -0.00188    -111.59446
8416040542.11613    -0.00151    -113.81860    -34.58117    -23.81860    -34.58117    -23.81860    -0.00151    -113.81860
8435671159.58415    -0.00123    -115.94126    -35.49083    -25.94126    -35.49083    -25.94126    -0.00123    -115.94126
8455347565.94070    -0.00100    -117.97072    -36.36594    -27.97072    -36.36594    -27.97072    -0.00100    -117.97072
8475069867.98945    -0.00083    -119.91432    -37.20829    -29.91432    -37.20829    -29.91432    -0.00083    -119.91432
8494838172.78322    -0.00069    -121.77856    -38.01970    -31.77856    -38.01970    -31.77856    -0.00069    -121.77856
8514652587.62452    -0.00057    -123.56928    -38.80191    -33.56928    -38.80191    -33.56928    -0.00057    -123.56928
8534513220.06617    -0.00048    -125.29171    -39.55667    -35.29171    -39.55667    -35.29171    -0.00048    -125.29171
8554420177.91179    -0.00041    -126.95054    -40.28572    -36.95054    -40.28572    -36.95054    -0.00041    -126.95054
8574373569.21652    -0.00035    -128.55004    -40.99073    -38.55004    -40.99073    -38.55004    -0.00035    -128.55004
8594373502.28753    -0.00030    -130.09405    -41.67338    -40.09405    -41.67338    -40.09405    -0.00030    -130.09405
8614420085.68460    -0.00025    -131.58610    -42.33531    -41.58610    -42.33531    -41.58610    -0.00025    -131.58610
8634513428.22076    -0.00022    -133.02937    -42.97813    -43.02937    -42.97813    -43.02937    -0.00022    -133.02937
8654653638.96285    -0.00019    -134.42680    -43.60340    -44.42680    -43.60340    -44.42680    -0.00019    -134.42680
8674840827.23202    -0.00016    -135.78105    -44.21265    -45.78105    -44.21265    -45.78105    -0.00016    -135.78105
8695075102.60453    -0.00014    -137.09461    -44.80740    -47.09461    -44.80740    -47.09461    -0.00014    -137.09461
8715356574.91218    -0.00013    -138.36974    -45.38911    -48.36974    -45.38911    -48.36974    -0.00013    -138.36974
8735685354.24295    -0.00011    -139.60853    -45.95921    -49.60853    -45.95921    -49.60853    -0.00011    -139.60853
8756061550.94162    -0.00010    -140.81292    -46.51911    -50.81292    -46.51911    -50.81292    -0.00010    -140.81292
8776485275.61035    -0.00009    -141.98472    -47.07019    -51.98472    -47.07019    -51.98472    -0.00009    -141.98472
8796956639.10929    -0.00008    -143.12557    -47.61379    -53.12557    -47.61379    -53.12557    -0.00008    -143.12557
8817475752.55711    -0.00007    -144.23704    -48.15127    -54.23704    -48.15127    -54.23704    -0.00007    -144.23704
8838042727.33175    -0.00006    -145.32057    -48.68393    -55.32057    -48.68393    -55.32057    -0.00006    -145.32057
8858657675.07090    -0.00005    -146.37750    -49.21309    -56.37750    -49.21309    -56.37750    -0.00005    -146.37750
8879320707.67266    -0.00005    -147.40909    -49.74009    -57.40909    -49.74009    -57.40909    -0.00005    -147.40909
8900031937.29613    -0.00004    -148.41653    -50.26624    -58.41653    -50.26624    -58.41653    -0.00004    -148.41653
8920791476.36206    -0.00004    -149.40090    -50.79290    -59.40090    -50.79290    -59.40090    -0.00004    -149.40090
8941599437.55332    -0.00003    -150.36325    -51.32145    -60.36325    -51.32145    -60.36325    -0.00003    -150.36325
8962455933.81573    -0.00003    -151.30455    -51.85334    -61.30455    -51.85334    -61.30455    -0.00003    -151.30455
8983361078.35850    -0.00003    -152.22571    -52.39005    -62.22571    -52.39005    -62.22571    -0.00003    -152.22571
9004314984.65492    -0.00002    -153.12759    -52.93317    -63.12759    -52.93317    -63.12759    -0.00002    -153.12759
9025317766.44296    -0.00002    -154.01100    -53.48439    -64.01100    -53.48439    -64.01100    -0.00002    -154.01100
9046369537.72587    -0.00002    -154.87671    -54.04551    -64.87671    -54.04551    -64.87671    -0.00002    -154.87671
9067470412.77288    -0.00001    -155.72544    -54.61853    -65.72544    -54.61853    -65.72544    -0.00001    -155.72544
9088620506.11963    -0.00001    -156.55788    -55.20564    -66.55788    -55.20564    -66.55788    -0.00001    -156.55788
9109819932.56902    -0.00001    -157.37466    -55.80928    -67.37466    -55.80928    -67.37466    -0.00001    -157.37466
9131068807.19170    -0.00001    -158.17641    -56.43221    -68.17641    -56.43221    -68.17641    -0.00001    -158.17641
9152367245.32673    -0.00001    -158.96370    -57.07762    -68.96370    -57.07762    -68.96370    -0.00001    -158.96370
9173715362.58223    -0.00001    -159.73708    -57.74917    -69.73708    -57.74917    -69.73708    -0.00001    -159.73708
9195113274.83588    -0.00001    -160.49709    -58.45119    -70.49709    -58.45119    -70.49709    -0.00001    -160.49709
9216561098.23575    -0.00001    -161.24421    -59.18884    -71.24421    -59.18884    -71.24421    -0.00001    -161.24421
9238058949.20079    -0.00000    -161.97892    -59.96838    -71.97892    -59.96838    -71.97892    -0.00000    -161.97892
9259606944.42150    -0.00000    -162.70168    -60.79755    -72.70168    -60.79755    -72.70168    -0.00000    -162.70168
9281205200.86056    -0.00000    -163.41290    -61.68605    -73.41290    -61.68605    -73.41290    -0.00000    -163.41290
9302853835.75348    -0.00000    -164.11301    -62.64638    -74.11301    -62.64638    -74.11301    -0.00000    -164.11301
9324552966.60923    -0.00000    -164.80239    -63.69502    -74.80239    -63.69502    -74.80239    -0.00000    -164.80239
9346302711.21087    -0.00000    -165.48141    -64.85438    -75.48141    -64.85438    -75.48141    -0.00000    -165.48141
9368103187.61613    -0.00000    -166.15044    -66.15611    -76.15044    -66.15611    -76.15044    -0.00000    -166.15044
9389954514.15820    -0.00000    -166.80981    -67.64704    -76.80981    -67.64704    -76.80981    -0.00000    -166.80981
9411856809.44624    -0.00000    -167.45985    -69.40089    -77.45985    -69.40089    -77.45985    -0.00000    -167.45985
9433810192.36609    -0.00000    -168.10087    -71.54388    -78.10087    -71.54388    -78.10087    -0.00000    -168.10087
9455814782.08091    -0.00000    -168.73317    -74.32090    -78.73317    -74.32090    -78.73317    -0.00000    -168.73317
9477870698.03172    -0.00000    -169.35704    -78.31611    -79.35704    -78.31611    -79.35704    -0.00000    -169.35704
9499978059.93823    -0.00000    -169.97276    -85.68633    -79.97276    -85.68633    -79.97276    -0.00000    -169.97276
9522136987.79938    -0.00000    -170.58059    -95.87339    99.41941    -95.87339    99.41941    -0.00000    -170.58059
9544347601.89400    -0.00000    -171.18078    -81.63858    98.81922    -81.63858    98.81922    -0.00000    -171.18078
9566610022.78147    -0.00000    -171.77357    -76.57819    98.22643    -76.57819    98.22643    -0.00000    -171.77357
9588924371.30239    -0.00000    -172.35921    -73.45004    97.64079    -73.45004    97.64079    -0.00000    -172.35921
9611290768.57925    -0.00000    -172.93791    -71.19058    97.06209    -71.19058    97.06209    -0.00000    -172.93791
9633709336.01696    -0.00000    -173.50989    -69.42686    96.49011    -69.42686    96.49011    -0.00000    -173.50989
9656180195.30371    -0.00000    -174.07537    -67.98388    95.92463    -67.98388    95.92463    -0.00000    -174.07537
9678703468.41150    -0.00000    -174.63454    -66.76534    95.36546    -66.76534    95.36546    -0.00000    -174.63454
9701279277.59683    -0.00000    -175.18759    -65.71256    94.81241    -65.71256    94.81241    -0.00000    -175.18759
9723907745.40140    -0.00000    -175.73472    -64.78714    94.26528    -64.78714    94.26528    -0.00000    -175.73472
9746588994.65264    -0.00000    -176.27610    -63.96258    93.72390    -63.96258    93.72390    -0.00000    -176.27610
9769323148.46459    -0.00000    -176.81192    -63.21981    93.18808    -63.21981    93.18808    -0.00000    -176.81192
9792110330.23841    -0.00000    -177.34232    -62.54466    92.65768    -62.54466    92.65768    -0.00000    -177.34232
9814950663.66309    -0.00000    -177.86749    -61.92631    92.13251    -61.92631    92.13251    -0.00000    -177.86749
9837844272.71615    -0.00000    -178.38757    -61.35633    91.61243    -61.35633    91.61243    -0.00000    -178.38757
9860791281.66427    -0.00000    -178.90272    -60.82799    91.09728    -60.82799    91.09728    -0.00000    -178.90272
9883791815.06399    -0.00000    -179.41308    -60.33587    90.58692    -60.33587    90.58692    -0.00000    -179.41308
9906845997.76243    -0.00000    -179.91880    -59.87552    90.08120    -59.87552    90.08120    -0.00000    -179.91880
9929953954.89779    -0.00000    179.57999    -59.44325    89.57999    -59.44325    89.57999    -0.00000    179.57999
9953115811.90028    -0.00001    179.08315    -59.03597    89.08315    -59.03597    89.08315    -0.00001    179.08315
9976331694.49265    -0.00001    178.59056    -58.65104    88.59056    -58.65104    88.59056    -0.00001    178.59056
9999601728.69087    -0.00001    178.10208    -58.28624    88.10208    -58.28624    88.10208    -0.00001    178.10208
10022926040.80489    -0.00001    177.61761    -57.93963    87.61761    -57.93963    87.61761    -0.00001    177.61761
10046304757.43927    -0.00001    177.13701    -57.60955    87.13701    -57.60955    87.13701    -0.00001    177.13701
10069738005.49381    -0.00001    176.66018    -57.29454    86.66018    -57.29454    86.66018    -0.00001    176.66018
10093225912.16439    -0.00001    176.18701    -56.99331    86.18701    -56.99331    86.18701    -0.00001    176.18701
10116768604.94356    -0.00001    175.71738    -56.70474    85.71738    -56.70474    85.71738    -0.00001    175.71738
10140366211.62122    -0.00001    175.25120    -56.42783    85.25120    -56.42783    85.25120    -0.00001    175.25120
10164018860.28538    -0.00001    174.78836    -56.16170    84.78836    -56.16170    84.78836    -0.00001    174.78836
10187726679.32283    -0.00001    174.32877    -55.90553    84.32877    -55.90553    84.32877    -0.00001    174.32877
10211489797.41973    -0.00001    173.87232    -55.65863    83.87232    -55.65863    83.87232    -0.00001    173.87232
10235308343.56249    -0.00001    173.41892    -55.42034    83.41892    -55.42034    83.41892    -0.00001    173.41892
10259182447.03838    -0.00001    172.96849    -55.19008    82.96849    -55.19008    82.96849    -0.00001    172.96849
10283112237.43621    -0.00001    172.52093    -54.96733    82.52093    -54.96733    82.52093    -0.00001    172.52093
10307097844.64707    -0.00001    172.07615    -54.75161    82.07615    -54.75161    82.07615    -0.00001    172.07615
10331139398.86505    -0.00002    171.63408    -54.54247    81.63408    -54.54247    81.63408    -0.00002    171.63408
10355237030.58784    -0.00002    171.19464    -54.33952    81.19464    -54.33952    81.19464    -0.00002    171.19464
10379390870.61759    -0.00002    170.75773    -54.14239    80.75773    -54.14239    80.75773    -0.00002    170.75773
10403601050.06154    -0.00002    170.32329    -53.95075    80.32329    -53.95075    80.32329    -0.00002    170.32329
10427867700.33273    -0.00002    169.89123    -53.76427    79.89123    -53.76427    79.89123    -0.00002    169.89123
10452190953.15072    -0.00002    169.46148    -53.58269    79.46148    -53.58269    79.46148    -0.00002    169.46148
10476570940.54233    -0.00002    169.03398    -53.40572    79.03398    -53.40572    79.03398    -0.00002    169.03398
10501007794.84234    -0.00002    168.60865    -53.23312    78.60865    -53.23312    78.60865    -0.00002    168.60865
10525501648.69412    -0.00002    168.18541    -53.06468    78.18541    -53.06468    78.18541    -0.00002    168.18541
10550052635.05054    -0.00002    167.76421    -52.90016    77.76421    -52.90016    77.76421    -0.00002    167.76421
10574660887.17454    -0.00002    167.34497    -52.73938    77.34497    -52.73938    77.34497    -0.00002    167.34497
10599326538.63990    -0.00002    166.92764    -52.58216    76.92764    -52.58216    76.92764    -0.00002    166.92764
10624049723.33197    -0.00002    166.51214    -52.42831    76.51214    -52.42831    76.51214    -0.00002    166.51214
10648830575.44843    -0.00003    166.09841    -52.27769    76.09841    -52.27769    76.09841    -0.00003    166.09841
10673669229.49986    -0.00003    165.68641    -52.13013    75.68641    -52.13013    75.68641    -0.00003    165.68641
10698565820.31070    -0.00003    165.27605    -51.98550    75.27605    -51.98550    75.27605    -0.00003    165.27605
10723520483.01984    -0.00003    164.86730    -51.84366    74.86730    -51.84366    74.86730    -0.00003    164.86730
10748533353.08139    -0.00003    164.46008    -51.70449    74.46008    -51.70449    74.46008    -0.00003    164.46008
10773604566.26540    -0.00003    164.05435    -51.56787    74.05435    -51.56787    74.05435    -0.00003    164.05435
10798734258.65860    -0.00003    163.65004    -51.43369    73.65004    -51.43369    73.65004    -0.00003    163.65004
10823922566.66520    -0.00003    163.24711    -51.30184    73.24711    -51.30184    73.24711    -0.00003    163.24711
10849169627.00746    -0.00003    162.84550    -51.17223    72.84550    -51.17223    72.84550    -0.00003    162.84550
10874475576.72665    -0.00003    162.44516    -51.04476    72.44516    -51.04476    72.44516    -0.00003    162.44516
10899840553.18367    -0.00004    162.04604    -50.91935    72.04604    -50.91935    72.04604    -0.00004    162.04604
10925264694.05980    -0.00004    161.64809    -50.79590    71.64809    -50.79590    71.64809    -0.00004    161.64809
10950748137.35752    -0.00004    161.25125    -50.67434    71.25125    -50.67434    71.25125    -0.00004    161.25125
10976291021.40108    -0.00004    160.85549    -50.55460    70.85549    -50.55460    70.85549    -0.00004    160.85549
11001893484.83748    -0.00004    160.46074    -50.43659    70.46074    -50.43659    70.46074    -0.00004    160.46074
11027555666.63710    -0.00004    160.06697    -50.32027    70.06697    -50.32027    70.06697    -0.00004    160.06697
11053277706.09447    -0.00004    159.67413    -50.20555    69.67413    -50.20555    69.67413    -0.00004    159.67413
11079059742.82900    -0.00004    159.28217    -50.09237    69.28217    -50.09237    69.28217    -0.00004    159.28217
11104901916.78580    -0.00004    158.89105    -49.98068    68.89105    -49.98068    68.89105    -0.00004    158.89105
11130804368.23639    -0.00004    158.50072    -49.87043    68.50072    -49.87043    68.50072    -0.00004    158.50072
11156767237.77951    -0.00005    158.11114    -49.76155    68.11114    -49.76155    68.11114    -0.00005    158.11114
11182790666.34174    -0.00005    157.72227    -49.65400    67.72227    -49.65400    67.72227    -0.00005    157.72227
11208874795.17850    -0.00005    157.33407    -49.54772    67.33407    -49.54772    67.33407    -0.00005    157.33407
11235019765.87463    -0.00005    156.94648    -49.44267    66.94648    -49.44267    66.94648    -0.00005    156.94648
11261225720.34525    -0.00005    156.55948    -49.33881    66.55948    -49.33881    66.55948    -0.00005    156.55948
11287492800.83651    -0.00005    156.17302    -49.23609    66.17302    -49.23609    66.17302    -0.00005    156.17302
11313821149.92626    -0.00005    155.78705    -49.13447    65.78705    -49.13447    65.78705    -0.00005    155.78705
11340210910.52501    -0.00005    155.40155    -49.03391    65.40155    -49.03391    65.40155    -0.00005    155.40155
11366662225.87659    -0.00006    155.01646    -48.93438    65.01646    -48.93438    65.01646    -0.00006    155.01646
11393175239.55895    -0.00006    154.63176    -48.83582    64.63176    -48.83582    64.63176    -0.00006    154.63176
11419750095.48493    -0.00006    154.24740    -48.73822    64.24740    -48.73822    64.24740    -0.00006    154.24740
11446386937.90305    -0.00006    153.86335    -48.64154    63.86335    -48.64154    63.86335    -0.00006    153.86335
11473085911.39835    -0.00006    153.47956    -48.54574    63.47956    -48.54574    63.47956    -0.00006    153.47956
11499847160.89297    -0.00006    153.09600    -48.45080    63.09600    -48.45080    63.09600    -0.00006    153.09600
11526670831.64723    -0.00006    152.71263    -48.35667    62.71263    -48.35667    62.71263    -0.00006    152.71263
11553557069.26022    -0.00006    152.32942    -48.26335    62.32942    -48.26335    62.32942    -0.00006    152.32942
11580506019.67064    -0.00007    151.94632    -48.17078    61.94632    -48.17078    61.94632    -0.00007    151.94632
11607517829.15762    -0.00007    151.56331    -48.07896    61.56331    -48.07896    61.56331    -0.00007    151.56331
11634592644.34149    -0.00007    151.18035    -47.98785    61.18035    -47.98785    61.18035    -0.00007    151.18035
11661730612.18449    -0.00007    150.79739    -47.89743    60.79739    -47.89743    60.79739    -0.00007    150.79739
11688931879.99176    -0.00007    150.41441    -47.80767    60.41441    -47.80767    60.41441    -0.00007    150.41441
11716196595.41199    -0.00007    150.03138    -47.71856    60.03138    -47.71856    60.03138    -0.00007    150.03138
11743524906.43826    -0.00007    149.64824    -47.63006    59.64824    -47.63006    59.64824    -0.00007    149.64824
11770916961.40887    -0.00008    149.26498    -47.54215    59.26498    -47.54215    59.26498    -0.00008    149.26498
11798372909.00809    -0.00008    148.88156    -47.45482    58.88156    -47.45482    58.88156    -0.00008    148.88156
11825892898.26707    -0.00008    148.49794    -47.36805    58.49794    -47.36805    58.49794    -0.00008    148.49794
11853477078.56444    -0.00008    148.11408    -47.28180    58.11408    -47.28180    58.11408    -0.00008    148.11408
11881125599.62738    -0.00008    147.72996    -47.19608    57.72996    -47.19608    57.72996    -0.00008    147.72996
11908838611.53228    -0.00008    147.34554    -47.11084    57.34554    -47.11084    57.34554    -0.00008    147.34554
11936616264.70559    -0.00009    146.96079    -47.02609    56.96079    -47.02609    56.96079    -0.00009    146.96079
11964458709.92463    -0.00009    146.57567    -46.94179    56.57567    -46.94179    56.57567    -0.00009    146.57567
11992366098.31843    -0.00009    146.19015    -46.85794    56.19015    -46.85794    56.19015    -0.00009    146.19015
12020338581.36844    -0.00009    145.80420    -46.77451    55.80420    -46.77451    55.80420    -0.00009    145.80420
12048376310.90956    -0.00009    145.41778    -46.69149    55.41778    -46.69149    55.41778    -0.00009    145.41778
12076479439.13081    -0.00009    145.03086    -46.60887    55.03086    -46.60887    55.03086    -0.00009    145.03086
12104648118.57616    -0.00010    144.64340    -46.52663    54.64340    -46.52663    54.64340    -0.00010    144.64340
12132882502.14545    -0.00010    144.25539    -46.44474    54.25539    -46.44474    54.25539    -0.00010    144.25539
12161182743.09517    -0.00010    143.86677    -46.36321    53.86677    -46.36321    53.86677    -0.00010    143.86677
12189548995.03915    -0.00010    143.47752    -46.28201    53.47752    -46.28201    53.47752    -0.00010    143.47752
12217981411.94967    -0.00010    143.08761    -46.20113    53.08761    -46.20113    53.08761    -0.00010    143.08761
12246480148.15812    -0.00011    142.69700    -46.12056    52.69700    -46.12056    52.69700    -0.00011    142.69700
12275045358.35586    -0.00011    142.30566    -46.04029    52.30566    -46.04029    52.30566    -0.00011    142.30566
12303677197.59507    -0.00011    141.91356    -45.96029    51.91356    -45.96029    51.91356    -0.00011    141.91356
12332375821.28963    -0.00011    141.52066    -45.88056    51.52066    -45.88056    51.52066    -0.00011    141.52066
12361141385.21582    -0.00011    141.12694    -45.80109    51.12694    -45.80109    51.12694    -0.00011    141.12694
12389974045.51338    -0.00012    140.73235    -45.72187    50.73235    -45.72187    50.73235    -0.00012    140.73235
12418873958.68621    -0.00012    140.33687    -45.64288    50.33687    -45.64288    50.33687    -0.00012    140.33687
12447841281.60328    -0.00012    139.94046    -45.56410    49.94046    -45.56410    49.94046    -0.00012    139.94046
12476876171.49942    -0.00012    139.54309    -45.48554    49.54309    -45.48554    49.54309    -0.00012    139.54309
12505978785.97625    -0.00013    139.14473    -45.40718    49.14473    -45.40718    49.14473    -0.00013    139.14473
12535149283.00303    -0.00013    138.74534    -45.32900    48.74534    -45.32900    48.74534    -0.00013    138.74534
12564387820.91736    -0.00013    138.34490    -45.25101    48.34490    -45.25101    48.34490    -0.00013    138.34490
12593694558.42629    -0.00013    137.94336    -45.17318    47.94336    -45.17318    47.94336    -0.00013    137.94336
12623069654.60702    -0.00013    137.54069    -45.09550    47.54069    -45.09550    47.54069    -0.00013    137.54069
12652513268.90780    -0.00014    137.13687    -45.01798    47.13687    -45.01798    47.13687    -0.00014    137.13687
12682025561.14880    -0.00014    136.73185    -44.94059    46.73185    -44.94059    46.73185    -0.00014    136.73185
12711606691.52301    -0.00014    136.32560    -44.86333    46.32560    -44.86333    46.32560    -0.00014    136.32560
12741256820.59695    -0.00014    135.91810    -44.78619    45.91810    -44.78619    45.91810    -0.00014    135.91810
12770976109.31179    -0.00015    135.50929    -44.70915    45.50929    -44.70915    45.50929    -0.00015    135.50929
12800764718.98407    -0.00015    135.09916    -44.63222    45.09916    -44.63222    45.09916    -0.00015    135.09916
12830622811.30659    -0.00015    134.68767    -44.55537    44.68767    -44.55537    44.68767    -0.00015    134.68767
12860550548.34930    -0.00015    134.27478    -44.47861    44.27478    -44.47861    44.27478    -0.00015    134.27478
12890548092.56019    -0.00016    133.86046    -44.40192    43.86046    -44.40192    43.86046    -0.00016    133.86046
12920615606.76622    -0.00016    133.44467    -44.32530    43.44467    -44.32530    43.44467    -0.00016    133.44467
12950753254.17399    -0.00016    133.02737    -44.24873    43.02737    -44.24873    43.02737    -0.00016    133.02737
12980961198.37093    -0.00017    132.60854    -44.17221    42.60854    -44.17221    42.60854    -0.00017    132.60854
13011239603.32600    -0.00017    132.18814    -44.09572    42.18814    -44.09572    42.18814    -0.00017    132.18814
13041588633.39061    -0.00017    131.76612    -44.01927    41.76612    -44.01927    41.76612    -0.00017    131.76612
13072008453.29959    -0.00018    131.34246    -43.94284    41.34246    -43.94284    41.34246    -0.00018    131.34246
13102499228.17185    -0.00018    130.91712    -43.86643    40.91712    -43.86643    40.91712    -0.00018    130.91712
13133061123.51161    -0.00018    130.49007    -43.79002    40.49007    -43.79002    40.49007    -0.00018    130.49007
13163694305.20906    -0.00018    130.06125    -43.71361    40.06125    -43.71361    40.06125    -0.00018    130.06125
13194398939.54137    -0.00019    129.63065    -43.63720    39.63065    -43.63720    39.63065    -0.00019    129.63065
13225175193.17352    -0.00019    129.19822    -43.56076    39.19822    -43.56076    39.19822    -0.00019    129.19822
13256023233.15926    -0.00019    128.76392    -43.48430    38.76392    -43.48430    38.76392    -0.00019    128.76392
13286943226.94198    -0.00020    128.32772    -43.40782    38.32772    -43.40782    38.32772    -0.00020    128.32772
13317935342.35570    -0.00020    127.88958    -43.33129    37.88958    -43.33129    37.88958    -0.00020    127.88958
13348999747.62577    -0.00021    127.44946    -43.25471    37.44946    -43.25471    37.44946    -0.00021    127.44946
13380136611.37008    -0.00021    127.00731    -43.17808    37.00731    -43.17808    37.00731    -0.00021    127.00731
13411346102.59974    -0.00021    126.56311    -43.10139    36.56311    -43.10139    36.56311    -0.00021    126.56311
13442628390.72013    -0.00022    126.11681    -43.02463    36.11681    -43.02463    36.11681    -0.00022    126.11681
13473983645.53181    -0.00022    125.66838    -42.94780    35.66838    -42.94780    35.66838    -0.00022    125.66838
13505412037.23123    -0.00022    125.21777    -42.87088    35.21777    -42.87088    35.21777    -0.00022    125.21777
13536913736.41200    -0.00023    124.76494    -42.79387    34.76494    -42.79387    34.76494    -0.00023    124.76494
13568488914.06559    -0.00023    124.30985    -42.71676    34.30985    -42.71676    34.30985    -0.00023    124.30985
13600137741.58231    -0.00024    123.85246    -42.63955    33.85246    -42.63955    33.85246    -0.00024    123.85246
13631860390.75223    -0.00024    123.39273    -42.56223    33.39273    -42.56223    33.39273    -0.00024    123.39273
13663657033.76615    -0.00025    122.93061    -42.48478    32.93061    -42.48478    32.93061    -0.00025    122.93061
13695527843.21654    -0.00025    122.46607    -42.40721    32.46607    -42.40721    32.46607    -0.00025    122.46607
13727472992.09830    -0.00025    121.99906    -42.32951    31.99906    -42.32951    31.99906    -0.00025    121.99906
13759492653.81000    -0.00026    121.52954    -42.25167    31.52954    -42.25167    31.52954    -0.00026    121.52954
13791587002.15461    -0.00026    121.05746    -42.17368    31.05746    -42.17368    31.05746    -0.00026    121.05746
13823756211.34050    -0.00027    120.58278    -42.09553    30.58278    -42.09553    30.58278    -0.00027    120.58278
13856000455.98238    -0.00027    120.10546    -42.01723    30.10546    -42.01723    30.10546    -0.00027    120.10546
13888319911.10233    -0.00028    119.62545    -41.93875    29.62545    -41.93875    29.62545    -0.00028    119.62545
13920714752.13048    -0.00028    119.14270    -41.86010    29.14270    -41.86010    29.14270    -0.00028    119.14270
13953185154.90635    -0.00029    118.65717    -41.78126    28.65717    -41.78126    28.65717    -0.00029    118.65717
13985731295.67953    -0.00029    118.16881    -41.70224    28.16881    -41.70224    28.16881    -0.00029    118.16881
14018353351.11071    -0.00030    117.67758    -41.62302    27.67758    -41.62302    27.67758    -0.00030    117.67758
14051051498.27269    -0.00030    117.18343    -41.54359    27.18343    -41.54359    27.18343    -0.00030    117.18343
14083825914.65124    -0.00031    116.68630    -41.46395    26.68630    -41.46395    26.68630    -0.00031    116.68630
14116676778.14620    -0.00032    116.18616    -41.38409    26.18616    -41.38409    26.18616    -0.00032    116.18616
14149604267.07223    -0.00032    115.68294    -41.30400    25.68294    -41.30400    25.68294    -0.00032    115.68294
14182608560.16003    -0.00033    115.17661    -41.22368    25.17661    -41.22368    25.17661    -0.00033    115.17661
14215689836.55716    -0.00033    114.66711    -41.14312    24.66711    -41.14312    24.66711    -0.00033    114.66711
14248848275.82905    -0.00034    114.15439    -41.06231    24.15439    -41.06231    24.15439    -0.00034    114.15439
14282084057.95996    -0.00035    113.63840    -40.98124    23.63840    -40.98124    23.63840    -0.00035    113.63840
14315397363.35403    -0.00035    113.11908    -40.89991    23.11908    -40.89991    23.11908    -0.00035    113.11908
14348788372.83604    -0.00036    112.59639    -40.81830    22.59639    -40.81830    22.59639    -0.00036    112.59639
14382257267.65269    -0.00037    112.07027    -40.73641    22.07027    -40.73641    22.07027    -0.00037    112.07027
14415804229.47340    -0.00037    111.54067    -40.65424    21.54067    -40.65424    21.54067    -0.00037    111.54067
14449429440.39136    -0.00038    111.00753    -40.57177    21.00753    -40.57177    21.00753    -0.00038    111.00753
14483133082.92445    -0.00039    110.47080    -40.48900    20.47080    -40.48900    20.47080    -0.00039    110.47080
14516915340.01637    -0.00040    109.93041    -40.40592    19.93041    -40.40592    19.93041    -0.00040    109.93041
14550776395.03737    -0.00040    109.38633    -40.32251    19.38633    -40.32251    19.38633    -0.00040    109.38633
14584716431.78556    -0.00041    108.83848    -40.23878    18.83848    -40.23878    18.83848    -0.00041    108.83848
14618735634.48774    -0.00042    108.28681    -40.15471    18.28681    -40.15471    18.28681    -0.00042    108.28681
14652834187.80039    -0.00043    107.73127    -40.07029    17.73127    -40.07029    17.73127    -0.00043    107.73127
14687012276.81073    -0.00044    107.17178    -39.98552    17.17178    -39.98552    17.17178    -0.00044    107.17178
14721270087.03769    -0.00044    106.60830    -39.90039    16.60830    -39.90039    16.60830    -0.00044    106.60830
14755607804.43298    -0.00045    106.04076    -39.81489    16.04076    -39.81489    16.04076    -0.00045    106.04076
14790025615.38190    -0.00046    105.46910    -39.72900    15.46910    -39.72900    15.46910    -0.00046    105.46910
14824523706.70465    -0.00047    104.89325    -39.64273    14.89325    -39.64273    14.89325    -0.00047    104.89325
14859102265.65712    -0.00048    104.31316    -39.55605    14.31316    -39.55605    14.31316    -0.00048    104.31316
14893761479.93200    -0.00049    103.72877    -39.46896    13.72877    -39.46896    13.72877    -0.00049    103.72877
14928501537.65979    -0.00050    103.14000    -39.38146    13.14000    -39.38146    13.14000    -0.00050    103.14000
14963322627.40984    -0.00051    102.54679    -39.29353    12.54679    -39.29353    12.54679    -0.00051    102.54679
14998224938.19118    -0.00052    101.94908    -39.20515    11.94908    -39.20515    11.94908    -0.00052    101.94908
15033208659.45388    -0.00053    101.34679    -39.11633    11.34679    -39.11633    11.34679    -0.00053    101.34679
15068273981.08986    -0.00054    100.73987    -39.02705    10.73987    -39.02705    10.73987    -0.00054    100.73987
15103421093.43394    -0.00055    100.12824    -38.93730    10.12824    -38.93730    10.12824    -0.00055    100.12824
15138650187.26493    -0.00057    99.51183    -38.84706    9.51183    -38.84706    9.51183    -0.00057    99.51183
15173961453.80669    -0.00058    98.89057    -38.75633    8.89057    -38.75633    8.89057    -0.00058    98.89057
15209355084.72892    -0.00059    98.26440    -38.66510    8.26440    -38.66510    8.26440    -0.00059    98.26440
15244831272.14859    -0.00060    97.63324    -38.57335    7.63324    -38.57335    7.63324    -0.00060    97.63324
15280390208.63071    -0.00062    96.99701    -38.48107    6.99701    -38.48107    6.99701    -0.00062    96.99701
15316032087.18948    -0.00063    96.35565    -38.38825    6.35565    -38.38825    6.35565    -0.00063    96.35565
15351757101.28928    -0.00064    95.70908    -38.29488    5.70908    -38.29488    5.70908    -0.00064    95.70908
15387565444.84577    -0.00066    95.05722    -38.20094    5.05722    -38.20094    5.05722    -0.00066    95.05722
15423457312.22696    -0.00067    94.40000    -38.10642    4.40000    -38.10642    4.40000    -0.00067    94.40000
15459432898.25409    -0.00069    93.73734    -38.01130    3.73734    -38.01130    3.73734    -0.00069    93.73734
15495492398.20297    -0.00070    93.06916    -37.91558    3.06916    -37.91558    3.06916    -0.00070    93.06916
15531636007.80484    -0.00072    92.39539    -37.81923    2.39539    -37.81923    2.39539    -0.00072    92.39539
15567863923.24750    -0.00073    91.71593    -37.72225    1.71593    -37.72225    1.71593    -0.00073    91.71593
15604176341.17636    -0.00075    91.03073    -37.62461    1.03073    -37.62461    1.03073    -0.00075    91.03073
15640573458.69555    -0.00077    90.33968    -37.52631    0.33968    -37.52631    0.33968    -0.00077    90.33968
15677055473.36880    -0.00079    89.64271    -37.42732    -0.35729    -37.42732    -0.35729    -0.00079    89.64271
15713622583.22083    -0.00080    88.93973    -37.32762    -1.06027    -37.32762    -1.06027    -0.00080    88.93973
15750274986.73818    -0.00082    88.23067    -37.22721    -1.76933    -37.22721    -1.76933    -0.00082    88.23067
15787012882.87041    -0.00084    87.51542    -37.12606    -2.48458    -37.12606    -2.48458    -0.00084    87.51542
15823836471.03107    -0.00086    86.79392    -37.02415    -3.20608    -37.02415    -3.20608    -0.00086    86.79392
15860745951.09891    -0.00088    86.06606    -36.92147    -3.93394    -36.92147    -3.93394    -0.00088    86.06606
15897741523.41892    -0.00090    85.33176    -36.81799    -4.66824    -36.81799    -4.66824    -0.00090    85.33176
15934823388.80324    -0.00093    84.59094    -36.71370    -5.40906    -36.71370    -5.40906    -0.00093    84.59094
15971991748.53259    -0.00095    83.84349    -36.60857    -6.15651    -36.60857    -6.15651    -0.00095    83.84349
16009246804.35709    -0.00097    83.08933    -36.50258    -6.91067    -36.50258    -6.91067    -0.00097    83.08933
16046588758.49750    -0.00100    82.32837    -36.39571    -7.67163    -36.39571    -7.67163    -0.00100    82.32837
16084017813.64628    -0.00102    81.56051    -36.28793    -8.43949    -36.28793    -8.43949    -0.00102    81.56051
16121534172.96852    -0.00105    80.78565    -36.17922    -9.21435    -36.17922    -9.21435    -0.00105    80.78565
16159138040.10336    -0.00107    80.00371    -36.06956    -9.99629    -36.06956    -9.99629    -0.00107    80.00371
16196829619.16490    -0.00110    79.21457    -35.95891    -10.78543    -35.95891    -10.78543    -0.00110    79.21457
16234609114.74330    -0.00113    78.41816    -35.84725    -11.58184    -35.84725    -11.58184    -0.00113    78.41816
16272476731.90598    -0.00116    77.61435    -35.73455    -12.38565    -35.73455    -12.38565    -0.00116    77.61435
16310432676.19864    -0.00119    76.80307    -35.62079    -13.19693    -35.62079    -13.19693    -0.00119    76.80307
16348477153.64645    -0.00122    75.98419    -35.50592    -14.01581    -35.50592    -14.01581    -0.00122    75.98419
16386610370.75519    -0.00126    75.15763    -35.38992    -14.84237    -35.38992    -14.84237    -0.00126    75.15763
16424832534.51213    -0.00129    74.32327    -35.27275    -15.67673    -35.27275    -15.67673    -0.00129    74.32327
16463143852.38754    -0.00133    73.48101    -35.15438    -16.51899    -35.15438    -16.51899    -0.00133    73.48101
16501544532.33554    -0.00136    72.63074    -35.03477    -17.36926    -35.03477    -17.36926    -0.00136    72.63074
16540034782.79534    -0.00140    71.77237    -34.91389    -18.22763    -34.91389    -18.22763    -0.00140    71.77237
16578614812.69235    -0.00144    70.90576    -34.79168    -19.09424    -34.79168    -19.09424    -0.00144    70.90576
16617284831.43918    -0.00148    70.03083    -34.66812    -19.96917    -34.66812    -19.96917    -0.00148    70.03083
16656045048.93703    -0.00153    69.14745    -34.54315    -20.85255    -34.54315    -20.85255    -0.00153    69.14745
16694895675.57667    -0.00157    68.25551    -34.41673    -21.74449    -34.41673    -21.74449    -0.00157    68.25551
16733836922.23960    -0.00162    67.35489    -34.28881    -22.64511    -34.28881    -22.64511    -0.00162    67.35489
16772869000.29922    -0.00167    66.44548    -34.15934    -23.55452    -34.15934    -23.55452    -0.00167    66.44548
16811992121.62194    -0.00172    65.52717    -34.02827    -24.47283    -34.02827    -24.47283    -0.00172    65.52717
16851206498.56843    -0.00177    64.59982    -33.89554    -25.40018    -33.89554    -25.40018    -0.00177    64.59982
16890512343.99451    -0.00183    63.66333    -33.76109    -26.33667    -33.76109    -26.33667    -0.00183    63.66333
16929909871.25268    -0.00189    62.71755    -33.62487    -27.28245    -33.62487    -27.28245    -0.00189    62.71755
16969399294.19302    -0.00195    61.76238    -33.48680    -28.23762    -33.48680    -28.23762    -0.00195    61.76238
17008980827.16442    -0.00201    60.79768    -33.34682    -29.20232    -33.34682    -29.20232    -0.00201    60.79768
17048654685.01576    -0.00208    59.82332    -33.20485    -30.17668    -33.20485    -30.17668    -0.00208    59.82332
17088421083.09710    -0.00215    58.83916    -33.06083    -31.16084    -33.06083    -31.16084    -0.00215    58.83916
17128280237.26063    -0.00222    57.84508    -32.91466    -32.15492    -32.91466    -32.15492    -0.00222    57.84508
17168232363.86222    -0.00230    56.84092    -32.76628    -33.15908    -32.76628    -33.15908    -0.00230    56.84092
17208277679.76233    -0.00238    55.82657    -32.61558    -34.17343    -32.61558    -34.17343    -0.00238    55.82657
17248416402.32722    -0.00246    54.80185    -32.46249    -35.19815    -32.46249    -35.19815    -0.00246    54.80185
17288648749.43021    -0.00255    53.76663    -32.30689    -36.23337    -32.30689    -36.23337    -0.00255    53.76663
17328974939.45279    -0.00265    52.72076    -32.14868    -37.27924    -32.14868    -37.27924    -0.00265    52.72076
17369395191.28588    -0.00275    51.66408    -31.98776    -38.33592    -31.98776    -38.33592    -0.00275    51.66408
17409909724.33082    -0.00285    50.59642    -31.82400    -39.40358    -31.82400    -39.40358    -0.00285    50.59642
17450518758.50085    -0.00297    49.51762    -31.65730    -40.48238    -31.65730    -40.48238    -0.00297    49.51762
17491222514.22213    -0.00308    48.42751    -31.48750    -41.57249    -31.48750    -41.57249    -0.00308    48.42751
17532021212.43496    -0.00321    47.32590    -31.31448    -42.67410    -31.31448    -42.67410    -0.00321    47.32590
17572915074.59499    -0.00334    46.21261    -31.13809    -43.78739    -31.13809    -43.78739    -0.00334    46.21261
17613904322.67450    -0.00348    45.08745    -30.95817    -44.91255    -30.95817    -44.91255    -0.00348    45.08745
17654989179.16330    -0.00364    43.95021    -30.77456    -46.04979    -30.77456    -46.04979    -0.00364    43.95021
17696169867.07038    -0.00380    42.80068    -30.58708    -47.19932    -30.58708    -47.19932    -0.00380    42.80068
17737446609.92484    -0.00397    41.63864    -30.39554    -48.36136    -30.39554    -48.36136    -0.00397    41.63864
17778819631.77715    -0.00415    40.46385    -30.19975    -49.53615    -30.19975    -49.53615    -0.00415    40.46385
17820289157.20040    -0.00435    39.27607    -29.99949    -50.72393    -29.99949    -50.72393    -0.00435    39.27607
17861855411.29156    -0.00456    38.07503    -29.79454    -51.92497    -29.79454    -51.92497    -0.00456    38.07503
17903518619.67245    -0.00478    36.86045    -29.58465    -53.13955    -29.58465    -53.13955    -0.00478    36.86045
17945279008.49135    -0.00502    35.63204    -29.36956    -54.36796    -29.36956    -54.36796    -0.00502    35.63204
17987136804.42398    -0.00529    34.38947    -29.14900    -55.61053    -29.14900    -55.61053    -0.00529    34.38947
18029092234.67478    -0.00557    33.13240    -28.92268    -56.86760    -28.92268    -56.86760    -0.00557    33.13240
18071145526.97815    -0.00588    31.86047    -28.69026    -58.13953    -28.69026    -58.13953    -0.00588    31.86047
18113296909.59974    -0.00621    30.57327    -28.45142    -59.42673    -28.45142    -59.42673    -0.00621    30.57327
18155546611.33748    -0.00657    29.27037    -28.20578    -60.72963    -28.20578    -60.72963    -0.00657    29.27037
18197894861.52312    -0.00696    27.95130    -27.95295    -62.04870    -27.95295    -62.04870    -0.00696    27.95130
18240341890.02330    -0.00739    26.61554    -27.69251    -63.38446    -27.69251    -63.38446    -0.00739    26.61554
18282887927.24081    -0.00787    25.26253    -27.42400    -64.73747    -27.42400    -64.73747    -0.00787    25.26253
18325533204.11589    -0.00839    23.89163    -27.14692    -66.10837    -27.14692    -66.10837    -0.00839    23.89163
18368277952.12741    -0.00896    22.50216    -26.86074    -67.49784    -26.86074    -67.49784    -0.00896    22.50216
18411122403.29428    -0.00959    21.09336    -26.56487    -68.90664    -26.56487    -68.90664    -0.00959    21.09336
18454066790.17638    -0.01029    19.66435    -26.25869    -70.33565    -26.25869    -70.33565    -0.01029    19.66435
18497111345.87622    -0.01107    18.21419    -25.94150    -71.78581    -25.94150    -71.78581    -0.01107    18.21419
18540256304.04001    -0.01194    16.74180    -25.61256    -73.25820    -25.61256    -73.25820    -0.01194    16.74180
18583501898.85890    -0.01292    15.24595    -25.27105    -74.75405    -25.27105    -74.75405    -0.01292    15.24595
18626848365.07032    -0.01402    13.72527    -24.91608    -76.27473    -24.91608    -76.27473    -0.01402    13.72527
18670295937.95929    -0.01527    12.17818    -24.54664    -77.82182    -24.54664    -77.82182    -0.01527    12.17818
18713844853.35944    -0.01669    10.60286    -24.16167    -79.39714    -24.16167    -79.39714    -0.01669    10.60286
18757495347.65469    -0.01831    8.99724    -23.75996    -81.00276    -23.75996    -81.00276    -0.01831    8.99724
18801247657.78026    -0.02017    7.35890    -23.34017    -82.64110    -23.34017    -82.64110    -0.02017    7.35890
18845102021.22403    -0.02233    5.68503    -22.90083    -84.31497    -22.90083    -84.31497    -0.02233    5.68503
18889058676.02782    -0.02483    3.97230    -22.44027    -86.02770    -22.44027    -86.02770    -0.02483    3.97230
18933117860.78870    -0.02777    2.21682    -21.95665    -87.78318    -21.95665    -87.78318    -0.02777    2.21682
18977279814.66032    -0.03123    0.41392    -21.44786    -89.58608    -21.44786    -89.58608    -0.03123    0.41392
19021544777.35400    -0.03535    -1.44200    -20.91153    -91.44200    -20.91153    -91.44200    -0.03535    -1.44200
19065912989.14035    -0.04030    -3.35772    -20.34496    -93.35772    -20.34496    -93.35772    -0.04030    -3.35772
19110384690.85037    -0.04630    -5.34158    -19.74503    -95.34158    -19.74503    -95.34158    -0.04630    -5.34158
19154960123.87680    -0.05366    -7.40387    -19.10816    -97.40387    -19.10816    -97.40387    -0.05366    -7.40387
19199639530.17551    -0.06279    -9.55753    -18.43018    -99.55753    -18.43018    -99.55753    -0.06279    -9.55753
19244423152.26653    -0.07428    -11.81899    -17.70621    -101.81899    -17.70621    -101.81899    -0.07428    -11.81899
19289311233.23577    -0.08896    -14.20949    -16.93046    -104.20949    -16.93046    -104.20949    -0.08896    -14.20949
19334304016.73608    -0.10804    -16.75694    -16.09606    -106.75694    -16.09606    -106.75694    -0.10804    -16.75694
19379401746.98865    -0.13334    -19.49876    -15.19470    -109.49876    -15.19470    -109.49876    -0.13334    -19.49876
19424604668.78429    -0.16769    -22.48623    -14.21632    -112.48623    -14.21632    -112.48623    -0.16769    -22.48623
19469913027.48483    -0.21560    -25.79146    -13.14864    -115.79146    -13.14864    -115.79146    -0.21560    -25.79146
19515327069.02438    -0.28463    -29.51877    -11.97661    -119.51877    -11.97661    -119.51877    -0.28463    -29.51877
19560847039.91079    -0.38801    -33.82395    -10.68197    -123.82395    -10.68197    -123.82395    -0.38801    -33.82395
19606473187.22667    -0.55040    -38.94797    -9.24336    -128.94797    -9.24336    -128.94797    -0.55040    -38.94797
19652205758.63117    -0.82096    -45.27667    -7.63863    -135.27667    -7.63863    -135.27667    -0.82096    -45.27667
19698045002.36105    -1.30629    -53.44423    -5.85423    -143.44423    -5.85423    -143.44423    -1.30629    -53.44423
19743991167.23206    -2.26094    -64.48312    -3.91649    -154.48312    -3.91649    -154.48312    -2.26094    -64.48312
19790044502.64044    -4.36557    -79.86291    -1.97889    -169.86291    -1.97889    -169.86291    -4.36557    -79.86291
19836205258.56389    -9.86210    -100.60336    -0.47317    169.39664    -0.47317    169.39664    -9.86210    -100.60336
19882473685.56342    -26.11177    55.47513    -0.01064    145.47513    -0.01064    145.47513    -26.11177    55.47513
19928850034.78443    -8.51312    33.82414    -0.65920    123.82414    -0.65920    123.82414    -8.51312    33.82414
19975334557.95809    -4.62848    17.36381    -1.83408    107.36381    -1.83408    107.36381    -4.62848    17.36381
20021927507.40275    -2.97588    5.37584    -3.04499    95.37584    -3.04499    95.37584    -2.97588    5.37584
20068629136.02531    -2.14150    -3.65120    -4.09750    86.34880    -4.09750    86.34880    -2.14150    -3.65120
20115439697.32264    -1.67583    -10.84072    -4.94654    79.15928    -4.94654    79.15928    -1.67583    -10.84072
20162359445.38269    -1.40071    -16.89831    -5.59591    73.10169    -5.59591    73.10169    -1.40071    -16.89831
20209388634.88628    -1.23619    -22.26462    -6.06045    67.73538    -6.06045    67.73538    -1.23619    -22.26462
20256527521.10822    -1.14361    -27.22945    -6.35433    62.77055    -6.35433    62.77055    -1.14361    -27.22945
20303776359.91875    -1.10416    -32.00016    -6.48793    57.99984    -6.48793    57.99984    -1.10416    -32.00016
20351135407.78494    -1.11014    -36.74273    -6.46732    53.25727    -6.46732    53.25727    -1.11014    -36.74273
20398604921.77213    -1.16175    -41.60907    -6.29465    48.39093    -6.29465    48.39093    -1.16175    -41.60907
20446185159.54508    -1.26684    -46.75894    -5.96866    43.24106    -5.96866    43.24106    -1.26684    -46.75894
20493876379.36975    -1.44340    -52.38201    -5.48570    37.61799    -5.48570    37.61799    -1.44340    -52.38201
20541678840.11445    -1.72610    -58.72503    -4.84169    31.27497    -4.84169    31.27497    -1.72610    -58.72503
20589592801.25132    -2.18087    -66.12741    -4.03644    23.87259    -4.03644    23.87259    -2.18087    -66.12741
20637618522.85771    -2.93804    -75.06304    -3.08378    14.93696    -3.08378    14.93696    -2.93804    -75.06304
20685756265.61760    -4.27294    -86.15990    -2.03327    3.84010    -2.03327    3.84010    -4.27294    -86.15990
20734006290.82311    -6.83490    -100.08681    -1.00868    -10.08681    -1.00868    -10.08681    -6.83490    -100.08681
20782368860.37561    -12.66276    -117.06708    -0.24185    -27.06708    -0.24185    -27.06708    -12.66276    -117.06708
20830844236.78757    -28.87835    43.97295    -0.00563    -46.02705    -0.00563    -46.02705    -28.87835    43.97295
20879432683.18370    -10.65751    25.41869    -0.39030    -64.58131    -0.39030    -64.58131    -10.65751    25.41869
20928134463.30249    -6.17255    9.28731    -1.19990    -80.71269    -1.19990    -80.71269    -6.17255    9.28731
20976949841.49756    -4.08973    -3.93125    -2.14646    -93.93125    -2.14646    -93.93125    -4.08973    -3.93125
21025879082.73924    -2.99344    -14.74280    -3.02723    -104.74280    -3.02723    -104.74280    -2.99344    -14.74280
21074922452.61568    -2.38692    -23.87540    -3.73840    -113.87540    -3.73840    -113.87540    -2.38692    -23.87540
21124080217.33476    -2.05754    -31.96932    -4.23258    -121.96932    -4.23258    -121.96932    -2.05754    -31.96932
21173352643.72519    -1.91090    -39.54724    -4.48594    -129.54724    -4.48594    -129.54724    -1.91090    -39.54724
21222739999.23810    -1.91341    -47.07088    -4.48139    -137.07088    -4.48139    -137.07088    -1.91341    -47.07088
21272242551.94843    -2.07615    -55.02058    -4.20205    -145.02058    -4.20205    -145.02058    -2.07615    -55.02058
21321860570.55649    -2.46627    -63.99594    -3.63237    -153.99594    -3.63237    -153.99594    -2.46627    -63.99594
21371594324.38913    -3.26243    -74.85218    -2.77201    -164.85218    -2.77201    -164.85218    -3.26243    -74.85218
21421444083.40162    -4.93508    -88.84267    -1.68124    -178.84267    -1.68124    -178.84267    -4.93508    -88.84267
21471410118.17884    -8.95557    -107.44910    -0.59079    162.55090    -0.59079    162.55090    -8.95557    -107.44910
21521492699.93682    -27.20478    -130.86665    -0.00827    139.13335    -0.00827    139.13335    -27.20478    -130.86665
21571692100.52420    -10.70746    24.42979    -0.38564    114.42979    -0.38564    114.42979    -10.70746    24.42979
21622008592.42379    -5.41284    3.19016    -1.47247    93.19016    -1.47247    93.19016    -5.41284    3.19016
21672442448.75375    -3.42043    -13.49092    -2.63558    76.50908    -2.63558    76.50908    -3.42043    -13.49092
21722993943.26951    -2.61888    -27.19159    -3.44052    62.80841    -3.44052    62.80841    -2.61888    -27.19159
21773663350.36499    -2.45497    -40.14887    -3.64720    49.85113    -3.64720    49.85113    -2.45497    -40.14887
21824450945.07411    -2.95201    -55.63136    -3.06938    34.36864    -3.06938    34.36864    -2.95201    -55.63136
21875357003.07233    -4.25971    -85.54160    -2.04119    4.45840    -2.04119    4.45840    -4.25971    -85.54160
21926381800.67814    -13.60631    64.02867    -0.19355    -25.97133    -0.19355    -25.97133    -13.60631    64.02867
21977525614.85453    -2.17096    15.21105    -4.05168    -74.78895    -4.05168    -74.78895    -2.17096    15.21105
22028788723.21059    -0.55050    -9.22163    -9.24263    -99.22163    -9.24263    -99.22163    -0.55050    -9.22163
22080171404.00273    -0.19442    -21.91053    -13.58731    -111.91053    -13.58731    -111.91053    -0.19442    -21.91053
22131673936.13661    -0.08436    -29.93093    -17.15866    -119.93093    -17.15866    -119.93093    -0.08436    -29.93093
22183296599.16837    -0.04193    -35.73855    -20.17324    -125.73855    -20.17324    -125.73855    -0.04193    -35.73855
22235039673.30623    -0.02297    -40.32152    -22.77691    -130.32152    -22.77691    -130.32152    -0.02297    -40.32152
22286903439.41208    -0.01356    -44.14669    -25.06317    -134.14669    -25.06317    -134.14669    -0.01356    -44.14669
22338888179.00269    -0.00849    -47.46355    -27.09436    -137.46355    -27.09436    -137.46355    -0.00849    -47.46355
22390994174.25169    -0.00558    -50.41842    -28.91412    -140.41842    -28.91412    -140.41842    -0.00558    -50.41842
22443221707.99084    -0.00382    -53.10340    -30.55445    -143.10340    -30.55445    -143.10340    -0.00382    -53.10340
22495571063.71161    -0.00272    -55.57981    -32.03971    -145.57981    -32.03971    -145.57981    -0.00272    -55.57981
22548042525.56668    -0.00199    -57.89031    -33.38915    -147.89031    -33.38915    -147.89031    -0.00199    -57.89031
22600636378.37158    -0.00150    -60.06570    -34.61837    -150.06570    -34.61837    -150.06570    -0.00150    -60.06570
22653352907.60622    -0.00116    -62.12887    -35.74036    -152.12887    -35.74036    -152.12887    -0.00116    -62.12887
22706192399.41617    -0.00091    -64.09728    -36.76612    -154.09728    -36.76612    -154.09728    -0.00091    -64.09728
22759155140.61468    -0.00074    -65.98451    -37.70514    -155.98451    -37.70514    -155.98451    -0.00074    -65.98451
22812241418.68392    -0.00060    -67.80136    -38.56569    -157.80136    -38.56569    -157.80136    -0.00060    -67.80136
22865451521.77663    -0.00050    -69.55651    -39.35505    -159.55651    -39.35505    -159.55651    -0.00050    -69.55651
22918785738.71772    -0.00043    -71.25707    -40.07969    -161.25707    -40.07969    -161.25707    -0.00043    -71.25707
22972244359.00560    -0.00037    -72.90893    -40.74535    -162.90893    -40.74535    -162.90893    -0.00037    -72.90893
23025827672.81414    -0.00032    -74.51699    -41.35720    -164.51699    -41.35720    -164.51699    -0.00032    -74.51699
23079535970.99398    -0.00028    -76.08541    -41.91988    -166.08541    -41.91988    -166.08541    -0.00028    -76.08541
23133369545.07419    -0.00025    -77.61775    -42.43754    -167.61775    -42.43754    -167.61775    -0.00025    -77.61775
23187328687.26382    -0.00022    -79.11704    -42.91393    -169.11704    -42.91393    -169.11704    -0.00022    -79.11704
23241413690.45352    -0.00020    -80.58594    -43.35244    -170.58594    -43.35244    -170.58594    -0.00020    -80.58594
23295624848.21710    -0.00018    -82.02674    -43.75612    -172.02674    -43.75612    -172.02674    -0.00018    -82.02674
23349962454.81324    -0.00017    -83.44147    -44.12773    -173.44147    -44.12773    -173.44147    -0.00017    -83.44147
23404426805.18671    -0.00016    -84.83192    -44.46976    -174.83192    -44.46976    -174.83192    -0.00016    -84.83192
23459018194.97051    -0.00014    -86.19969    -44.78444    -176.19969    -44.78444    -176.19969    -0.00014    -86.19969
23513736920.48714    -0.00014    -87.54618    -45.07382    -177.54618    -45.07382    -177.54618    -0.00014    -87.54618
23568583278.75025    -0.00013    -88.87268    -45.33974    -178.87268    -45.33974    -178.87268    -0.00013    -88.87268
23623557567.46640    -0.00012    -90.18034    -45.58385    179.81966    -45.58385    179.81966    -0.00012    -90.18034
23678660085.03628    -0.00011    -91.47022    -45.80766    178.52978    -45.80766    178.52978    -0.00011    -91.47022
23733891130.55686    -0.00011    -92.74325    -46.01253    177.25675    -46.01253    177.25675    -0.00011    -92.74325
23789251003.82269    -0.00010    -94.00032    -46.19970    175.99968    -46.19970    175.99968    -0.00010    -94.00032
23844740005.32760    -0.00010    -95.24222    -46.37029    174.75778    -46.37029    174.75778    -0.00010    -95.24222
23900358436.26630    -0.00010    -96.46970    -46.52530    173.53030    -46.52530    173.53030    -0.00010    -96.46970
23956106598.53609    -0.00009    -97.68344    -46.66568    172.31656    -46.66568    172.31656    -0.00009    -97.68344
24011984794.73849    -0.00009    -98.88409    -46.79225    171.11591    -46.79225    171.11591    -0.00009    -98.88409
24067993328.18063    -0.00009    -100.07224    -46.90577    169.92776    -46.90577    169.92776    -0.00009    -100.07224
24124132502.87734    -0.00009    -101.24845    -47.00696    168.75155    -47.00696    168.75155    -0.00009    -101.24845
24180402623.55249    -0.00008    -102.41324    -47.09643    167.58676    -47.09643    167.58676    -0.00008    -102.41324
24236803995.64075    -0.00008    -103.56711    -47.17477    166.43289    -47.17477    166.43289    -0.00008    -103.56711
24293336925.28919    -0.00008    -104.71054    -47.24251    165.28946    -47.24251    165.28946    -0.00008    -104.71054
24350001719.35908    -0.00008    -105.84396    -47.30013    164.15604    -47.30013    164.15604    -0.00008    -105.84396
24406798685.42720    -0.00008    -106.96781    -47.34808    163.03219    -47.34808    163.03219    -0.00008    -106.96781
24463728131.78799    -0.00008    -108.08250    -47.38677    161.91750    -47.38677    161.91750    -0.00008    -108.08250
24520790367.45494    -0.00008    -109.18841    -47.41656    160.81159    -47.41656    160.81159    -0.00008    -109.18841
24577985702.16230    -0.00008    -110.28593    -47.43781    159.71407    -47.43781    159.71407    -0.00008    -110.28593
24635314446.36681    -0.00008    -111.37541    -47.45083    158.62459    -47.45083    158.62459    -0.00008    -111.37541
24692776911.24931    -0.00008    -112.45721    -47.45590    157.54279    -47.45590    157.54279    -0.00008    -112.45721
24750373408.71661    -0.00008    -113.53166    -47.45331    156.46834    -47.45331    156.46834    -0.00008    -113.53166
24808104251.40277    -0.00008    -114.59911    -47.44330    155.40089    -47.44330    155.40089    -0.00008    -114.59911
24865969752.67133    -0.00008    -115.65988    -47.42610    154.34012    -47.42610    154.34012    -0.00008    -115.65988
24923970226.61670    -0.00008    -116.71428    -47.40191    153.28572    -47.40191    153.28572    -0.00008    -116.71428
24982105988.06588    -0.00008    -117.76262    -47.37095    152.23738    -47.37095    152.23738    -0.00008    -117.76262
25040377352.58025    -0.00008    -118.80521    -47.33340    151.19479    -47.33340    151.19479    -0.00008    -118.80521
25098784636.45730    -0.00008    -119.84235    -47.28941    150.15765    -47.28941    150.15765    -0.00008    -119.84235
25157328156.73206    -0.00008    -120.87433    -47.23915    149.12567    -47.23915    149.12567    -0.00008    -120.87433
25216008231.17930    -0.00008    -121.90146    -47.18277    148.09854    -47.18277    148.09854    -0.00008    -121.90146
25274825178.31490    -0.00008    -122.92402    -47.12040    147.07598    -47.12040    147.07598    -0.00008    -122.92402
25333779317.39774    -0.00009    -123.94230    -47.05217    146.05770    -47.05217    146.05770    -0.00009    -123.94230
25392870968.43131    -0.00009    -124.95660    -46.97819    145.04340    -46.97819    145.04340    -0.00009    -124.95660
25452100452.16557    -0.00009    -125.96719    -46.89858    144.03281    -46.89858    144.03281    -0.00009    -125.96719
25511468090.09870    -0.00009    -126.97437    -46.81342    143.02563    -46.81342    143.02563    -0.00009    -126.97437
25570974204.47853    -0.00009    -127.97843    -46.72283    142.02157    -46.72283    142.02157    -0.00009    -127.97843
25630619118.30478    -0.00009    -128.97964    -46.62687    141.02036    -46.62687    141.02036    -0.00009    -128.97964
25690403155.33053    -0.00010    -129.97832    -46.52564    140.02168    -46.52564    140.02168    -0.00010    -129.97832
25750326640.06398    -0.00010    -130.97474    -46.41920    139.02526    -46.41920    139.02526    -0.00010    -130.97474
25810389897.77027    -0.00010    -131.96920    -46.30762    138.03080    -46.30762    138.03080    -0.00010    -131.96920
25870593254.47333    -0.00010    -132.96201    -46.19096    137.03799    -46.19096    137.03799    -0.00010    -132.96201
25930937036.95726    -0.00011    -133.95346    -46.06927    136.04654    -46.06927    136.04654    -0.00011    -133.95346
25991421572.76867    -0.00011    -134.94385    -45.94261    135.05615    -45.94261    135.05615    -0.00011    -134.94385
26052047190.21809    -0.00011    -135.93351    -45.81102    134.06649    -45.81102    134.06649    -0.00011    -135.93351
26112814218.38184    -0.00012    -136.92274    -45.67454    133.07726    -45.67454    133.07726    -0.00012    -136.92274
26173722987.10382    -0.00012    -137.91188    -45.53320    132.08812    -45.53320    132.08812    -0.00012    -137.91188
26234773826.99731    -0.00013    -138.90123    -45.38704    131.09877    -45.38704    131.09877    -0.00013    -138.90123
26295967069.44682    -0.00013    -139.89115    -45.23607    130.10885    -45.23607    130.10885    -0.00013    -139.89115
26357303046.60958    -0.00013    -140.88197    -45.08031    129.11803    -45.08031    129.11803    -0.00013    -140.88197
26418782091.41782    -0.00014    -141.87405    -44.91979    128.12595    -44.91979    128.12595    -0.00014    -141.87405
26480404537.58028    -0.00015    -142.86774    -44.75451    127.13226    -44.75451    127.13226    -0.00015    -142.86774
26542170719.58409    -0.00015    -143.86342    -44.58447    126.13658    -44.58447    126.13658    -0.00015    -143.86342
26604080972.69664    -0.00016    -144.86147    -44.40968    125.13853    -44.40968    125.13853    -0.00016    -144.86147
26666135632.96709    -0.00016    -145.86228    -44.23014    124.13772    -44.23014    124.13772    -0.00016    -145.86228
26728335037.22869    -0.00017    -146.86624    -44.04583    123.13376    -44.04583    123.13376    -0.00017    -146.86624
26790679523.10032    -0.00018    -147.87379    -43.85674    122.12621    -43.85674    122.12621    -0.00018    -147.87379
26853169428.98832    -0.00019    -148.88535    -43.66286    121.11465    -43.66286    121.11465    -0.00019    -148.88535
26915805094.08837    -0.00020    -149.90137    -43.46417    120.09863    -43.46417    120.09863    -0.00020    -149.90137
26978586858.38736    -0.00020    -150.92232    -43.26063    119.07768    -43.26063    119.07768    -0.00020    -150.92232
27041515062.66520    -0.00022    -151.94866    -43.05221    118.05134    -43.05221    118.05134    -0.00022    -151.94866
27104590048.49675    -0.00023    -152.98091    -42.83889    117.01909    -42.83889    117.01909    -0.00023    -152.98091
27167812158.25335    -0.00024    -154.01958    -42.62061    115.98042    -42.62061    115.98042    -0.00024    -154.01958
27231181735.10518    -0.00025    -155.06521    -42.39734    114.93479    -42.39734    114.93479    -0.00025    -155.06521
27294699123.02281    -0.00026    -156.11837    -42.16901    113.88163    -42.16901    113.88163    -0.00026    -156.11837
27358364666.77910    -0.00028    -157.17965    -41.93559    112.82035    -41.93559    112.82035    -0.00028    -157.17965
27422178711.95123    -0.00029    -158.24966    -41.69701    111.75034    -41.69701    111.75034    -0.00029    -158.24966
27486141604.92212    -0.00031    -159.32904    -41.45319    110.67096    -41.45319    110.67096    -0.00031    -159.32904
27550253692.88296    -0.00033    -160.41847    -41.20408    109.58153    -41.20408    109.58153    -0.00033    -160.41847
27614515323.83466    -0.00035    -161.51866    -40.94960    108.48134    -40.94960    108.48134    -0.00035    -161.51866
27678926846.58984    -0.00037    -162.63035    -40.68966    107.36965    -40.68966    107.36965    -0.00037    -162.63035
27743488610.77475    -0.00039    -163.75432    -40.42418    106.24568    -40.42418    106.24568    -0.00039    -163.75432
27808200966.83116    -0.00042    -164.89138    -40.15307    105.10862    -40.15307    105.10862    -0.00042    -164.89138
27873064266.01833    -0.00045    -166.04241    -39.87624    103.95759    -39.87624    103.95759    -0.00045    -166.04241
27938078860.41454    -0.00048    -167.20831    -39.59357    102.79169    -39.59357    102.79169    -0.00048    -167.20831
28003245102.91964    -0.00051    -168.39004    -39.30497    101.60996    -39.30497    101.60996    -0.00051    -168.39004
28068563347.25648    -0.00055    -169.58862    -39.01033    100.41138    -39.01033    100.41138    -0.00055    -169.58862
28134033947.97300    -0.00058    -170.80513    -38.70951    99.19487    -38.70951    99.19487    -0.00058    -170.80513
28199657260.44424    -0.00063    -172.04069    -38.40241    97.95931    -38.40241    97.95931    -0.00063    -172.04069
28265433640.87383    -0.00067    -173.29652    -38.08888    96.70348    -38.08888    96.70348    -0.00067    -173.29652
28331363446.29659    -0.00073    -174.57388    -37.76880    95.42612    -37.76880    95.42612    -0.00073    -174.57388
28397447034.58001    -0.00078    -175.87414    -37.44203    94.12586    -37.44203    94.12586    -0.00078    -175.87414
28463684764.42632    -0.00085    -177.19873    -37.10841    92.80127    -37.10841    92.80127    -0.00085    -177.19873
28530076995.37444    -0.00091    -178.54919    -36.76781    91.45081    -36.76781    91.45081    -0.00091    -178.54919
28596624087.80189    -0.00099    -179.92715    -36.42006    90.07285    -36.42006    90.07285    -0.00099    -179.92715
28663326402.92683    -0.00107    178.66565    -36.06500    88.66565    -36.06500    88.66565    -0.00107    178.66565
28730184302.81004    -0.00117    177.22736    -35.70247    87.22736    -35.70247    87.22736    -0.00117    177.22736
28797198150.35650    -0.00127    175.75600    -35.33230    85.75600    -35.33230    85.75600    -0.00127    175.75600
28864368309.31802    -0.00139    174.24945    -34.95432    84.24945    -34.95432    84.24945    -0.00139    174.24945
28931695144.29473    -0.00152    172.70544    -34.56834    82.70544    -34.56834    82.70544    -0.00152    172.70544
28999179020.73721    -0.00166    171.12156    -34.17420    81.12156    -34.17420    81.12156    -0.00166    171.12156
29066820304.94858    -0.00182    169.49521    -33.77171    79.49521    -33.77171    79.49521    -0.00182    169.49521
29134619364.08604    -0.00200    167.82360    -33.36069    77.82360    -33.36069    77.82360    -0.00200    167.82360
29202576566.16352    -0.00221    166.10376    -32.94096    76.10376    -32.94096    76.10376    -0.00221    166.10376
29270692280.05323    -0.00244    164.33248    -32.51236    74.33248    -32.51236    74.33248    -0.00244    164.33248
29338966875.48780    -0.00269    162.50632    -32.07469    72.50632    -32.07469    72.50632    -0.00269    162.50632
29407400723.06227    -0.00299    160.62158    -31.62781    70.62158    -31.62781    70.62158    -0.00299    160.62158
29475994194.23608    -0.00332    158.67430    -31.17155    68.67430    -31.17155    68.67430    -0.00332    158.67430
29544747661.33524    -0.00369    156.66021    -30.70578    66.66021    -30.70578    66.66021    -0.00369    156.66021
29613661497.55389    -0.00412    154.57472    -30.23036    64.57472    -30.23036    64.57472    -0.00412    154.57472
29682736076.95698    -0.00461    152.41291    -29.74520    62.41291    -29.74520    62.41291    -0.00461    152.41291
29751971774.48185    -0.00516    150.16947    -29.25021    60.16947    -29.25021    60.16947    -0.00516    150.16947
29821368965.94042    -0.00580    147.83874    -28.74536    57.83874    -28.74536    57.83874    -0.00580    147.83874
29890928028.02116    -0.00653    145.41461    -28.23063    55.41461    -28.23063    55.41461    -0.00653    145.41461
29960649338.29133    -0.00737    142.89057    -27.70608    52.89057    -27.70608    52.89057    -0.00737    142.89057
30030533275.19852    -0.00834    140.25963    -27.17181    50.25963    -27.17181    50.25963    -0.00834    140.25963
30100580218.07338    -0.00945    137.51436    -26.62801    47.51436    -26.62801    47.51436    -0.00945    137.51436
30170790547.13128    -0.01074    134.64685    -26.07493    44.64685    -26.07493    44.64685    -0.01074    134.64685
30241164643.47441    -0.01222    131.64873    -25.51296    41.64873    -25.51296    41.64873    -0.01222    131.64873
30311702889.09392    -0.01394    128.51118    -24.94256    38.51118    -24.94256    38.51118    -0.01394    128.51118
30382405666.87195    -0.01593    125.22496    -24.36437    35.22496    -24.36437    35.22496    -0.01593    125.22496
30453273360.58384    -0.01823    121.78048    -23.77919    31.78048    -23.77919    31.78048    -0.01823    121.78048
30524306354.89977    -0.02089    118.16786    -23.18798    28.16786    -23.18798    28.16786    -0.02089    118.16786
30595505035.38749    -0.02398    114.37708    -22.59193    24.37708    -22.59193    24.37708    -0.02398    114.37708
30666869788.51398    -0.02754    110.39812    -21.99247    20.39812    -21.99247    20.39812    -0.02754    110.39812
30738401001.64768    -0.03164    106.22119    -21.39130    16.22119    -21.39130    16.22119    -0.03164    106.22119
30810099063.06057    -0.03635    101.83703    -20.79038    11.83703    -20.79038    11.83703    -0.03635    101.83703
30881964361.93040    -0.04175    97.23719    -20.19202    7.23719    -20.19202    7.23719    -0.04175    97.23719
30953997288.34234    -0.04790    92.41452    -19.59882    2.41452    -19.59882    2.41452    -0.04790    92.41452
31026198233.29179    -0.05485    87.36360    -19.01369    -2.63640    -19.01369    -2.63640    -0.05485    87.36360
31098567588.68604    -0.06265    82.08130    -18.43989    -7.91870    -18.43989    -7.91870    -0.06265    82.08130
31171105747.34650    -0.07133    76.56737    -17.88090    -13.43263    -17.88090    -13.43263    -0.07133    76.56737
31243813103.01088    -0.08087    70.82505    -17.34044    -19.17495    -17.34044    -19.17495    -0.08087    70.82505
31316690050.33525    -0.09122    64.86157    -16.82234    -25.13843    -16.82234    -25.13843    -0.09122    64.86157
31389736984.89638    -0.10229    58.68869    -16.33045    -31.31131    -16.33045    -31.31131    -0.10229    58.68869
31462954303.19335    -0.11393    52.32295    -15.86847    -37.67705    -15.86847    -37.67705    -0.11393    52.32295
31536342402.65046    -0.12592    45.78580    -15.43980    -44.21420    -15.43980    -44.21420    -0.12592    45.78580
31609901681.61887    -0.13802    39.10336    -15.04739    -50.89664    -15.04739    -50.89664    -0.13802    39.10336
31683632539.37893    -0.14994    32.30597    -14.69352    -57.69403    -14.69352    -57.69403    -0.14994    32.30597
31757535376.14242    -0.16138    25.42734    -14.37969    -64.57266    -14.37969    -64.57266    -0.16138    25.42734
31831610593.05428    -0.17207    18.50349    -14.10645    -71.49651    -14.10645    -71.49651    -0.17207    18.50349
31905858592.19548    -0.18176    11.57149    -13.87338    -78.42851    -13.87338    -78.42851    -0.18176    11.57149
31980279776.58472    -0.19027    4.66806    -13.67901    -85.33194    -13.67901    -85.33194    -0.19027    4.66806
32054874550.18079    -0.19749    -2.17175    -13.52086    -92.17175    -13.52086    -92.17175    -0.19749    -2.17175
32129643317.88469    -0.20341    -8.91576    -13.39553    -98.91576    -13.39553    -98.91576    -0.20341    -8.91576
32204586485.54187    -0.20810    -15.53565    -13.29878    -105.53565    -13.29878    -105.53565    -0.20810    -15.53565
32279704459.94442    -0.21172    -22.00773    -13.22570    -112.00773    -13.22570    -112.00773    -0.21172    -22.00773
32354997648.83341    -0.21448    -28.31333    -13.17079    -118.31333    -13.17079    -118.31333    -0.21448    -28.31333
32430466460.90063    -0.21665    -34.43898    -13.12817    -124.43898    -13.12817    -124.43898    -0.21665    -34.43898
32506111305.79148    -0.21853    -40.37641    -13.09159    -130.37641    -13.09159    -130.37641    -0.21853    -40.37641
32581932594.10677    -0.22044    -46.12232    -13.05461    -136.12232    -13.05461    -136.12232    -0.22044    -46.12232
32657930737.40504    -0.22275    -51.67811    -13.01057    -141.67811    -13.01057    -141.67811    -0.22275    -51.67811
32734106148.20493    -0.22582    -57.04955    -12.95265    -147.04955    -12.95265    -147.04955    -0.22582    -57.04955
32810459239.98690    -0.23007    -62.24660    -12.87380    -152.24660    -12.87380    -152.24660    -0.23007    -62.24660
32886990427.19627    -0.23597    -67.28323    -12.76666    -157.28323    -12.76666    -157.28323    -0.23597    -67.28323
32963700125.24491    -0.24411    -72.17761    -12.62344    -162.17761    -12.62344    -162.17761    -0.24411    -72.17761
33040588750.51365    -0.25522    -76.95248    -12.43572    -166.95248    -12.43572    -166.95248    -0.25522    -76.95248
33117656720.35455    -0.27028    -81.63610    -12.19420    -171.63610    -12.19420    -171.63610    -0.27028    -81.63610
33194904453.09315    -0.29067    -86.26386    -11.88830    -176.26386    -11.88830    -176.26386    -0.29067    -86.26386
33272332368.03085    -0.31845    -90.88110    -11.50572    179.11890    -11.50572    179.11890    -0.31845    -90.88110
33349940885.44675    -0.35672    -95.54772    -11.03173    174.45228    -11.03173    174.45228    -0.35672    -95.54772
33427730426.60060    -0.41051    -100.34614    -10.44826    169.65386    -10.44826    169.65386    -0.41051    -100.34614
33505701413.73462    -0.48833    -105.39527    -9.73261    164.60473    -9.73261    164.60473    -0.48833    -105.39527
33583854270.07595    -0.60552    -110.87595    -8.85583    159.12405    -8.85583    159.12405    -0.60552    -110.87595
33662189419.83902    -0.79195    -117.07993    -7.78084    152.92007    -7.78084    152.92007    -0.79195    -117.07993
33740707288.22738    -1.11168    -124.50880    -6.46204    145.49120    -6.46204    145.49120    -1.11168    -124.50880
33819408301.43676    -1.72025    -134.07984    -4.85369    135.92016    -4.85369    135.92016    -1.72025    -134.07984
33898292886.65686    -3.06220    -147.52444    -2.95901    122.47556    -2.95901    122.47556    -3.06220    -147.52444
33977361472.07382    -6.74794    -167.73238    -1.03170    102.26762    -1.03170    102.26762    -6.74794    -167.73238
34056614486.87255    -30.46807    163.72953    -0.00390    73.72953    -0.00390    73.72953    -30.46807    163.72953
34136052361.23902    -7.47125    -45.86750    -0.85662    44.13250    -0.85662    44.13250    -7.47125    -45.86750
34215675526.36262    -3.17883    -67.58808    -2.84807    22.41192    -2.84807    22.41192    -3.17883    -67.58808
34295484414.43865    -1.69973    -81.84840    -4.89622    8.15160    -4.89622    8.15160    -1.69973    -81.84840
34375479458.67011    -1.06242    -91.67443    -6.63526    -1.67443    -6.63526    -1.67443    -1.06242    -91.67443
34455661093.27086    -0.74550    -99.02650    -8.02080    -9.02650    -8.02080    -9.02650    -0.74550    -99.02650
34536029753.46742    -0.57345    -104.95988    -9.07643    -14.95988    -9.07643    -14.95988    -0.57345    -104.95988
34616585875.50152    -0.47728    -110.06471    -9.82658    -20.06471    -9.82658    -20.06471    -0.47728    -110.06471
34697329896.63251    -0.42729    -114.70910    -10.28249    -24.70910    -10.28249    -24.70910    -0.42729    -114.70910
34778262255.13935    -0.41139    -119.16482    -10.43936    -29.16482    -10.43936    -29.16482    -0.41139    -119.16482
34859383390.32361    -0.42818    -123.68628    -10.27386    -33.68628    -10.27386    -33.68628    -0.42818    -123.68628
34940693742.51144    -0.48759    -128.58851    -9.73878    -38.58851    -9.73878    -38.58851    -0.48759    -128.58851
35022193753.05608    -0.62129    -134.37873    -8.75184    -44.37873    -8.75184    -44.37873    -0.62129    -134.37873
35103883864.34022    -0.92376    -142.07724    -7.17594    -52.07724    -7.17594    -52.07724    -0.92376    -142.07724
35185764519.77840    -1.74310    -154.19816    -4.80706    -64.19816    -4.80706    -64.19816    -1.74310    -154.19816
35267836163.81958    -5.03078    -177.89546    -1.63672    -87.89546    -1.63672    -87.89546    -5.03078    -177.89546
35350099241.94905    -16.36963    -43.54477    -0.10136    -133.54477    -0.10136    -133.54477    -16.36963    -43.54477
35432554200.69154    -2.91348    -83.32142    -3.10933    -173.32142    -3.10933    -173.32142    -2.91348    -83.32142
35515201487.61322    -1.09146    -102.55803    -6.53207    167.44197    -6.53207    167.44197    -1.09146    -102.55803
35598041551.32420    -0.59131    -113.11604    -8.95198    156.88396    -8.95198    156.88396    -0.59131    -113.11604
35681074841.48099    -0.41710    -120.51836    -10.38235    149.48164    -10.38235    149.48164    -0.41710    -120.51836
35764301808.78906    -0.43258    -128.20494    -10.23170    141.79506    -10.23170    141.79506    -0.43258    -128.20494
35847722905.00478    -0.24399    -129.42259    -12.62563    140.57741    -12.62563    140.57741    -0.24399    -129.42259
35931338582.93863    -0.39869    -137.85705    -10.56935    132.14295    -10.56935    132.14295    -0.39869    -137.85705
36015149296.45717    -1.01478    -152.20004    -6.81165    117.79996    -6.81165    117.79996    -1.01478    -152.20004
36099155500.48559    -20.64861    145.36707    -0.03757    55.36707    -0.03757    55.36707    -20.64861    145.36707
36183357651.01022    -1.12485    -109.73530    -6.41721    -19.73530    -6.41721    -19.73530    -1.12485    -109.73530
36267756205.08100    -6.29212    -169.42140    -1.16253    -79.42140    -1.16253    -79.42140    -6.29212    -169.42140
36352351620.81406    -0.00369    -117.12738    -30.70665    152.87262    -30.70665    152.87262    -0.00369    -117.12738
36437144357.39370    -0.00005    -124.82502    -49.25139    -34.82502    -49.25139    -34.82502    -0.00005    -124.82502
36522134875.07569    -0.00010    -128.86903    -46.18062    -38.86903    -46.18062    -38.86903    -0.00010    -128.86903
36607323635.18923    -0.00004    -131.76117    -50.73590    -41.76117    -50.73590    -41.76117    -0.00004    -131.76117
36692711100.13956    -0.00000    -134.08744    -62.55217    -44.08744    -62.55217    -44.08744    -0.00000    -134.08744
36778297733.41051    -0.00000    -136.07720    -59.54592    133.92280    -59.54592    133.92280    -0.00000    -136.07720
36864083999.56712    -0.00003    -137.84351    -52.14380    132.15649    -52.14380    132.15649    -0.00003    -137.84351
36950070364.25763    -0.00006    -139.45023    -48.93698    130.54977    -48.93698    130.54977    -0.00006    -139.45023
37036257294.21684    -0.00009    -140.93686    -47.06075    129.06314    -47.06075    129.06314    -0.00009    -140.93686
37122645257.26808    -0.00011    -142.32953    -45.82373    127.67047    -45.82373    127.67047    -0.00011    -142.32953
37209234722.32587    -0.00014    -143.64644    -44.95058    126.35356    -44.95058    126.35356    -0.00014    -143.64644
37296026159.39851    -0.00016    -144.90079    -44.30515    125.09921    -44.30515    125.09921    -0.00016    -144.90079
37383020039.59059    -0.00018    -146.10250    -43.81118    123.89750    -43.81118    123.89750    -0.00018    -146.10250
37470216835.10570    -0.00020    -147.25920    -43.42230    122.74080    -43.42230    122.74080    -0.00020    -147.25920
37557617019.24845    -0.00021    -148.37693    -43.10862    121.62307    -43.10862    121.62307    -0.00021    -148.37693
37645221066.42786    -0.00023    -149.46058    -42.85003    120.53942    -42.85003    120.53942    -0.00023    -149.46058
37733029452.15938    -0.00024    -150.51414    -42.63251    119.48586    -42.63251    119.48586    -0.00024    -150.51414
37821042653.06760    -0.00025    -151.54096    -42.44603    118.45904    -42.44603    118.45904    -0.00025    -151.54096
37909261146.88899    -0.00026    -152.54386    -42.28324    117.45614    -42.28324    117.45614    -0.00026    -152.54386
37997685412.47396    -0.00027    -153.52527    -42.13864    116.47473    -42.13864    116.47473    -0.00027    -153.52527
38086315929.79025    -0.00027    -154.48730    -42.00808    115.51270    -42.00808    115.51270    -0.00027    -154.48730
38175153179.92497    -0.00028    -155.43178    -41.88834    114.56822    -41.88834    114.56822    -0.00028    -155.43178
38264197645.08743    -0.00029    -156.36036    -41.77691    113.63964    -41.77691    113.63964    -0.00029    -156.36036
38353449808.61166    -0.00030    -157.27448    -41.67182    112.72552    -41.67182    112.72552    -0.00030    -157.27448
38442910154.95911    -0.00030    -158.17545    -41.57148    111.82455    -41.57148    111.82455    -0.00030    -158.17545
38532579169.72122    -0.00031    -159.06448    -41.47460    110.93552    -41.47460    110.93552    -0.00031    -159.06448
38622457339.62225    -0.00032    -159.94266    -41.38016    110.05734    -41.38016    110.05734    -0.00032    -159.94266
38712545152.52132    -0.00032    -160.81098    -41.28728    109.18902    -41.28728    109.18902    -0.00032    -160.81098
38802843097.41592    -0.00033    -161.67038    -41.19525    108.32962    -41.19525    108.32962    -0.00033    -161.67038
38893351664.44399    -0.00034    -162.52174    -41.10345    107.47826    -41.10345    107.47826    -0.00034    -162.52174
38984071344.88674    -0.00034    -163.36587    -41.01136    106.63413    -41.01136    106.63413    -0.00034    -163.36587
39075002631.17143    -0.00035    -164.20355    -40.91855    105.79645    -40.91855    105.79645    -0.00035    -164.20355
39166146016.87352    -0.00036    -165.03552    -40.82461    104.96448    -40.82461    104.96448    -0.00036    -165.03552
39257501996.72015    -0.00037    -165.86249    -40.72919    104.13751    -40.72919    104.13751    -0.00037    -165.86249
39349071066.59229    -0.00038    -166.68515    -40.63197    103.31485    -40.63197    103.31485    -0.00038    -166.68515
39440853723.52755    -0.00038    -167.50416    -40.53267    102.49584    -40.53267    102.49584    -0.00038    -167.50416
39532850465.72292    -0.00039    -168.32017    -40.43102    101.67983    -40.43102    101.67983    -0.00039    -168.32017
39625061792.53741    -0.00040    -169.13382    -40.32675    100.86618    -40.32675    100.86618    -0.00040    -169.13382
39717488204.49499    -0.00041    -169.94574    -40.21961    100.05426    -40.21961    100.05426    -0.00041    -169.94574
39810130203.28664    -0.00042    -170.75656    -40.10938    99.24344    -40.10938    99.24344    -0.00042    -170.75656
39902988291.77398    -0.00043    -171.56690    -39.99579    98.43310    -39.99579    98.43310    -0.00043    -171.56690
39996062973.99145    -0.00045    -172.37740    -39.87862    97.62260    -39.87862    97.62260    -0.00045    -172.37740
40089354755.14914    -0.00046    -173.18870    -39.75760    96.81130    -39.75760    96.81130    -0.00046    -173.18870
40182864141.63571    -0.00047    -174.00145    -39.63250    95.99855    -39.63250    95.99855    -0.00047    -174.00145
40276591641.02055    -0.00049    -174.81632    -39.50303    95.18368    -39.50303    95.18368    -0.00049    -174.81632
40370537762.05740    -0.00050    -175.63399    -39.36892    94.36601    -39.36892    94.36601    -0.00050    -175.63399
40464703014.68652    -0.00052    -176.45519    -39.22987    93.54481    -39.22987    93.54481    -0.00052    -176.45519
40559087910.03765    -0.00054    -177.28064    -39.08556    92.71936    -39.08556    92.71936    -0.00054    -177.28064
40653692960.43272    -0.00055    -178.11113    -38.93566    91.88887    -38.93566    91.88887    -0.00055    -178.11113
40748518679.38869    -0.00058    -178.94747    -38.77980    91.05253    -38.77980    91.05253    -0.00058    -178.94747
40843565581.62028    -0.00060    -179.79052    -38.61758    90.20948    -38.61758    90.20948    -0.00060    -179.79052
40938834183.04283    -0.00062    179.35879    -38.44857    89.35879    -38.44857    89.35879    -0.00062    179.35879
41034325000.77519    -0.00065    178.49949    -38.27230    88.49949    -38.27230    88.49949    -0.00065    178.49949
41130038553.14197    -0.00067    177.63053    -38.08826    87.63053    -38.08826    87.63053    -0.00067    177.63053
41225975359.67721    -0.00071    176.75077    -37.89588    86.75077    -37.89588    86.75077    -0.00071    176.75077
41322135941.12665    -0.00074    175.85898    -37.69454    85.85898    -37.69454    85.85898    -0.00074    175.85898
41418520819.45067    -0.00078    174.95384    -37.48355    84.95384    -37.48355    84.95384    -0.00078    174.95384
41515130517.82729    -0.00082    174.03387    -37.26217    84.03387    -37.26217    84.03387    -0.00082    174.03387
41611965560.65440    -0.00086    173.09747    -37.02954    83.09747    -37.02954    83.09747    -0.00086    173.09747
41709026473.55351    -0.00091    172.14287    -36.78475    82.14287    -36.78475    82.14287    -0.00091    172.14287
41806313783.37202    -0.00097    171.16811    -36.52675    81.16811    -36.52675    81.16811    -0.00097    171.16811
41903828018.18619    -0.00103    170.17099    -36.25439    80.17099    -36.25439    80.17099    -0.00103    170.17099
42001569707.30405    -0.00110    169.14906    -35.96639    79.14906    -35.96639    79.14906    -0.00110    169.14906
42099539381.26825    -0.00118    168.09956    -35.66130    78.09956    -35.66130    78.09956    -0.00118    168.09956
42197737571.85909    -0.00127    167.01936    -35.33750    77.01936    -35.33750    77.01936    -0.00127    167.01936
42296164812.09679    -0.00138    165.90491    -34.99319    75.90491    -34.99319    75.90491    -0.00138    165.90491
42394821636.24535    -0.00150    164.75215    -34.62631    74.75215    -34.62631    74.75215    -0.00150    164.75215
42493708579.81477    -0.00164    163.55639    -34.23456    73.55639    -34.23456    73.55639    -0.00164    163.55639
42592826179.56415    -0.00180    162.31221    -33.81534    72.31221    -33.81534    72.31221    -0.00180    162.31221
42692174973.50473    -0.00200    161.01329    -33.36571    71.01329    -33.36571    71.01329    -0.00200    161.01329
42791755500.90224    -0.00224    159.65221    -32.88231    69.65221    -32.88231    69.65221    -0.00224    159.65221
42891568302.28072    -0.00252    158.22021    -32.36136    68.22021    -32.36136    68.22021    -0.00252    158.22021
42991613919.42480    -0.00287    156.70681    -31.79851    66.70681    -31.79851    66.70681    -0.00287    156.70681
43091892895.38289    -0.00330    155.09943    -31.18884    65.09943    -31.18884    65.09943    -0.00330    155.09943
43192405774.47003    -0.00385    153.38277    -30.52668    63.38277    -30.52668    63.38277    -0.00385    153.38277
43293153102.27094    -0.00454    151.53810    -29.80556    61.53810    -29.80556    61.53810    -0.00454    151.53810
43394135425.64287    -0.00545    149.54214    -29.01803    59.54214    -29.01803    59.54214    -0.00545    149.54214
43495353292.71881    -0.00665    147.36567    -28.15548    57.36567    -28.15548    57.36567    -0.00665    147.36567
43596807252.90983    -0.00827    144.97146    -27.20797    54.97146    -27.20797    54.97146    -0.00827    144.97146
43698497856.90897    -0.01052    142.31140    -26.16399    52.31140    -26.16399    52.31140    -0.01052    142.31140
43800425656.69360    -0.01372    139.32221    -25.01013    49.32221    -25.01013    49.32221    -0.01372    139.32221
43902591205.52878    -0.01843    135.91916    -23.73082    45.91916    -23.73082    45.91916    -0.01843    135.91916
44004995057.96959    -0.02560    131.98636    -22.30798    41.98636    -22.30798    41.98636    -0.02560    131.98636
44107637769.86508    -0.03694    127.36176    -20.72086    37.36176    -20.72086    37.36176    -0.03694    127.36176
44210519898.36070    -0.05571    121.81319    -18.94628    31.81319    -18.94628    31.81319    -0.05571    121.81319
44313642001.90144    -0.08834    115.00011    -16.96018    25.00011    -16.96018    25.00011    -0.08834    115.00011
44417004640.23487    -0.14822    106.41333    -14.74266    16.41333    -14.74266    16.41333    -0.14822    106.41333
44520608374.41420    -0.26408    95.28946    -12.29179    5.28946    -12.29179    5.28946    -0.26408    95.28946
44624453766.80130    -0.49728    80.53376    -9.65811    -9.46624    -9.65811    -9.46624    -0.49728    80.53376
44728541381.06992    -0.96302    60.83798    -7.01412    -29.16202    -7.01412    -29.16202    -0.96302    60.83798
44832871782.20813    -1.78402    35.46954    -4.72536    -54.53046    -4.72536    -54.53046    -1.78402    35.46954
44937445536.52231    -2.79274    5.67534    -3.23934    -84.32466    -3.23934    -84.32466    -2.79274    5.67534
45042263211.63962    -3.27545    -25.61075    -2.76041    -115.61075    -2.76041    -115.61075    -3.27545    -25.61075
45147325376.51119    -2.79872    -55.85227    -3.23271    -145.85227    -3.23271    -145.85227    -2.79872    -55.85227
45252632601.41545    -1.89411    -82.99211    -4.51647    -172.99211    -4.51647    -172.99211    -1.89411    -82.99211
45358185457.96051    -1.15158    -105.39844    -6.32797    164.60156    -6.32797    164.60156    -1.15158    -105.39844
45463984519.08825    -0.69311    -122.82419    -8.31179    147.17581    -8.31179    147.17581    -0.69311    -122.82419
45570030359.07679    -0.43398    -136.13007    -10.21836    133.86993    -10.21836    133.86993    -0.43398    -136.13007
45676323553.54378    -0.28758    -146.39780    -11.93331    123.60220    -11.93331    123.60220    -0.28758    -146.39780
45782864679.44950    -0.20205    -154.50680    -13.42387    115.49320    -13.42387    115.49320    -0.20205    -154.50680
45889654315.10001    -0.14994    -161.08259    -14.69350    108.91741    -14.69350    108.91741    -0.14994    -161.08259
45996693040.15045    -0.11689    -166.55431    -15.75850    103.44569    -15.75850    103.44569    -0.11689    -166.55431
46103981435.60752    -0.09522    -171.21689    -16.63800    98.78311    -16.63800    98.78311    -0.09522    -171.21689
46211520083.83362    -0.08069    -175.27663    -17.34998    94.72337    -17.34998    94.72337    -0.08069    -175.27663
46319309568.54938    -0.07085    -178.88128    -17.90990    91.11872    -17.90990    91.11872    -0.07085    -178.88128
46427350474.83694    -0.06426    177.86044    -18.33037    87.86044    -18.33037    87.86044    -0.06426    177.86044
46535643389.14336    -0.06007    174.86608    -18.62105    84.86608    -18.62105    84.86608    -0.06007    174.86608
46644188899.28308    -0.05778    172.07091    -18.78876    82.07091    -18.78876    82.07091    -0.05778    172.07091
46752987594.44215    -0.05713    169.42191    -18.83742    79.42191    -18.83742    79.42191    -0.05713    169.42191
46862040065.18072    -0.05806    166.87329    -18.76787    76.87329    -18.76787    76.87329    -0.05806    166.87329
46971346903.43645    -0.06068    164.38265    -18.57746    74.38265    -18.57746    74.38265    -0.06068    164.38265
47080908702.52769    -0.06533    161.90716    -18.25931    71.90716    -18.25931    71.90716    -0.06533    161.90716
47190726057.15677    -0.07266    159.39872    -17.80096    69.39872    -17.80096    69.39872    -0.07266    159.39872
47300799563.41312    -0.08390    156.79675    -17.18203    66.79675    -17.18203    66.79675    -0.08390    156.79675
47411129818.77676    -0.10135    154.01514    -16.37013    64.01514    -16.37013    64.01514    -0.10135    154.01514
47521717422.12083    -0.12970    150.91548    -15.31311    60.91548    -15.31311    60.91548    -0.12970    150.91548
47632562973.71587    -0.17963    147.24381    -13.92349    57.24381    -13.92349    57.24381    -0.17963    147.24381
47743667075.23241    -0.28011    142.45463    -12.04390    52.45463    -12.04390    52.45463    -0.28011    142.45463
47855030329.74435    -0.53460    135.09406    -9.36209    45.09406    -9.36209    45.09406    -0.53460    135.09406
47966653341.73248    -1.55512    119.75788    -5.21459    29.75788    -5.21459    29.75788    -1.55512    119.75788
48078536717.08705    -16.96418    69.18232    -0.08826    -20.81768    -0.08826    -20.81768    -16.96418    69.18232
48190681063.11205    -1.78651    -175.53324    -4.72046    -85.53324    -4.72046    -85.53324    -1.78651    -175.53324
48303086988.52784    -0.41741    164.43659    -10.37924    -105.56341    -10.37924    -105.56341    -0.41741    164.43659
48415755103.47469    -0.16026    155.52416    -14.40936    -114.47584    -14.40936    -114.47584    -0.16026    155.52416
48528686019.51597    -0.07583    149.69307    -17.61744    -120.30693    -17.61744    -120.30693    -0.07583    149.69307
48641880349.64159    -0.03942    144.96303    -20.44019    -125.03697    -20.44019    -125.03697    -0.03942    144.96303
48755338708.27125    -0.02104    140.58793    -23.15877    -129.41207    -23.15877    -129.41207    -0.02104    140.58793
48869061711.25797    -0.01081    136.15943    -26.04661    -133.84057    -26.04661    -133.84057    -0.01081    136.15943
48983049975.89075    -0.00485    131.34410    -29.52385    -138.65590    -29.52385    -138.65590    -0.00485    131.34410
49097304120.89893    -0.00151    125.74373    -34.59997    -144.25627    -34.59997    -144.25627    -0.00151    125.74373
49211824766.45493    -0.00010    118.72527    -46.43646    -151.27473    -46.43646    -151.27473    -0.00010    118.72527
49326612534.17785    -0.00022    109.04025    -42.95920    19.04025    -42.95920    19.04025    -0.00022    109.04025
49441668047.13625    -0.00025    93.62357    -42.31517    3.62357    -42.31517    3.62357    -0.00025    93.62357
49556991929.85251    -0.02064    62.29220    -23.24166    152.29220    -23.24166    152.29220    -0.02064    62.29220
49672584808.30556    -1.65553    -23.55496    -4.98998    66.44504    -4.98998    66.44504    -1.65553    -23.55496
49788447309.93446    -2.70827    -125.27030    -3.33491    -35.27030    -3.33491    -35.27030    -2.70827    -125.27030
49904580063.64175    -1.00728    -176.87773    -6.84027    -86.87773    -6.84027    -86.87773    -1.00728    -176.87773
50020983699.79692    -0.49209    156.23198    -9.70112    -113.76802    -9.70112    -113.76802    -0.49209    156.23198
50137658850.23981    -0.31274    136.55650    -11.58140    -133.44350    -11.58140    -133.44350    -0.31274    136.55650
50254606148.28406    -0.21706    115.64883    -13.12012    -154.35117    -13.12012    -154.35117    -0.21706    115.64883
50371826228.72066    -0.09291    83.82596    -16.74350    173.82596    -16.74350    173.82596    -0.09291    83.82596
50489319727.82079    -0.08041    18.85340    -17.36484    -71.14660    -17.36484    -71.14660    -0.08041    18.85340
50607087283.34023    -0.74501    -73.11512    -8.02341    -163.11512    -8.02341    -163.11512    -0.74501    -73.11512
50725129534.52220    -0.34954    -130.07486    -11.11648    139.92514    -11.11648    139.92514    -0.34954    -130.07486
50843447122.10114    -0.12414    -158.71470    -15.50063    111.28530    -15.50063    111.28530    -0.12414    -158.71470
50962040688.30544    -0.05061    -174.80240    -19.36082    95.19760    -19.36082    95.19760    -0.05061    -174.80240
51080910876.86211    -0.02379    174.81292    -22.62539    84.81292    -22.62539    84.81292    -0.02379    174.81292
51200058332.99945    -0.01251    167.36894    -25.41057    77.36894    -25.41057    77.36894    -0.01251    167.36894
51319483703.45078    -0.00719    161.61674    -27.81275    71.61674    -27.81275    71.61674    -0.00719    161.61674
51439187636.45792    -0.00445    156.92114    -29.89636    66.92114    -29.89636    66.92114    -0.00445    156.92114
51559170781.77476    -0.00294    152.92681    -31.70302    62.92681    -31.70302    62.92681    -0.00294    152.92681
51679433790.67075    -0.00205    149.41944    -33.26002    59.41944    -33.26002    59.41944    -0.00205    149.41944
51799977315.93442    -0.00151    146.26181    -34.58633    56.26181    -34.58633    56.26181    -0.00151    146.26181
51920802011.87715    -0.00117    143.36165    -35.69676    53.36165    -35.69676    53.36165    -0.00117    143.36165
52041908534.33597    -0.00095    140.65439    -36.60478    50.65439    -36.60478    50.65439    -0.00095    140.65439
52163297540.67819    -0.00080    138.09323    -37.32420    48.09323    -37.32420    48.09323    -0.00080    138.09323
52284969689.80431    -0.00071    135.64324    -37.87001    45.64324    -37.87001    45.64324    -0.00071    135.64324
52406925642.15184    -0.00065    133.27766    -38.25845    43.27766    -38.25845    43.27766    -0.00065    133.27766
52529166059.69830    -0.00061    130.97549    -38.50664    40.97549    -38.50664    40.97549    -0.00061    130.97549
52651691605.96580    -0.00060    128.71987    -38.63194    38.71987    -38.63194    38.71987    -0.00060    128.71987
52774502946.02396    -0.00059    126.49703    -38.65123    36.49703    -38.65123    36.49703    -0.00059    126.49703
52897600746.49367    -0.00060    124.29545    -38.58039    34.29545    -38.58039    34.29545    -0.00060    124.29545
53020985675.55076    -0.00062    122.10537    -38.43384    32.10537    -38.43384    32.10537    -0.00062    122.10537
53144658402.92958    -0.00065    119.91833    -38.22433    29.91833    -38.22433    29.91833    -0.00065    119.91833
53268619599.92666    -0.00069    117.72690    -37.96288    27.72690    -37.96288    27.72690    -0.00069    117.72690
53392869939.40434    -0.00074    115.52445    -37.65884    25.52445    -37.65884    25.52445    -0.00074    115.52445
53517410095.79459    -0.00081    113.30494    -37.32004    23.30494    -37.32004    23.30494    -0.00081    113.30494
53642240745.10201    -0.00088    111.06286    -36.95292    21.06286    -36.95292    21.06286    -0.00088    111.06286
53767362564.90849    -0.00096    108.79303    -36.56274    18.79303    -36.56274    18.79303    -0.00096    108.79303
53892776234.37624    -0.00105    106.49059    -36.15379    16.49059    -36.15379    16.49059    -0.00105    106.49059
54018482434.25165    -0.00116    104.15089    -35.72948    14.15089    -35.72948    14.15089    -0.00116    104.15089
54144481846.86913    -0.00128    101.76946    -35.29259    11.76946    -35.29259    11.76946    -0.00128    101.76946
54270775156.15408    -0.00142    99.34197    -34.84530    9.34197    -34.84530    9.34197    -0.00142    99.34197
54397363047.62778    -0.00158    96.86417    -34.38935    6.86417    -34.38935    6.86417    -0.00158    96.86417
54524246208.41025    -0.00176    94.33189    -33.92613    4.33189    -33.92613    4.33189    -0.00176    94.33189
54651425327.22429    -0.00196    91.74101    -33.45675    1.74101    -33.45675    1.74101    -0.00196    91.74101
54778901094.39915    -0.00219    89.08743    -32.98207    -0.91257    -32.98207    -0.91257    -0.00219    89.08743
54906674201.87427    -0.00244    86.36712    -32.50280    -3.63288    -32.50280    -3.63288    -0.00244    86.36712
55034745343.20308    -0.00273    83.57603    -32.01951    -6.42397    -32.01951    -6.42397    -0.00273    83.57603
55163115213.55692    -0.00305    80.71017    -31.53268    -9.28983    -31.53268    -9.28983    -0.00305    80.71017
55291784509.72806    -0.00342    77.76558    -31.04270    -12.23442    -31.04270    -12.23442    -0.00342    77.76558
55420753930.13461    -0.00383    74.73835    -30.54993    -15.26165    -30.54993    -15.26165    -0.00383    74.73835
55550024174.82362    -0.00429    71.62462    -30.05470    -18.37538    -30.05470    -18.37538    -0.00429    71.62462
55679595945.47495    -0.00481    68.42066    -29.55733    -21.57934    -29.55733    -21.57934    -0.00481    68.42066
55809469945.40538    -0.00540    65.12281    -29.05814    -24.87719    -29.05814    -24.87719    -0.00540    65.12281
55939646879.57161    -0.00606    61.72762    -28.55744    -28.27238    -28.55744    -28.27238    -0.00606    61.72762
56070127454.57524    -0.00680    58.23181    -28.05559    -31.76819    -28.05559    -31.76819    -0.00680    58.23181
56200912378.66584    -0.00764    54.63235    -27.55296    -35.36765    -27.55296    -35.36765    -0.00764    54.63235
56332002361.74499    -0.00857    50.92654    -27.04993    -39.07346    -27.04993    -39.07346    -0.00857    50.92654
56463398115.37014    -0.00963    47.11202    -26.54693    -42.88798    -26.54693    -42.88798    -0.00963    47.11202
56595100352.75846    -0.01081    43.18688    -26.04442    -46.81312    -26.04442    -46.81312    -0.01081    43.18688
56727109788.79092    -0.01214    39.14968    -25.54285    -50.85032    -25.54285    -50.85032    -0.01214    39.14968
56859427140.01536    -0.01362    34.99957    -25.04273    -55.00043    -25.04273    -55.00043    -0.01362    34.99957
56992053124.65158    -0.01528    30.73634    -24.54455    -59.26366    -24.54455    -59.26366    -0.01528    30.73634
57124988462.59447    -0.01713    26.36046    -24.04878    -63.63954    -24.04878    -63.63954    -0.01713    26.36046
57258233875.41808    -0.01919    21.87316    -23.55592    -68.12684    -23.55592    -68.12684    -0.01919    21.87316
57391790086.37972    -0.02149    17.27646    -23.06637    -72.72354    -23.06637    -72.72354    -0.02149    17.27646
57525657820.42316    -0.02404    12.57322    -22.58051    -77.42678    -22.58051    -77.42678    -0.02404    12.57322
57659837804.18369    -0.02687    7.76712    -22.09861    -82.23288    -22.09861    -82.23288    -0.02687    7.76712
57794330765.99130    -0.03001    2.86264    -21.62084    -87.13736    -21.62084    -87.13736    -0.03001    2.86264
57929137435.87485    -0.03348    -2.13496    -21.14721    -92.13496    -21.14721    -92.13496    -0.03348    -2.13496
58064258545.56596    -0.03732    -7.21975    -20.67757    -97.21975    -20.67757    -97.21975    -0.03732    -7.21975
58199694828.50309    -0.04156    -12.38525    -20.21156    -102.38525    -20.21156    -102.38525    -0.04156    -12.38525
58335447019.83542    -0.04626    -17.62456    -19.74857    -107.62456    -19.74857    -107.62456    -0.04626    -17.62456
58471515856.42712    -0.05147    -22.93060    -19.28773    -112.93060    -19.28773    -112.93060    -0.05147    -22.93060
58607902076.86045    -0.05726    -28.29629    -18.82785    -118.29629    -18.82785    -118.29629    -0.05726    -28.29629
58744606421.44110    -0.06371    -33.71486    -18.36743    -123.71486    -18.36743    -123.71486    -0.06371    -33.71486
58881629632.20132    -0.07094    -39.18016    -17.90458    -129.18016    -17.90458    -129.18016    -0.07094    -39.18016
59018972452.90414    -0.07907    -44.68696    -17.43704    -134.68696    -17.43704    -134.68696    -0.07907    -44.68696
59156635629.04768    -0.08830    -50.23141    -16.96210    -140.23141    -16.96210    -140.23141    -0.08830    -50.23141
59294619907.86830    -0.09887    -55.81143    -16.47659    -145.81143    -16.47659    -145.81143    -0.09887    -55.81143
59432926038.34596    -0.11108    -61.42723    -15.97685    -151.42723    -15.97685    -151.42723    -0.11108    -61.42723
59571554771.20740    -0.12536    -67.08195    -15.45862    -157.08195    -15.45862    -157.08195    -0.12536    -67.08195
59710506858.93046    -0.14229    -72.78237    -14.91704    -162.78237    -14.91704    -162.78237    -0.14229    -72.78237
59849783055.74815    -0.16265    -78.53994    -14.34648    -168.53994    -14.34648    -168.53994    -0.16265    -78.53994
59989384117.65274    -0.18753    -84.37207    -13.74047    -174.37207    -13.74047    -174.37207    -0.18753    -84.37207
60129310802.40011    -0.21853    -90.30403    -13.09149    179.69597    -13.09149    179.69597    -0.21853    -90.30403
60269563869.51295    -0.25796    -96.37167    -12.39074    173.62833    -12.39074    173.62833    -0.25796    -96.37167
60410144080.28621    -0.30929    -102.62558    -11.62787    167.37442    -11.62787    167.37442    -0.30929    -102.62558
60551052197.79036    -0.37800    -109.13760    -10.79056    160.86240    -10.79056    160.86240    -0.37800    -109.13760
60692288986.87577    -0.47294    -116.01127    -9.86411    153.98873    -9.86411    153.98873    -0.47294    -116.01127
60833855214.17703    -0.60923    -123.39938    -8.83110    146.60062    -8.83110    146.60062    -0.60923    -123.39938
60975751648.11630    -0.81415    -131.53402    -7.67150    138.46598    -7.67150    138.46598    -0.81415    -131.53402
61117979058.90874    -1.14048    -140.77911    -6.36473    129.22089    -6.36473    129.22089    -1.14048    -140.77911
61260538218.56583    -1.69913    -151.72043    -4.89747    118.27957    -4.89747    118.27957    -1.69913    -151.72043
61403429900.89980    -2.74823    -165.29838    -3.28921    104.70162    -3.28921    104.70162    -2.74823    -165.29838
61546654881.52780    -4.97368    177.12510    -1.66311    87.12510    -1.66311    87.12510    -4.97368    177.12510
61690213937.87616    -10.76405    154.37375    -0.38042    64.37375    -0.38042    64.37375    -10.76405    154.37375
61834107849.18453    -22.33883    -52.25102    -0.02542    37.74898    -0.02542    37.74898    -22.33883    -52.25102
61978337396.51041    -7.66456    -77.93387    -0.81558    12.06613    -0.81558    12.06613    -7.66456    -77.93387
62122903362.73246    -3.87781    -99.17487    -2.28756    -9.17487    -2.28756    -9.17487    -3.87781    -99.17487
62267806532.55608    -2.24408    -116.21691    -3.94129    -26.21691    -3.94129    -26.21691    -2.24408    -116.21691
62413047692.51682    -1.40963    -130.62920    -5.57257    -40.62920    -5.57257    -40.62920    -1.40963    -130.62920
62558627630.98479    -0.92233    -143.83166    -7.18199    -53.83166    -7.18199    -53.83166    -0.92233    -143.83166
62704547138.16927    -0.59799    -156.97698    -8.90647    -66.97698    -8.90647    -66.97698    -0.59799    -156.97698
62850807006.12203    -0.35097    -171.19654    -11.09949    -81.19654    -11.09949    -81.19654    -0.35097    -171.19654
62997408028.74300    -0.14421    172.04497    -14.85993    -97.95503    -14.85993    -97.95503    -0.14421    172.04497
63144351001.78365    -0.00579    150.43155    -28.75522    -119.56845    -28.75522    -119.56845    -0.00579    150.43155
63291636722.85159    -0.16925    120.39881    -14.17702    30.39881    -14.17702    30.39881    -0.16925    120.39881
63439265991.41485    -1.26670    79.76841    -5.96907    -10.23159    -5.96907    -10.23159    -1.26670    79.76841
63587239608.80625    -3.15814    34.85345    -2.86733    -55.14655    -2.86733    -55.14655    -3.15814    34.85345
63735558378.22796    -3.66770    -7.34074    -2.43945    -97.34074    -2.43945    -97.34074    -3.66770    -7.34074
63884223104.75496    -2.36790    -47.58975    -3.76450    -137.58975    -3.76450    -137.58975    -2.36790    -47.58975
64033234595.34076    -0.93518    -86.35582    -7.12810    -176.35582    -7.12810    -176.35582    -0.93518    -86.35582
64182593658.82089    -0.16423    -123.49687    -14.30517    146.50313    -14.30517    146.50313    -0.16423    -123.49687
64332301105.91751    -0.02016    -162.42700    -23.34325    -72.42700    -23.34325    -72.42700    -0.02016    -162.42700
64482357749.24403    -0.52969    150.39373    -9.39980    -119.60627    -9.39980    -119.60627    -0.52969    150.39373
64632764403.30862    -1.30117    91.59684    -5.86885    -178.40316    -5.86885    -178.40316    -1.30117    91.59684
64783521884.51999    -0.81573    27.81884    -7.66387    117.81884    -7.66387    117.81884    -0.81573    27.81884
64934631011.19092    -0.16777    -24.50458    -14.21439    65.49542    -14.21439    65.49542    -0.16777    -24.50458
65086092603.54292    -0.01768    -58.32409    -23.91080    31.67591    -23.91080    31.67591    -0.01768    -58.32409
65237907483.71069    -0.00026    -80.24853    -42.30824    9.75147    -42.30824    9.75147    -0.00026    -80.24853
65390076475.74658    -0.00099    -95.76301    -36.40395    174.23699    -36.40395    174.23699    -0.00099    -95.76301
65542600405.62505    -0.00249    -107.64240    -32.41604    162.35760    -32.41604    162.35760    -0.00249    -107.64240
65695480101.24743    -0.00310    -117.29664    -31.46312    152.70336    -31.46312    152.70336    -0.00310    -117.29664
65848716392.44540    -0.00313    -125.50093    -31.42021    144.49907    -31.42021    144.49907    -0.00313    -125.50093
66002310110.98700    -0.00291    -132.71634    -31.74266    137.28366    -31.74266    137.28366    -0.00291    -132.71634
66156262090.58010    -0.00261    -139.23645    -32.21368    130.76355    -32.21368    130.76355    -0.00261    -139.23645
66310573166.87726    -0.00232    -145.25935    -32.72491    124.74065    -32.72491    124.74065    -0.00232    -145.25935
66465244177.48042    -0.00207    -150.92578    -33.21268    119.07422    -33.21268    119.07422    -0.00207    -150.92578
66620275961.94456    -0.00188    -156.34044    -33.63471    113.65956    -33.63471    113.65956    -0.00188    -156.34044
66775669361.78366    -0.00175    -161.58480    -33.96059    108.41520    -33.96059    108.41520    -0.00175    -161.58480
66931425220.47427    -0.00166    -166.72492    -34.16780    103.27508    -34.16780    103.27508    -0.00166    -166.72492
67087544383.46043    -0.00164    -171.81668    -34.24039    98.18332    -34.24039    98.18332    -0.00164    -171.81668
67244027698.15815    -0.00166    -176.90921    -34.16856    93.09079    -34.16856    93.09079    -0.00166    -176.90921
67400876013.96008    -0.00175    177.95261    -33.94859    87.95261    -33.94859    87.95261    -0.00175    177.95261
67558090182.24033    -0.00190    172.72639    -33.58255    82.72639    -33.58255    82.72639    -0.00190    172.72639
67715671056.35816    -0.00214    167.37095    -33.07766    77.37095    -33.07766    77.37095    -0.00214    167.37095
67873619491.66401    -0.00247    161.84533    -32.44522    71.84533    -32.44522    71.84533    -0.00247    161.84533
68031936345.50321    -0.00294    156.10808    -31.69950    66.10808    -31.69950    66.10808    -0.00294    156.10808
68190622477.22088    -0.00357    150.11693    -30.85654    60.11693    -30.85654    60.11693    -0.00357    150.11693
68349678748.16680    -0.00441    143.82868    -29.93327    53.82868    -29.93327    53.82868    -0.00441    143.82868
68509106021.69918    -0.00554    137.19956    -28.94691    47.19956    -28.94691    47.19956    -0.00554    137.19956
68668905163.19072    -0.00703    130.18606    -27.91471    40.18606    -27.91471    40.18606    -0.00703    130.18606
68829077040.03242    -0.00897    122.74648    -26.85396    32.74648    -26.85396    32.74648    -0.00897    122.74648
68989622521.63846    -0.01149    114.84335    -25.78214    24.84335    -25.78214    24.84335    -0.01149    114.84335
69150542479.45094    -0.01468    106.44677    -24.71717    16.44677    -24.71717    16.44677    -0.01468    106.44677
69311837786.94469    -0.01866    97.53883    -23.67759    7.53883    -23.67759    7.53883    -0.01866    97.53883
69473509319.63184    -0.02348    88.11872    -22.68247    -1.88128    -22.68247    -1.88128    -0.02348    88.11872
69635557955.06700    -0.02912    78.20816    -21.75107    -11.79184    -21.75107    -11.79184    -0.02912    78.20816
69797984572.85092    -0.03543    67.85588    -20.90202    -22.14412    -20.90202    -22.14412    -0.03543    67.85588
69960790054.63678    -0.04214    57.14002    -20.15219    -32.85998    -20.15219    -32.85998    -0.04214    57.14002
70123975284.13402    -0.04883    46.16686    -19.51524    -43.83314    -19.51524    -43.83314    -0.04883    46.16686
70287541147.11330    -0.05502    35.06524    -19.00025    -54.93476    -19.00025    -54.93476    -0.05502    35.06524
70451488531.41168    -0.06022    23.97682    -18.61071    -66.02318    -18.61071    -66.02318    -0.06022    23.97682
70615818326.93631    -0.06406    13.04395    -18.34416    -76.95605    -18.34416    -76.95605    -0.06406    13.04395
70780531425.67085    -0.06635    2.39737    -18.19262    -87.60263    -18.19262    -87.60263    -0.06635    2.39737
70945628721.67928    -0.06711    -7.85350    -18.14369    -97.85350    -18.14369    -97.85350    -0.06711    -7.85350
71111111111.11101    -0.06651    -17.62639    -18.18202    -107.62639    -18.18202    -107.62639    -0.06651    -17.62639
