! markimicrowave.com
! Date: Thu Jul 30 2026 10:02:13 GMT+0800 (中国标准时间)
# Hz S DB R 50.00
!Frequency        S11 dB       S11 Deg       S21 dB      S21 Deg      S12 dB      S12 Deg      S22 dB       S22 Deg      
675000000.00000    -0.00000    174.04072    -71.44576    84.04072    -71.44576    84.04072    -0.00000    174.04072
676574453.77367    -0.00000    174.02665    -71.42502    84.02665    -71.42502    84.02665    -0.00000    174.02665
678152579.99873    -0.00000    174.01255    -71.40427    84.01255    -71.40427    84.01255    -0.00000    174.01255
679734387.24126    -0.00000    173.99841    -71.38352    83.99841    -71.38352    83.99841    -0.00000    173.99841
681319884.08731    -0.00000    173.98424    -71.36277    83.98424    -71.36277    83.98424    -0.00000    173.98424
682909079.14299    -0.00000    173.97003    -71.34201    83.97003    -71.34201    83.97003    -0.00000    173.97003
684501981.03444    -0.00000    173.95579    -71.32125    83.95579    -71.32125    83.95579    -0.00000    173.95579
686098598.40796    -0.00000    173.94151    -71.30049    83.94151    -71.30049    83.94151    -0.00000    173.94151
687698939.93000    -0.00000    173.92720    -71.27973    83.92720    -71.27973    83.92720    -0.00000    173.92720
689303014.28722    -0.00000    173.91286    -71.25896    83.91286    -71.25896    83.91286    -0.00000    173.91286
690910830.18655    -0.00000    173.89848    -71.23819    83.89848    -71.23819    83.89848    -0.00000    173.89848
692522396.35523    -0.00000    173.88407    -71.21742    83.88407    -71.21742    83.88407    -0.00000    173.88407
694137721.54085    -0.00000    173.86962    -71.19665    83.86962    -71.19665    83.86962    -0.00000    173.86962
695756814.51141    -0.00000    173.85513    -71.17587    83.85513    -71.17587    83.85513    -0.00000    173.85513
697379684.05536    -0.00000    173.84061    -71.15509    83.84061    -71.15509    83.84061    -0.00000    173.84061
699006338.98165    -0.00000    173.82606    -71.13431    83.82606    -71.13431    83.82606    -0.00000    173.82606
700636788.11977    -0.00000    173.81147    -71.11353    83.81147    -71.11353    83.81147    -0.00000    173.81147
702271040.31981    -0.00000    173.79684    -71.09274    83.79684    -71.09274    83.79684    -0.00000    173.79684
703909104.45251    -0.00000    173.78218    -71.07195    83.78218    -71.07195    83.78218    -0.00000    173.78218
705550989.40930    -0.00000    173.76749    -71.05116    83.76749    -71.05116    83.76749    -0.00000    173.76749
707196704.10232    -0.00000    173.75275    -71.03037    83.75275    -71.03037    83.75275    -0.00000    173.75275
708846257.46455    -0.00000    173.73799    -71.00957    83.73799    -71.00957    83.73799    -0.00000    173.73799
710499658.44976    -0.00000    173.72318    -70.98877    83.72318    -70.98877    83.72318    -0.00000    173.72318
712156916.03264    -0.00000    173.70834    -70.96797    83.70834    -70.96797    83.70834    -0.00000    173.70834
713818039.20878    -0.00000    173.69347    -70.94716    83.69347    -70.94716    83.69347    -0.00000    173.69347
715483036.99477    -0.00000    173.67856    -70.92635    83.67856    -70.92635    83.67856    -0.00000    173.67856
717151918.42825    -0.00000    173.66361    -70.90554    83.66361    -70.90554    83.66361    -0.00000    173.66361
718824692.56790    -0.00000    173.64862    -70.88473    83.64862    -70.88473    83.64862    -0.00000    173.64862
720501368.49356    -0.00000    173.63360    -70.86391    83.63360    -70.86391    83.63360    -0.00000    173.63360
722181955.30625    -0.00000    173.61855    -70.84310    83.61855    -70.84310    83.61855    -0.00000    173.61855
723866462.12819    -0.00000    173.60345    -70.82227    83.60345    -70.82227    83.60345    -0.00000    173.60345
725554898.10291    -0.00000    173.58832    -70.80145    83.58832    -70.80145    83.58832    -0.00000    173.58832
727247272.39524    -0.00000    173.57315    -70.78062    83.57315    -70.78062    83.57315    -0.00000    173.57315
728943594.19141    -0.00000    173.55795    -70.75979    83.55795    -70.75979    83.55795    -0.00000    173.55795
730643872.69907    -0.00000    173.54271    -70.73896    83.54271    -70.73896    83.54271    -0.00000    173.54271
732348117.14734    -0.00000    173.52743    -70.71812    83.52743    -70.71812    83.52743    -0.00000    173.52743
734056336.78687    -0.00000    173.51212    -70.69728    83.51212    -70.69728    83.51212    -0.00000    173.51212
735768540.88990    -0.00000    173.49676    -70.67644    83.49676    -70.67644    83.49676    -0.00000    173.49676
737484738.75027    -0.00000    173.48137    -70.65560    83.48137    -70.65560    83.48137    -0.00000    173.48137
739204939.68354    -0.00000    173.46595    -70.63475    83.46595    -70.63475    83.46595    -0.00000    173.46595
740929153.02695    -0.00000    173.45048    -70.61390    83.45048    -70.61390    83.45048    -0.00000    173.45048
742657388.13955    -0.00000    173.43498    -70.59304    83.43498    -70.59304    83.43498    -0.00000    173.43498
744389654.40222    -0.00000    173.41944    -70.57219    83.41944    -70.57219    83.41944    -0.00000    173.41944
746125961.21771    -0.00000    173.40386    -70.55133    83.40386    -70.55133    83.40386    -0.00000    173.40386
747866318.01071    -0.00000    173.38824    -70.53046    83.38824    -70.53046    83.38824    -0.00000    173.38824
749610734.22789    -0.00000    173.37259    -70.50960    83.37259    -70.50960    83.37259    -0.00000    173.37259
751359219.33795    -0.00000    173.35690    -70.48873    83.35690    -70.48873    83.35690    -0.00000    173.35690
753111782.83168    -0.00000    173.34116    -70.46786    83.34116    -70.46786    83.34116    -0.00000    173.34116
754868434.22202    -0.00000    173.32540    -70.44698    83.32540    -70.44698    83.32540    -0.00000    173.32540
756629183.04408    -0.00000    173.30959    -70.42610    83.30959    -70.42610    83.30959    -0.00000    173.30959
758394038.85521    -0.00000    173.29374    -70.40522    83.29374    -70.40522    83.29374    -0.00000    173.29374
760163011.23507    -0.00000    173.27786    -70.38434    83.27786    -70.38434    83.27786    -0.00000    173.27786
761936109.78565    -0.00000    173.26193    -70.36345    83.26193    -70.36345    83.26193    -0.00000    173.26193
763713344.13136    -0.00000    173.24597    -70.34256    83.24597    -70.34256    83.24597    -0.00000    173.24597
765494723.91902    -0.00000    173.22997    -70.32167    83.22997    -70.32167    83.22997    -0.00000    173.22997
767280258.81799    -0.00000    173.21393    -70.30077    83.21393    -70.30077    83.21393    -0.00000    173.21393
769069958.52015    -0.00000    173.19785    -70.27987    83.19785    -70.27987    83.19785    -0.00000    173.19785
770863832.74002    -0.00000    173.18173    -70.25897    83.18173    -70.25897    83.18173    -0.00000    173.18173
772661891.21475    -0.00000    173.16557    -70.23806    83.16557    -70.23806    83.16557    -0.00000    173.16557
774464143.70423    -0.00000    173.14937    -70.21715    83.14937    -70.21715    83.14937    -0.00000    173.14937
776270599.99108    -0.00000    173.13313    -70.19624    83.13313    -70.19624    83.13313    -0.00000    173.13313
778081269.88079    -0.00000    173.11686    -70.17532    83.11686    -70.17532    83.11686    -0.00000    173.11686
779896163.20166    -0.00000    173.10054    -70.15440    83.10054    -70.15440    83.10054    -0.00000    173.10054
781715289.80495    -0.00000    173.08418    -70.13348    83.08418    -70.13348    83.08418    -0.00000    173.08418
783538659.56491    -0.00000    173.06779    -70.11255    83.06779    -70.11255    83.06779    -0.00000    173.06779
785366282.37879    -0.00000    173.05135    -70.09162    83.05135    -70.09162    83.05135    -0.00000    173.05135
787198168.16695    -0.00000    173.03487    -70.07069    83.03487    -70.07069    83.03487    -0.00000    173.03487
789034326.87288    -0.00000    173.01835    -70.04976    83.01835    -70.04976    83.01835    -0.00000    173.01835
790874768.46325    -0.00000    173.00179    -70.02882    83.00179    -70.02882    83.00179    -0.00000    173.00179
792719502.92800    -0.00000    172.98519    -70.00787    82.98519    -70.00787    82.98519    -0.00000    172.98519
794568540.28037    -0.00000    172.96856    -69.98693    82.96856    -69.98693    82.96856    -0.00000    172.96856
796421890.55694    -0.00000    172.95187    -69.96598    82.95187    -69.96598    82.95187    -0.00000    172.95187
798279563.81772    -0.00000    172.93515    -69.94502    82.93515    -69.94502    82.93515    -0.00000    172.93515
800141570.14616    -0.00000    172.91839    -69.92407    82.91839    -69.92407    82.91839    -0.00000    172.91839
802007919.64926    -0.00000    172.90159    -69.90311    82.90159    -69.90311    82.90159    -0.00000    172.90159
803878622.45757    -0.00000    172.88474    -69.88214    82.88474    -69.88214    82.88474    -0.00000    172.88474
805753688.72527    -0.00000    172.86786    -69.86118    82.86786    -69.86118    82.86786    -0.00000    172.86786
807633128.63026    -0.00000    172.85093    -69.84020    82.85093    -69.84020    82.85093    -0.00000    172.85093
809516952.37413    -0.00000    172.83396    -69.81923    82.83396    -69.81923    82.83396    -0.00000    172.83396
811405170.18230    -0.00000    172.81695    -69.79825    82.81695    -69.79825    82.81695    -0.00000    172.81695
813297792.30404    -0.00000    172.79990    -69.77727    82.79990    -69.77727    82.79990    -0.00000    172.79990
815194829.01251    -0.00000    172.78280    -69.75628    82.78280    -69.75628    82.78280    -0.00000    172.78280
817096290.60483    -0.00000    172.76566    -69.73530    82.76566    -69.73530    82.76566    -0.00000    172.76566
819002187.40215    -0.00000    172.74849    -69.71430    82.74849    -69.71430    82.74849    -0.00000    172.74849
820912529.74971    -0.00000    172.73127    -69.69331    82.73127    -69.69331    82.73127    -0.00000    172.73127
822827328.01685    -0.00000    172.71400    -69.67231    82.71400    -69.67231    82.71400    -0.00000    172.71400
824746592.59712    -0.00000    172.69670    -69.65130    82.69670    -69.65130    82.69670    -0.00000    172.69670
826670333.90829    -0.00000    172.67935    -69.63030    82.67935    -69.63030    82.67935    -0.00000    172.67935
828598562.39244    -0.00000    172.66196    -69.60929    82.66196    -69.60929    82.66196    -0.00000    172.66196
830531288.51602    -0.00000    172.64452    -69.58827    82.64452    -69.58827    82.64452    -0.00000    172.64452
832468522.76989    -0.00000    172.62705    -69.56725    82.62705    -69.56725    82.62705    -0.00000    172.62705
834410275.66935    -0.00000    172.60953    -69.54623    82.60953    -69.54623    82.60953    -0.00000    172.60953
836356557.75427    -0.00000    172.59196    -69.52520    82.59196    -69.52520    82.59196    -0.00000    172.59196
838307379.58907    -0.00000    172.57436    -69.50417    82.57436    -69.50417    82.57436    -0.00000    172.57436
840262751.76284    -0.00000    172.55671    -69.48314    82.55671    -69.48314    82.55671    -0.00000    172.55671
842222684.88934    -0.00000    172.53901    -69.46210    82.53901    -69.46210    82.53901    -0.00000    172.53901
844187189.60711    -0.00000    172.52128    -69.44106    82.52128    -69.44106    82.52128    -0.00000    172.52128
846156276.57950    -0.00000    172.50350    -69.42001    82.50350    -69.42001    82.50350    -0.00000    172.50350
848129956.49473    -0.00000    172.48567    -69.39896    82.48567    -69.39896    82.48567    -0.00000    172.48567
850108240.06594    -0.00000    172.46780    -69.37791    82.46780    -69.37791    82.46780    -0.00000    172.46780
852091138.03128    -0.00000    172.44989    -69.35685    82.44989    -69.35685    82.44989    -0.00000    172.44989
854078661.15393    -0.00000    172.43193    -69.33579    82.43193    -69.33579    82.43193    -0.00000    172.43193
856070820.22217    -0.00000    172.41393    -69.31472    82.41393    -69.31472    82.41393    -0.00000    172.41393
858067626.04948    -0.00000    172.39589    -69.29365    82.39589    -69.29365    82.39589    -0.00000    172.39589
860069089.47451    -0.00000    172.37779    -69.27258    82.37779    -69.27258    82.37779    -0.00000    172.37779
862075221.36125    -0.00000    172.35966    -69.25150    82.35966    -69.25150    82.35966    -0.00000    172.35966
864086032.59897    -0.00000    172.34148    -69.23042    82.34148    -69.23042    82.34148    -0.00000    172.34148
866101534.10238    -0.00000    172.32325    -69.20934    82.32325    -69.20934    82.32325    -0.00000    172.32325
868121736.81164    -0.00000    172.30498    -69.18825    82.30498    -69.18825    82.30498    -0.00000    172.30498
870146651.69242    -0.00000    172.28667    -69.16715    82.28667    -69.16715    82.28667    -0.00000    172.28667
872176289.73599    -0.00000    172.26831    -69.14605    82.26831    -69.14605    82.26831    -0.00000    172.26831
874210661.95922    -0.00000    172.24990    -69.12495    82.24990    -69.12495    82.24990    -0.00000    172.24990
876249779.40472    -0.00000    172.23145    -69.10384    82.23145    -69.10384    82.23145    -0.00000    172.23145
878293653.14081    -0.00000    172.21295    -69.08273    82.21295    -69.08273    82.21295    -0.00000    172.21295
880342294.26167    -0.00000    172.19441    -69.06162    82.19441    -69.06162    82.19441    -0.00000    172.19441
882395713.88733    -0.00000    172.17582    -69.04050    82.17582    -69.04050    82.17582    -0.00000    172.17582
884453923.16378    -0.00000    172.15718    -69.01937    82.15718    -69.01937    82.15718    -0.00000    172.15718
886516933.26299    -0.00000    172.13850    -68.99824    82.13850    -68.99824    82.13850    -0.00000    172.13850
888584755.38299    -0.00000    172.11977    -68.97711    82.11977    -68.97711    82.11977    -0.00000    172.11977
890657400.74794    -0.00000    172.10100    -68.95597    82.10100    -68.95597    82.10100    -0.00000    172.10100
892734880.60817    -0.00000    172.08218    -68.93483    82.08218    -68.93483    82.08218    -0.00000    172.08218
894817206.24027    -0.00000    172.06331    -68.91368    82.06331    -68.91368    82.06331    -0.00000    172.06331
896904388.94710    -0.00000    172.04440    -68.89253    82.04440    -68.89253    82.04440    -0.00000    172.04440
898996440.05792    -0.00000    172.02543    -68.87138    82.02543    -68.87138    82.02543    -0.00000    172.02543
901093370.92839    -0.00000    172.00643    -68.85022    82.00643    -68.85022    82.00643    -0.00000    172.00643
903195192.94067    -0.00000    171.98737    -68.82905    81.98737    -68.82905    81.98737    -0.00000    171.98737
905301917.50347    -0.00000    171.96827    -68.80789    81.96827    -68.80789    81.96827    -0.00000    171.96827
907413556.05210    -0.00000    171.94911    -68.78671    81.94911    -68.78671    81.94911    -0.00000    171.94911
909530120.04856    -0.00000    171.92992    -68.76554    81.92992    -68.76554    81.92992    -0.00000    171.92992
911651620.98156    -0.00000    171.91067    -68.74435    81.91067    -68.74435    81.91067    -0.00000    171.91067
913778070.36664    -0.00000    171.89138    -68.72317    81.89138    -68.72317    81.89138    -0.00000    171.89138
915909479.74618    -0.00000    171.87203    -68.70197    81.87203    -68.70197    81.87203    -0.00000    171.87203
918045860.68948    -0.00000    171.85264    -68.68078    81.85264    -68.68078    81.85264    -0.00000    171.85264
920187224.79284    -0.00000    171.83320    -68.65958    81.83320    -68.65958    81.83320    -0.00000    171.83320
922333583.67960    -0.00000    171.81371    -68.63837    81.81371    -68.63837    81.81371    -0.00000    171.81371
924484949.00021    -0.00000    171.79418    -68.61716    81.79418    -68.61716    81.79418    -0.00000    171.79418
926641332.43229    -0.00000    171.77459    -68.59594    81.77459    -68.59594    81.77459    -0.00000    171.77459
928802745.68072    -0.00000    171.75496    -68.57472    81.75496    -68.57472    81.75496    -0.00000    171.75496
930969200.47766    -0.00000    171.73528    -68.55350    81.73528    -68.55350    81.73528    -0.00000    171.73528
933140708.58265    -0.00000    171.71554    -68.53227    81.71554    -68.53227    81.71554    -0.00000    171.71554
935317281.78264    -0.00000    171.69576    -68.51103    81.69576    -68.51103    81.69576    -0.00000    171.69576
937498931.89210    -0.00000    171.67593    -68.48979    81.67593    -68.48979    81.67593    -0.00000    171.67593
939685670.75303    -0.00000    171.65605    -68.46855    81.65605    -68.46855    81.65605    -0.00000    171.65605
941877510.23508    -0.00000    171.63612    -68.44730    81.63612    -68.44730    81.63612    -0.00000    171.63612
944074462.23557    -0.00000    171.61614    -68.42605    81.61614    -68.42605    81.61614    -0.00000    171.61614
946276538.67956    -0.00000    171.59611    -68.40479    81.59611    -68.40479    81.59611    -0.00000    171.59611
948483751.51995    -0.00000    171.57603    -68.38352    81.57603    -68.38352    81.57603    -0.00000    171.57603
950696112.73750    -0.00000    171.55590    -68.36225    81.55590    -68.36225    81.55590    -0.00000    171.55590
952913634.34093    -0.00000    171.53572    -68.34098    81.53572    -68.34098    81.53572    -0.00000    171.53572
955136328.36696    -0.00000    171.51549    -68.31970    81.51549    -68.31970    81.51549    -0.00000    171.51549
957364206.88040    -0.00000    171.49521    -68.29841    81.49521    -68.29841    81.49521    -0.00000    171.49521
959597281.97418    -0.00000    171.47488    -68.27712    81.47488    -68.27712    81.47488    -0.00000    171.47488
961835565.76946    -0.00000    171.45449    -68.25583    81.45449    -68.25583    81.45449    -0.00000    171.45449
964079070.41565    -0.00000    171.43406    -68.23452    81.43406    -68.23452    81.43406    -0.00000    171.43406
966327808.09051    -0.00000    171.41357    -68.21322    81.41357    -68.21322    81.41357    -0.00000    171.41357
968581791.00022    -0.00000    171.39303    -68.19191    81.39303    -68.19191    81.39303    -0.00000    171.39303
970841031.37941    -0.00000    171.37244    -68.17059    81.37244    -68.17059    81.37244    -0.00000    171.37244
973105541.49125    -0.00000    171.35180    -68.14927    81.35180    -68.14927    81.35180    -0.00000    171.35180
975375333.62752    -0.00000    171.33111    -68.12794    81.33111    -68.12794    81.33111    -0.00000    171.33111
977650420.10867    -0.00000    171.31036    -68.10661    81.31036    -68.10661    81.31036    -0.00000    171.31036
979930813.28389    -0.00000    171.28957    -68.08527    81.28957    -68.08527    81.28957    -0.00000    171.28957
982216525.53117    -0.00000    171.26872    -68.06393    81.26872    -68.06393    81.26872    -0.00000    171.26872
984507569.25737    -0.00000    171.24782    -68.04258    81.24782    -68.04258    81.24782    -0.00000    171.24782
986803956.89830    -0.00000    171.22686    -68.02122    81.22686    -68.02122    81.22686    -0.00000    171.22686
989105700.91876    -0.00000    171.20585    -67.99986    81.20585    -67.99986    81.20585    -0.00000    171.20585
991412813.81265    -0.00000    171.18479    -67.97850    81.18479    -67.97850    81.18479    -0.00000    171.18479
993725308.10298    -0.00000    171.16368    -67.95713    81.16368    -67.95713    81.16368    -0.00000    171.16368
996043196.34200    -0.00000    171.14251    -67.93575    81.14251    -67.93575    81.14251    -0.00000    171.14251
998366491.11122    -0.00000    171.12129    -67.91437    81.12129    -67.91437    81.12129    -0.00000    171.12129
1000695205.02150    -0.00000    171.10002    -67.89298    81.10002    -67.89298    81.10002    -0.00000    171.10002
1003029350.71312    -0.00000    171.07869    -67.87159    81.07869    -67.87159    81.07869    -0.00000    171.07869
1005368940.85583    -0.00000    171.05731    -67.85019    81.05731    -67.85019    81.05731    -0.00000    171.05731
1007713988.14897    -0.00000    171.03588    -67.82878    81.03588    -67.82878    81.03588    -0.00000    171.03588
1010064505.32145    -0.00000    171.01439    -67.80737    81.01439    -67.80737    81.01439    -0.00000    171.01439
1012420505.13190    -0.00000    170.99284    -67.78595    80.99284    -67.78595    80.99284    -0.00000    170.99284
1014782000.36872    -0.00000    170.97125    -67.76453    80.97125    -67.76453    80.97125    -0.00000    170.97125
1017149003.85010    -0.00000    170.94959    -67.74310    80.94959    -67.74310    80.94959    -0.00000    170.94959
1019521528.42417    -0.00000    170.92789    -67.72167    80.92789    -67.72167    80.92789    -0.00000    170.92789
1021899586.96901    -0.00000    170.90612    -67.70023    80.90612    -67.70023    80.90612    -0.00000    170.90612
1024283192.39274    -0.00000    170.88431    -67.67878    80.88431    -67.67878    80.88431    -0.00000    170.88431
1026672357.63359    -0.00000    170.86243    -67.65733    80.86243    -67.65733    80.86243    -0.00000    170.86243
1029067095.65997    -0.00000    170.84051    -67.63587    80.84051    -67.63587    80.84051    -0.00000    170.84051
1031467419.47052    -0.00000    170.81852    -67.61440    80.81852    -67.61440    80.81852    -0.00000    170.81852
1033873342.09423    -0.00000    170.79648    -67.59293    80.79648    -67.59293    80.79648    -0.00000    170.79648
1036284876.59047    -0.00000    170.77439    -67.57145    80.77439    -67.57145    80.77439    -0.00000    170.77439
1038702036.04906    -0.00000    170.75223    -67.54997    80.75223    -67.54997    80.75223    -0.00000    170.75223
1041124833.59036    -0.00000    170.73003    -67.52848    80.73003    -67.52848    80.73003    -0.00000    170.73003
1043553282.36534    -0.00000    170.70776    -67.50699    80.70776    -67.50699    80.70776    -0.00000    170.70776
1045987395.55564    -0.00000    170.68544    -67.48548    80.68544    -67.48548    80.68544    -0.00000    170.68544
1048427186.37363    -0.00000    170.66306    -67.46398    80.66306    -67.46398    80.66306    -0.00000    170.66306
1050872668.06253    -0.00000    170.64063    -67.44246    80.64063    -67.44246    80.64063    -0.00000    170.64063
1053323853.89643    -0.00000    170.61814    -67.42094    80.61814    -67.42094    80.61814    -0.00000    170.61814
1055780757.18038    -0.00000    170.59559    -67.39941    80.59559    -67.39941    80.59559    -0.00000    170.59559
1058243391.25047    -0.00000    170.57298    -67.37788    80.57298    -67.37788    80.57298    -0.00000    170.57298
1060711769.47391    -0.00000    170.55032    -67.35634    80.55032    -67.35634    80.55032    -0.00000    170.55032
1063185905.24906    -0.00000    170.52760    -67.33479    80.52760    -67.33479    80.52760    -0.00000    170.52760
1065665812.00556    -0.00000    170.50482    -67.31324    80.50482    -67.31324    80.50482    -0.00000    170.50482
1068151503.20435    -0.00000    170.48198    -67.29168    80.48198    -67.29168    80.48198    -0.00000    170.48198
1070642992.33780    -0.00000    170.45908    -67.27011    80.45908    -67.27011    80.45908    -0.00000    170.45908
1073140292.92971    -0.00000    170.43613    -67.24854    80.43613    -67.24854    80.43613    -0.00000    170.43613
1075643418.53547    -0.00000    170.41312    -67.22696    80.41312    -67.22696    80.41312    -0.00000    170.41312
1078152382.74204    -0.00000    170.39005    -67.20537    80.39005    -67.20537    80.39005    -0.00000    170.39005
1080667199.16812    -0.00000    170.36692    -67.18378    80.36692    -67.18378    80.36692    -0.00000    170.36692
1083187881.46414    -0.00000    170.34373    -67.16218    80.34373    -67.16218    80.34373    -0.00000    170.34373
1085714443.31239    -0.00000    170.32048    -67.14057    80.32048    -67.14057    80.32048    -0.00000    170.32048
1088246898.42706    -0.00000    170.29717    -67.11896    80.29717    -67.11896    80.29717    -0.00000    170.29717
1090785260.55434    -0.00000    170.27380    -67.09734    80.27380    -67.09734    80.27380    -0.00000    170.27380
1093329543.47249    -0.00000    170.25037    -67.07571    80.25037    -67.07571    80.25037    -0.00000    170.25037
1095879760.99188    -0.00000    170.22688    -67.05408    80.22688    -67.05408    80.22688    -0.00000    170.22688
1098435926.95512    -0.00000    170.20333    -67.03243    80.20333    -67.03243    80.20333    -0.00000    170.20333
1100998055.23709    -0.00000    170.17972    -67.01079    80.17972    -67.01079    80.17972    -0.00000    170.17972
1103566159.74505    -0.00000    170.15606    -66.98913    80.15606    -66.98913    80.15606    -0.00000    170.15606
1106140254.41869    -0.00000    170.13232    -66.96747    80.13232    -66.96747    80.13232    -0.00000    170.13232
1108720353.23022    -0.00000    170.10853    -66.94580    80.10853    -66.94580    80.10853    -0.00000    170.10853
1111306470.18443    -0.00000    170.08468    -66.92412    80.08468    -66.92412    80.08468    -0.00000    170.08468
1113898619.31879    -0.00000    170.06077    -66.90244    80.06077    -66.90244    80.06077    -0.00000    170.06077
1116496814.70349    -0.00000    170.03679    -66.88074    80.03679    -66.88074    80.03679    -0.00000    170.03679
1119101070.44157    -0.00000    170.01276    -66.85904    80.01276    -66.85904    80.01276    -0.00000    170.01276
1121711400.66894    -0.00000    169.98866    -66.83734    79.98866    -66.83734    79.98866    -0.00000    169.98866
1124327819.55451    -0.00000    169.96450    -66.81562    79.96450    -66.81562    79.96450    -0.00000    169.96450
1126950341.30020    -0.00000    169.94027    -66.79390    79.94027    -66.79390    79.94027    -0.00000    169.94027
1129578980.14109    -0.00000    169.91599    -66.77217    79.91599    -66.77217    79.91599    -0.00000    169.91599
1132213750.34546    -0.00000    169.89164    -66.75044    79.89164    -66.75044    79.89164    -0.00000    169.89164
1134854666.21484    -0.00000    169.86723    -66.72869    79.86723    -66.72869    79.86723    -0.00000    169.86723
1137501742.08416    -0.00000    169.84275    -66.70694    79.84275    -66.70694    79.84275    -0.00000    169.84275
1140154992.32177    -0.00000    169.81822    -66.68518    79.81822    -66.68518    79.81822    -0.00000    169.81822
1142814431.32952    -0.00000    169.79362    -66.66342    79.79362    -66.66342    79.79362    -0.00000    169.79362
1145480073.54288    -0.00000    169.76895    -66.64164    79.76895    -66.64164    79.76895    -0.00000    169.76895
1148151933.43096    -0.00000    169.74423    -66.61986    79.74423    -66.61986    79.74423    -0.00000    169.74423
1150830025.49665    -0.00000    169.71943    -66.59807    79.71943    -66.59807    79.71943    -0.00000    169.71943
1153514364.27665    -0.00000    169.69458    -66.57627    79.69458    -66.57627    79.69458    -0.00000    169.69458
1156204964.34157    -0.00000    169.66966    -66.55446    79.66966    -66.55446    79.66966    -0.00000    169.66966
1158901840.29601    -0.00000    169.64467    -66.53265    79.64467    -66.53265    79.64467    -0.00000    169.64467
1161605006.77863    -0.00000    169.61962    -66.51083    79.61962    -66.51083    79.61962    -0.00000    169.61962
1164314478.46225    -0.00000    169.59451    -66.48900    79.59451    -66.48900    79.59451    -0.00000    169.59451
1167030270.05389    -0.00000    169.56933    -66.46716    79.56933    -66.46716    79.56933    -0.00000    169.56933
1169752396.29489    -0.00000    169.54408    -66.44532    79.54408    -66.44532    79.54408    -0.00000    169.54408
1172480871.96098    -0.00000    169.51877    -66.42346    79.51877    -66.42346    79.51877    -0.00000    169.51877
1175215711.86233    -0.00000    169.49339    -66.40160    79.49339    -66.40160    79.49339    -0.00000    169.49339
1177956930.84370    -0.00000    169.46795    -66.37973    79.46795    -66.37973    79.46795    -0.00000    169.46795
1180704543.78443    -0.00000    169.44244    -66.35785    79.44244    -66.35785    79.44244    -0.00000    169.44244
1183458565.59858    -0.00000    169.41687    -66.33596    79.41687    -66.33596    79.41687    -0.00000    169.41687
1186219011.23502    -0.00000    169.39123    -66.31407    79.39123    -66.31407    79.39123    -0.00000    169.39123
1188985895.67745    -0.00000    169.36552    -66.29216    79.36552    -66.29216    79.36552    -0.00000    169.36552
1191759233.94455    -0.00000    169.33974    -66.27025    79.33974    -66.27025    79.33974    -0.00000    169.33974
1194539041.09002    -0.00000    169.31390    -66.24833    79.31390    -66.24833    79.31390    -0.00000    169.31390
1197325332.20268    -0.00000    169.28799    -66.22640    79.28799    -66.22640    79.28799    -0.00000    169.28799
1200118122.40653    -0.00000    169.26201    -66.20446    79.26201    -66.20446    79.26201    -0.00000    169.26201
1202917426.86087    -0.00000    169.23596    -66.18251    79.23596    -66.18251    79.23596    -0.00000    169.23596
1205723260.76033    -0.00000    169.20985    -66.16056    79.20985    -66.16056    79.20985    -0.00000    169.20985
1208535639.33501    -0.00000    169.18367    -66.13859    79.18367    -66.13859    79.18367    -0.00000    169.18367
1211354577.85052    -0.00000    169.15742    -66.11662    79.15742    -66.11662    79.15742    -0.00000    169.15742
1214180091.60808    -0.00000    169.13110    -66.09464    79.13110    -66.09464    79.13110    -0.00000    169.13110
1217012195.94460    -0.00000    169.10471    -66.07265    79.10471    -66.07265    79.10471    -0.00000    169.10471
1219850906.23276    -0.00000    169.07825    -66.05065    79.07825    -66.05065    79.07825    -0.00000    169.07825
1222696237.88111    -0.00000    169.05173    -66.02864    79.05173    -66.02864    79.05173    -0.00000    169.05173
1225548206.33413    -0.00000    169.02513    -66.00662    79.02513    -66.00662    79.02513    -0.00000    169.02513
1228406827.07233    -0.00000    168.99846    -65.98459    78.99846    -65.98459    78.99846    -0.00000    168.99846
1231272115.61231    -0.00000    168.97173    -65.96256    78.97173    -65.96256    78.97173    -0.00000    168.97173
1234144087.50690    -0.00000    168.94492    -65.94051    78.94492    -65.94051    78.94492    -0.00000    168.94492
1237022758.34516    -0.00000    168.91804    -65.91846    78.91804    -65.91846    78.91804    -0.00000    168.91804
1239908143.75256    -0.00000    168.89110    -65.89639    78.89110    -65.89639    78.89110    -0.00000    168.89110
1242800259.39099    -0.00000    168.86408    -65.87432    78.86408    -65.87432    78.86408    -0.00000    168.86408
1245699120.95887    -0.00000    168.83699    -65.85224    78.83699    -65.85224    78.83699    -0.00000    168.83699
1248604744.19125    -0.00000    168.80983    -65.83015    78.80983    -65.83015    78.80983    -0.00000    168.80983
1251517144.85987    -0.00000    168.78259    -65.80805    78.78259    -65.80805    78.78259    -0.00000    168.78259
1254436338.77326    -0.00000    168.75529    -65.78593    78.75529    -65.78593    78.75529    -0.00000    168.75529
1257362341.77684    -0.00000    168.72791    -65.76381    78.72791    -65.76381    78.72791    -0.00000    168.72791
1260295169.75296    -0.00000    168.70046    -65.74168    78.70046    -65.74168    78.70046    -0.00000    168.70046
1263234838.62105    -0.00000    168.67294    -65.71954    78.67294    -65.71954    78.67294    -0.00000    168.67294
1266181364.33765    -0.00000    168.64535    -65.69739    78.64535    -65.69739    78.64535    -0.00000    168.64535
1269134762.89652    -0.00000    168.61768    -65.67523    78.61768    -65.67523    78.61768    -0.00000    168.61768
1272095050.32873    -0.00000    168.58994    -65.65306    78.58994    -65.65306    78.58994    -0.00000    168.58994
1275062242.70274    -0.00000    168.56212    -65.63088    78.56212    -65.63088    78.56212    -0.00000    168.56212
1278036356.12451    -0.00000    168.53424    -65.60869    78.53424    -65.60869    78.53424    -0.00000    168.53424
1281017406.73753    -0.00000    168.50628    -65.58649    78.50628    -65.58649    78.50628    -0.00000    168.50628
1284005410.72298    -0.00000    168.47824    -65.56428    78.47824    -65.56428    78.47824    -0.00000    168.47824
1287000384.29977    -0.00000    168.45013    -65.54206    78.45013    -65.54206    78.45013    -0.00000    168.45013
1290002343.72462    -0.00000    168.42194    -65.51983    78.42194    -65.51983    78.42194    -0.00000    168.42194
1293011305.29221    -0.00000    168.39368    -65.49759    78.39368    -65.49759    78.39368    -0.00000    168.39368
1296027285.33520    -0.00000    168.36535    -65.47534    78.36535    -65.47534    78.36535    -0.00000    168.36535
1299050300.22436    -0.00000    168.33694    -65.45308    78.33694    -65.45308    78.33694    -0.00000    168.33694
1302080366.36862    -0.00000    168.30845    -65.43081    78.30845    -65.43081    78.30845    -0.00000    168.30845
1305117500.21523    -0.00000    168.27989    -65.40853    78.27989    -65.40853    78.27989    -0.00000    168.27989
1308161718.24974    -0.00000    168.25125    -65.38624    78.25125    -65.38624    78.25125    -0.00000    168.25125
1311213036.99622    -0.00000    168.22254    -65.36393    78.22254    -65.36393    78.22254    -0.00000    168.22254
1314271473.01724    -0.00000    168.19375    -65.34162    78.19375    -65.34162    78.19375    -0.00000    168.19375
1317337042.91401    -0.00000    168.16488    -65.31929    78.16488    -65.31929    78.16488    -0.00000    168.16488
1320409763.32648    -0.00000    168.13593    -65.29696    78.13593    -65.29696    78.13593    -0.00000    168.13593
1323489650.93339    -0.00000    168.10691    -65.27461    78.10691    -65.27461    78.10691    -0.00000    168.10691
1326576722.45240    -0.00000    168.07781    -65.25225    78.07781    -65.25225    78.07781    -0.00000    168.07781
1329670994.64015    -0.00000    168.04863    -65.22988    78.04863    -65.22988    78.04863    -0.00000    168.04863
1332772484.29238    -0.00000    168.01937    -65.20751    78.01937    -65.20751    78.01937    -0.00000    168.01937
1335881208.24399    -0.00000    167.99004    -65.18511    77.99004    -65.18511    77.99004    -0.00000    167.99004
1338997183.36917    -0.00000    167.96063    -65.16271    77.96063    -65.16271    77.96063    -0.00000    167.96063
1342120426.58146    -0.00000    167.93113    -65.14030    77.93113    -65.14030    77.93113    -0.00000    167.93113
1345250954.83384    -0.00000    167.90156    -65.11788    77.90156    -65.11788    77.90156    -0.00000    167.90156
1348388785.11884    -0.00000    167.87191    -65.09544    77.87191    -65.09544    77.87191    -0.00000    167.87191
1351533934.46863    -0.00000    167.84218    -65.07299    77.84218    -65.07299    77.84218    -0.00000    167.84218
1354686419.95510    -0.00000    167.81237    -65.05053    77.81237    -65.05053    77.81237    -0.00000    167.81237
1357846258.68998    -0.00000    167.78247    -65.02806    77.78247    -65.02806    77.78247    -0.00000    167.78247
1361013467.82489    -0.00000    167.75250    -65.00558    77.75250    -65.00558    77.75250    -0.00000    167.75250
1364188064.55146    -0.00000    167.72245    -64.98309    77.72245    -64.98309    77.72245    -0.00000    167.72245
1367370066.10144    -0.00000    167.69232    -64.96058    77.69232    -64.96058    77.69232    -0.00000    167.69232
1370559489.74674    -0.00000    167.66210    -64.93806    77.66210    -64.93806    77.66210    -0.00000    167.66210
1373756352.79959    -0.00000    167.63180    -64.91554    77.63180    -64.91554    77.63180    -0.00000    167.63180
1376960672.61259    -0.00000    167.60142    -64.89299    77.60142    -64.89299    77.60142    -0.00000    167.60142
1380172466.57880    -0.00000    167.57096    -64.87044    77.57096    -64.87044    77.57096    -0.00000    167.57096
1383391752.13188    -0.00000    167.54042    -64.84788    77.54042    -64.84788    77.54042    -0.00000    167.54042
1386618546.74612    -0.00000    167.50979    -64.82530    77.50979    -64.82530    77.50979    -0.00000    167.50979
1389852867.93659    -0.00000    167.47908    -64.80271    77.47908    -64.80271    77.47908    -0.00000    167.47908
1393094733.25921    -0.00000    167.44829    -64.78011    77.44829    -64.78011    77.44829    -0.00000    167.44829
1396344160.31086    -0.00000    167.41741    -64.75749    77.41741    -64.75749    77.41741    -0.00000    167.41741
1399601166.72945    -0.00000    167.38645    -64.73486    77.38645    -64.73486    77.38645    -0.00000    167.38645
1402865770.19403    -0.00000    167.35541    -64.71222    77.35541    -64.71222    77.35541    -0.00000    167.35541
1406137988.42491    -0.00000    167.32428    -64.68957    77.32428    -64.68957    77.32428    -0.00000    167.32428
1409417839.18369    -0.00000    167.29306    -64.66691    77.29306    -64.66691    77.29306    -0.00000    167.29306
1412705340.27345    -0.00000    167.26176    -64.64423    77.26176    -64.64423    77.26176    -0.00000    167.26176
1416000509.53875    -0.00000    167.23038    -64.62154    77.23038    -64.62154    77.23038    -0.00000    167.23038
1419303364.86581    -0.00000    167.19891    -64.59884    77.19891    -64.59884    77.19891    -0.00000    167.19891
1422613924.18255    -0.00000    167.16735    -64.57612    77.16735    -64.57612    77.16735    -0.00000    167.16735
1425932205.45872    -0.00000    167.13571    -64.55339    77.13571    -64.55339    77.13571    -0.00000    167.13571
1429258226.70596    -0.00000    167.10398    -64.53065    77.10398    -64.53065    77.10398    -0.00000    167.10398
1432592005.97794    -0.00000    167.07216    -64.50789    77.07216    -64.50789    77.07216    -0.00000    167.07216
1435933561.37045    -0.00000    167.04026    -64.48512    77.04026    -64.48512    77.04026    -0.00000    167.04026
1439282911.02148    -0.00000    167.00827    -64.46234    77.00827    -64.46234    77.00827    -0.00000    167.00827
1442640073.11132    -0.00000    166.97619    -64.43954    76.97619    -64.43954    76.97619    -0.00000    166.97619
1446005065.86267    -0.00000    166.94403    -64.41673    76.94403    -64.41673    76.94403    -0.00000    166.94403
1449377907.54074    -0.00000    166.91177    -64.39391    76.91177    -64.39391    76.91177    -0.00000    166.91177
1452758616.45334    -0.00000    166.87943    -64.37107    76.87943    -64.37107    76.87943    -0.00000    166.87943
1456147210.95098    -0.00000    166.84699    -64.34822    76.84699    -64.34822    76.84699    -0.00000    166.84699
1459543709.42699    -0.00000    166.81447    -64.32536    76.81447    -64.32536    76.81447    -0.00000    166.81447
1462948130.31758    -0.00000    166.78186    -64.30248    76.78186    -64.30248    76.78186    -0.00000    166.78186
1466360492.10198    -0.00000    166.74916    -64.27959    76.74916    -64.27959    76.74916    -0.00000    166.74916
1469780813.30250    -0.00000    166.71637    -64.25668    76.71637    -64.25668    76.71637    -0.00000    166.71637
1473209112.48469    -0.00000    166.68349    -64.23376    76.68349    -64.23376    76.68349    -0.00000    166.68349
1476645408.25737    -0.00000    166.65051    -64.21083    76.65051    -64.21083    76.65051    -0.00000    166.65051
1480089719.27279    -0.00000    166.61745    -64.18788    76.61745    -64.18788    76.61745    -0.00000    166.61745
1483542064.22669    -0.00000    166.58429    -64.16491    76.58429    -64.16491    76.58429    -0.00000    166.58429
1487002461.85843    -0.00000    166.55104    -64.14193    76.55104    -64.14193    76.55104    -0.00000    166.55104
1490470930.95108    -0.00000    166.51770    -64.11894    76.51770    -64.11894    76.51770    -0.00000    166.51770
1493947490.33150    -0.00000    166.48427    -64.09593    76.48427    -64.09593    76.48427    -0.00000    166.48427
1497432158.87049    -0.00000    166.45075    -64.07291    76.45075    -64.07291    76.45075    -0.00000    166.45075
1500924955.48287    -0.00000    166.41713    -64.04987    76.41713    -64.04987    76.41713    -0.00000    166.41713
1504425899.12755    -0.00000    166.38341    -64.02682    76.38341    -64.02682    76.38341    -0.00000    166.38341
1507935008.80768    -0.00000    166.34961    -64.00375    76.34961    -64.00375    76.34961    -0.00000    166.34961
1511452303.57075    -0.00000    166.31571    -63.98067    76.31571    -63.98067    76.31571    -0.00000    166.31571
1514977802.50865    -0.00000    166.28171    -63.95757    76.28171    -63.95757    76.28171    -0.00000    166.28171
1518511524.75782    -0.00000    166.24762    -63.93446    76.24762    -63.93446    76.24762    -0.00000    166.24762
1522053489.49934    -0.00000    166.21344    -63.91133    76.21344    -63.91133    76.21344    -0.00000    166.21344
1525603715.95900    -0.00000    166.17916    -63.88819    76.17916    -63.88819    76.17916    -0.00000    166.17916
1529162223.40748    -0.00000    166.14478    -63.86503    76.14478    -63.86503    76.14478    -0.00000    166.14478
1532729031.16037    -0.00000    166.11031    -63.84186    76.11031    -63.84186    76.11031    -0.00000    166.11031
1536304158.57834    -0.00000    166.07574    -63.81866    76.07574    -63.81866    76.07574    -0.00000    166.07574
1539887625.06720    -0.00000    166.04107    -63.79546    76.04107    -63.79546    76.04107    -0.00000    166.04107
1543479450.07804    -0.00000    166.00631    -63.77223    76.00631    -63.77223    76.00631    -0.00000    166.00631
1547079653.10732    -0.00000    165.97144    -63.74900    75.97144    -63.74900    75.97144    -0.00000    165.97144
1550688253.69696    -0.00000    165.93648    -63.72574    75.93648    -63.72574    75.93648    -0.00000    165.93648
1554305271.43447    -0.00000    165.90143    -63.70247    75.90143    -63.70247    75.90143    -0.00000    165.90143
1557930725.95307    -0.00000    165.86627    -63.67918    75.86627    -63.67918    75.86627    -0.00000    165.86627
1561564636.93173    -0.00000    165.83101    -63.65588    75.83101    -63.65588    75.83101    -0.00000    165.83101
1565207024.09536    -0.00000    165.79566    -63.63256    75.79566    -63.63256    75.79566    -0.00000    165.79566
1568857907.21487    -0.00000    165.76020    -63.60922    75.76020    -63.60922    75.76020    -0.00000    165.76020
1572517306.10727    -0.00000    165.72464    -63.58587    75.72464    -63.58587    75.72464    -0.00000    165.72464
1576185240.63581    -0.00000    165.68899    -63.56249    75.68899    -63.56249    75.68899    -0.00000    165.68899
1579861730.71007    -0.00000    165.65323    -63.53911    75.65323    -63.53911    75.65323    -0.00000    165.65323
1583546796.28607    -0.00000    165.61737    -63.51570    75.61737    -63.51570    75.61737    -0.00000    165.61737
1587240457.36637    -0.00000    165.58141    -63.49228    75.58141    -63.49228    75.58141    -0.00000    165.58141
1590942734.00019    -0.00000    165.54535    -63.46884    75.54535    -63.46884    75.54535    -0.00000    165.54535
1594653646.28351    -0.00000    165.50918    -63.44538    75.50918    -63.44538    75.50918    -0.00000    165.50918
1598373214.35920    -0.00000    165.47291    -63.42191    75.47291    -63.42191    75.47291    -0.00000    165.47291
1602101458.41710    -0.00000    165.43654    -63.39842    75.43654    -63.39842    75.43654    -0.00000    165.43654
1605838398.69416    -0.00000    165.40007    -63.37491    75.40007    -63.37491    75.40007    -0.00000    165.40007
1609584055.47451    -0.00000    165.36349    -63.35138    75.36349    -63.35138    75.36349    -0.00000    165.36349
1613338449.08960    -0.00000    165.32680    -63.32783    75.32680    -63.32783    75.32680    -0.00000    165.32680
1617101599.91831    -0.00000    165.29001    -63.30427    75.29001    -63.30427    75.29001    -0.00000    165.29001
1620873528.38705    -0.00000    165.25312    -63.28069    75.25312    -63.28069    75.25312    -0.00000    165.25312
1624654254.96989    -0.00000    165.21612    -63.25709    75.21612    -63.25709    75.21612    -0.00000    165.21612
1628443800.18864    -0.00000    165.17901    -63.23347    75.17901    -63.23347    75.17901    -0.00000    165.17901
1632242184.61296    -0.00000    165.14180    -63.20983    75.14180    -63.20983    75.14180    -0.00000    165.14180
1636049428.86054    -0.00000    165.10448    -63.18618    75.10448    -63.18618    75.10448    -0.00000    165.10448
1639865553.59711    -0.00000    165.06705    -63.16250    75.06705    -63.16250    75.06705    -0.00000    165.06705
1643690579.53663    -0.00000    165.02952    -63.13881    75.02952    -63.13881    75.02952    -0.00000    165.02952
1647524527.44137    -0.00000    164.99188    -63.11510    74.99188    -63.11510    74.99188    -0.00000    164.99188
1651367418.12204    -0.00000    164.95413    -63.09136    74.95413    -63.09136    74.95413    -0.00000    164.95413
1655219272.43786    -0.00000    164.91627    -63.06761    74.91627    -63.06761    74.91627    -0.00000    164.91627
1659080111.29675    -0.00000    164.87830    -63.04384    74.87830    -63.04384    74.87830    -0.00000    164.87830
1662949955.65535    -0.00000    164.84022    -63.02006    74.84022    -63.02006    74.84022    -0.00000    164.84022
1666828826.51921    -0.00000    164.80203    -62.99625    74.80203    -62.99625    74.80203    -0.00000    164.80203
1670716744.94289    -0.00000    164.76373    -62.97242    74.76373    -62.97242    74.76373    -0.00000    164.76373
1674613732.03002    -0.00000    164.72532    -62.94857    74.72532    -62.94857    74.72532    -0.00000    164.72532
1678519808.93349    -0.00000    164.68679    -62.92470    74.68679    -62.92470    74.68679    -0.00000    164.68679
1682434996.85550    -0.00000    164.64816    -62.90081    74.64816    -62.90081    74.64816    -0.00000    164.64816
1686359317.04774    -0.00000    164.60941    -62.87691    74.60941    -62.87691    74.60941    -0.00000    164.60941
1690292790.81143    -0.00000    164.57055    -62.85298    74.57055    -62.85298    74.57055    -0.00000    164.57055
1694235439.49751    -0.00000    164.53158    -62.82903    74.53158    -62.82903    74.53158    -0.00000    164.53158
1698187284.50671    -0.00000    164.49249    -62.80506    74.49249    -62.80506    74.49249    -0.00000    164.49249
1702148347.28967    -0.00000    164.45329    -62.78107    74.45329    -62.78107    74.45329    -0.00000    164.45329
1706118649.34706    -0.00000    164.41397    -62.75706    74.41397    -62.75706    74.41397    -0.00000    164.41397
1710098212.22972    -0.00000    164.37454    -62.73302    74.37454    -62.73302    74.37454    -0.00000    164.37454
1714087057.53875    -0.00000    164.33499    -62.70897    74.33499    -62.70897    74.33499    -0.00000    164.33499
1718085206.92563    -0.00000    164.29533    -62.68489    74.29533    -62.68489    74.29533    -0.00000    164.29533
1722092682.09235    -0.00000    164.25555    -62.66080    74.25555    -62.66080    74.25555    -0.00000    164.25555
1726109504.79151    -0.00000    164.21565    -62.63668    74.21565    -62.63668    74.21565    -0.00000    164.21565
1730135696.82647    -0.00000    164.17564    -62.61254    74.17564    -62.61254    74.17564    -0.00000    164.17564
1734171280.05141    -0.00000    164.13551    -62.58838    74.13551    -62.58838    74.13551    -0.00000    164.13551
1738216276.37151    -0.00000    164.09526    -62.56420    74.09526    -62.56420    74.09526    -0.00000    164.09526
1742270707.74306    -0.00000    164.05489    -62.53999    74.05489    -62.53999    74.05489    -0.00000    164.05489
1746334596.17353    -0.00000    164.01440    -62.51577    74.01440    -62.51577    74.01440    -0.00000    164.01440
1750407963.72173    -0.00000    163.97379    -62.49152    73.97379    -62.49152    73.97379    -0.00000    163.97379
1754490832.49796    -0.00000    163.93306    -62.46724    73.93306    -62.46724    73.93306    -0.00000    163.93306
1758583224.66403    -0.00000    163.89222    -62.44295    73.89222    -62.44295    73.89222    -0.00000    163.89222
1762685162.43350    -0.00000    163.85124    -62.41863    73.85124    -62.41863    73.85124    -0.00000    163.85124
1766796668.07171    -0.00000    163.81015    -62.39429    73.81015    -62.39429    73.81015    -0.00000    163.81015
1770917763.89594    -0.00000    163.76894    -62.36993    73.76894    -62.36993    73.76894    -0.00000    163.76894
1775048472.27554    -0.00000    163.72760    -62.34554    73.72760    -62.34554    73.72760    -0.00000    163.72760
1779188815.63203    -0.00000    163.68614    -62.32113    73.68614    -62.32113    73.68614    -0.00000    163.68614
1783338816.43921    -0.00000    163.64455    -62.29670    73.64455    -62.29670    73.64455    -0.00000    163.64455
1787498497.22333    -0.00000    163.60285    -62.27224    73.60285    -62.27224    73.60285    -0.00000    163.60285
1791667880.56316    -0.00000    163.56101    -62.24776    73.56101    -62.24776    73.56101    -0.00000    163.56101
1795846989.09015    -0.00000    163.51905    -62.22325    73.51905    -62.22325    73.51905    -0.00000    163.51905
1800035845.48854    -0.00000    163.47697    -62.19872    73.47697    -62.19872    73.47697    -0.00000    163.47697
1804234472.49547    -0.00000    163.43476    -62.17417    73.43476    -62.17417    73.43476    -0.00000    163.43476
1808442892.90112    -0.00000    163.39242    -62.14959    73.39242    -62.14959    73.39242    -0.00000    163.39242
1812661129.54882    -0.00000    163.34995    -62.12499    73.34995    -62.12499    73.34995    -0.00000    163.34995
1816889205.33520    -0.00000    163.30736    -62.10036    73.30736    -62.10036    73.30736    -0.00000    163.30736
1821127143.21029    -0.00000    163.26464    -62.07571    73.26464    -62.07571    73.26464    -0.00000    163.26464
1825374966.17765    -0.00000    163.22178    -62.05103    73.22178    -62.05103    73.22178    -0.00000    163.22178
1829632697.29448    -0.00000    163.17880    -62.02633    73.17880    -62.02633    73.17880    -0.00000    163.17880
1833900359.67181    -0.00000    163.13569    -62.00160    73.13569    -62.00160    73.13569    -0.00000    163.13569
1838177976.47451    -0.00000    163.09245    -61.97684    73.09245    -61.97684    73.09245    -0.00000    163.09245
1842465570.92154    -0.00000    163.04908    -61.95206    73.04908    -61.95206    73.04908    -0.00000    163.04908
1846763166.28598    -0.00000    163.00557    -61.92726    73.00557    -61.92726    73.00557    -0.00000    163.00557
1851070785.89522    -0.00000    162.96193    -61.90243    72.96193    -61.90243    72.96193    -0.00000    162.96193
1855388453.13106    -0.00000    162.91816    -61.87757    72.91816    -61.87757    72.91816    -0.00000    162.91816
1859716191.42982    -0.00000    162.87426    -61.85268    72.87426    -61.85268    72.87426    -0.00000    162.87426
1864054024.28250    -0.00000    162.83022    -61.82777    72.83022    -61.82777    72.83022    -0.00000    162.83022
1868401975.23488    -0.00000    162.78605    -61.80283    72.78605    -61.80283    72.78605    -0.00000    162.78605
1872760067.88769    -0.00000    162.74174    -61.77787    72.74174    -61.77787    72.74174    -0.00000    162.74174
1877128325.89668    -0.00000    162.69730    -61.75287    72.69730    -61.75287    72.69730    -0.00000    162.69730
1881506772.97279    -0.00000    162.65272    -61.72785    72.65272    -61.72785    72.65272    -0.00000    162.65272
1885895432.88227    -0.00000    162.60800    -61.70281    72.60800    -61.70281    72.60800    -0.00000    162.60800
1890294329.44680    -0.00000    162.56315    -61.67773    72.56315    -61.67773    72.56315    -0.00000    162.56315
1894703486.54361    -0.00000    162.51815    -61.65263    72.51815    -61.65263    72.51815    -0.00000    162.51815
1899122928.10566    -0.00000    162.47302    -61.62750    72.47302    -61.62750    72.47302    -0.00000    162.47302
1903552678.12169    -0.00000    162.42775    -61.60234    72.42775    -61.60234    72.42775    -0.00000    162.42775
1907992760.63644    -0.00000    162.38234    -61.57715    72.38234    -61.57715    72.38234    -0.00000    162.38234
1912443199.75070    -0.00000    162.33679    -61.55193    72.33679    -61.55193    72.33679    -0.00000    162.33679
1916904019.62149    -0.00000    162.29109    -61.52668    72.29109    -61.52668    72.29109    -0.00000    162.29109
1921375244.46217    -0.00000    162.24526    -61.50141    72.24526    -61.50141    72.24526    -0.00000    162.24526
1925856898.54259    -0.00000    162.19928    -61.47610    72.19928    -61.47610    72.19928    -0.00000    162.19928
1930349006.18921    -0.00000    162.15316    -61.45077    72.15316    -61.45077    72.15316    -0.00000    162.15316
1934851591.78521    -0.00000    162.10690    -61.42540    72.10690    -61.42540    72.10690    -0.00000    162.10690
1939364679.77066    -0.00000    162.06049    -61.40001    72.06049    -61.40001    72.06049    -0.00000    162.06049
1943888294.64266    -0.00000    162.01393    -61.37459    72.01393    -61.37459    72.01393    -0.00000    162.01393
1948422460.95540    -0.00000    161.96723    -61.34913    71.96723    -61.34913    71.96723    -0.00000    161.96723
1952967203.32037    -0.00000    161.92039    -61.32365    71.92039    -61.32365    71.92039    -0.00000    161.92039
1957522546.40649    -0.00000    161.87339    -61.29813    71.87339    -61.29813    71.87339    -0.00000    161.87339
1962088514.94017    -0.00000    161.82625    -61.27258    71.82625    -61.27258    71.82625    -0.00000    161.82625
1966665133.70555    -0.00000    161.77896    -61.24701    71.77896    -61.24701    71.77896    -0.00000    161.77896
1971252427.54453    -0.00000    161.73152    -61.22140    71.73152    -61.22140    71.73152    -0.00000    161.73152
1975850421.35699    -0.00000    161.68394    -61.19576    71.68394    -61.19576    71.68394    -0.00000    161.68394
1980459140.10087    -0.00000    161.63620    -61.17008    71.63620    -61.17008    71.63620    -0.00000    161.63620
1985078608.79233    -0.00000    161.58831    -61.14438    71.58831    -61.14438    71.58831    -0.00000    161.58831
1989708852.50589    -0.00000    161.54027    -61.11864    71.54027    -61.11864    71.54027    -0.00000    161.54027
1994349896.37453    -0.00000    161.49207    -61.09287    71.49207    -61.09287    71.49207    -0.00000    161.49207
1999001765.58990    -0.00000    161.44372    -61.06707    71.44372    -61.06707    71.44372    -0.00000    161.44372
2003664485.40236    -0.00000    161.39522    -61.04123    71.39522    -61.04123    71.39522    -0.00000    161.39522
2008338081.12120    -0.00000    161.34657    -61.01536    71.34657    -61.01536    71.34657    -0.00000    161.34657
2013022578.11473    -0.00000    161.29776    -60.98946    71.29776    -60.98946    71.29776    -0.00000    161.29776
2017718001.81044    -0.00000    161.24879    -60.96352    71.24879    -60.96352    71.24879    -0.00000    161.24879
2022424377.69511    -0.00000    161.19967    -60.93755    71.19967    -60.93755    71.19967    -0.00000    161.19967
2027141731.31501    -0.00000    161.15038    -60.91155    71.15038    -60.91155    71.15038    -0.00000    161.15038
2031870088.27596    -0.00000    161.10094    -60.88551    71.10094    -60.88551    71.10094    -0.00000    161.10094
2036609474.24351    -0.00000    161.05135    -60.85944    71.05135    -60.85944    71.05135    -0.00000    161.05135
2041359914.94310    -0.00000    161.00159    -60.83333    71.00159    -60.83333    71.00159    -0.00000    161.00159
2046121436.16014    -0.00000    160.95167    -60.80719    70.95167    -60.80719    70.95167    -0.00000    160.95167
2050894063.74022    -0.00000    160.90159    -60.78101    70.90159    -60.78101    70.90159    -0.00000    160.90159
2055677823.58920    -0.00000    160.85135    -60.75479    70.85135    -60.75479    70.85135    -0.00000    160.85135
2060472741.67336    -0.00000    160.80094    -60.72854    70.80094    -60.72854    70.80094    -0.00000    160.80094
2065278844.01955    -0.00000    160.75037    -60.70226    70.75037    -60.70226    70.75037    -0.00000    160.75037
2070096156.71533    -0.00000    160.69964    -60.67593    70.69964    -60.67593    70.69964    -0.00000    160.69964
2074924705.90912    -0.00000    160.64874    -60.64957    70.64874    -60.64957    70.64874    -0.00000    160.64874
2079764517.81031    -0.00000    160.59768    -60.62318    70.59768    -60.62318    70.59768    -0.00000    160.59768
2084615618.68945    -0.00000    160.54645    -60.59674    70.54645    -60.59674    70.54645    -0.00000    160.54645
2089478034.87834    -0.00000    160.49505    -60.57027    70.49505    -60.57027    70.49505    -0.00000    160.49505
2094351792.77023    -0.00000    160.44348    -60.54376    70.44348    -60.54376    70.44348    -0.00000    160.44348
2099236918.81989    -0.00000    160.39175    -60.51722    70.39175    -60.51722    70.39175    -0.00000    160.39175
2104133439.54385    -0.00000    160.33984    -60.49063    70.33984    -60.49063    70.33984    -0.00000    160.33984
2109041381.52044    -0.00000    160.28777    -60.46401    70.28777    -60.46401    70.28777    -0.00000    160.28777
2113960771.39002    -0.00000    160.23552    -60.43734    70.23552    -60.43734    70.23552    -0.00000    160.23552
2118891635.85507    -0.00000    160.18310    -60.41064    70.18310    -60.41064    70.18310    -0.00000    160.18310
2123834001.68037    -0.00000    160.13051    -60.38390    70.13051    -60.38390    70.13051    -0.00000    160.13051
2128787895.69312    -0.00000    160.07774    -60.35712    70.07774    -60.35712    70.07774    -0.00000    160.07774
2133753344.78308    -0.00000    160.02480    -60.33030    70.02480    -60.33030    70.02480    -0.00000    160.02480
2138730375.90275    -0.00000    159.97168    -60.30343    69.97168    -60.30343    69.97168    -0.00000    159.97168
2143719016.06750    -0.00000    159.91838    -60.27653    69.91838    -60.27653    69.91838    -0.00000    159.91838
2148719292.35571    -0.00000    159.86491    -60.24959    69.86491    -60.24959    69.86491    -0.00000    159.86491
2153731231.90892    -0.00000    159.81126    -60.22260    69.81126    -60.22260    69.81126    -0.00000    159.81126
2158754861.93197    -0.00000    159.75743    -60.19558    69.75743    -60.19558    69.75743    -0.00000    159.75743
2163790209.69316    -0.00000    159.70342    -60.16851    69.70342    -60.16851    69.70342    -0.00000    159.70342
2168837302.52440    -0.00000    159.64922    -60.14140    69.64922    -60.14140    69.64922    -0.00000    159.64922
2173896167.82135    -0.00000    159.59485    -60.11425    69.59485    -60.11425    69.59485    -0.00000    159.59485
2178966833.04357    -0.00000    159.54029    -60.08705    69.54029    -60.08705    69.54029    -0.00000    159.54029
2184049325.71467    -0.00000    159.48555    -60.05981    69.48555    -60.05981    69.48555    -0.00000    159.48555
2189143673.42246    -0.00000    159.43063    -60.03253    69.43063    -60.03253    69.43063    -0.00000    159.43063
2194249903.81910    -0.00000    159.37551    -60.00520    69.37551    -60.00520    69.37551    -0.00000    159.37551
2199368044.62125    -0.00000    159.32021    -59.97783    69.32021    -59.97783    69.32021    -0.00000    159.32021
2204498123.61021    -0.00000    159.26473    -59.95042    69.26473    -59.95042    69.26473    -0.00000    159.26473
2209640168.63209    -0.00000    159.20905    -59.92296    69.20905    -59.92296    69.20905    -0.00000    159.20905
2214794207.59796    -0.00000    159.15319    -59.89545    69.15319    -59.89545    69.15319    -0.00000    159.15319
2219960268.48399    -0.00000    159.09713    -59.86790    69.09713    -59.86790    69.09713    -0.00000    159.09713
2225138379.33157    -0.00000    159.04088    -59.84031    69.04088    -59.84031    69.04088    -0.00000    159.04088
2230328568.24754    -0.00000    158.98444    -59.81267    68.98444    -59.81267    68.98444    -0.00000    158.98444
2235530863.40429    -0.00000    158.92781    -59.78498    68.92781    -59.78498    68.92781    -0.00000    158.92781
2240745293.03992    -0.00000    158.87098    -59.75724    68.87098    -59.75724    68.87098    -0.00000    158.87098
2245971885.45839    -0.00000    158.81396    -59.72946    68.81396    -59.72946    68.81396    -0.00000    158.81396
2251210669.02968    -0.00000    158.75674    -59.70163    68.75674    -59.70163    68.75674    -0.00000    158.75674
2256461672.18996    -0.00000    158.69932    -59.67375    68.69932    -59.67375    68.69932    -0.00000    158.69932
2261724923.44171    -0.00000    158.64170    -59.64582    68.64170    -59.64582    68.64170    -0.00000    158.64170
2267000451.35389    -0.00000    158.58389    -59.61785    68.58389    -59.61785    68.58389    -0.00000    158.58389
2272288284.56211    -0.00000    158.52587    -59.58982    68.52587    -59.58982    68.52587    -0.00000    158.52587
2277588451.76878    -0.00000    158.46765    -59.56175    68.46765    -59.56175    68.46765    -0.00000    158.46765
2282900981.74324    -0.00000    158.40923    -59.53362    68.40923    -59.53362    68.40923    -0.00000    158.40923
2288225903.32195    -0.00000    158.35060    -59.50545    68.35060    -59.50545    68.35060    -0.00000    158.35060
2293563245.40862    -0.00000    158.29177    -59.47722    68.29177    -59.47722    68.29177    -0.00000    158.29177
2298913036.97438    -0.00000    158.23273    -59.44895    68.23273    -59.44895    68.23273    -0.00000    158.23273
2304275307.05795    -0.00000    158.17348    -59.42062    68.17348    -59.42062    68.17348    -0.00000    158.17348
2309650084.76577    -0.00000    158.11403    -59.39224    68.11403    -59.39224    68.11403    -0.00000    158.11403
2315037399.27217    -0.00001    158.05436    -59.36381    68.05436    -59.36381    68.05436    -0.00001    158.05436
2320437279.81955    -0.00001    157.99449    -59.33533    67.99449    -59.33533    67.99449    -0.00001    157.99449
2325849755.71849    -0.00001    157.93440    -59.30679    67.93440    -59.30679    67.93440    -0.00001    157.93440
2331274856.34795    -0.00001    157.87410    -59.27820    67.87410    -59.27820    67.87410    -0.00001    157.87410
2336712611.15543    -0.00001    157.81359    -59.24955    67.81359    -59.24955    67.81359    -0.00001    157.81359
2342163049.65709    -0.00001    157.75286    -59.22085    67.75286    -59.22085    67.75286    -0.00001    157.75286
2347626201.43796    -0.00001    157.69191    -59.19210    67.69191    -59.19210    67.69191    -0.00001    157.69191
2353102096.15207    -0.00001    157.63075    -59.16329    67.63075    -59.16329    67.63075    -0.00001    157.63075
2358590763.52263    -0.00001    157.56936    -59.13443    67.56936    -59.13443    67.56936    -0.00001    157.56936
2364092233.34216    -0.00001    157.50776    -59.10550    67.50776    -59.10550    67.50776    -0.00001    157.50776
2369606535.47267    -0.00001    157.44594    -59.07653    67.44594    -59.07653    67.44594    -0.00001    157.44594
2375133699.84584    -0.00001    157.38389    -59.04749    67.38389    -59.04749    67.38389    -0.00001    157.38389
2380673756.46318    -0.00001    157.32162    -59.01840    67.32162    -59.01840    67.32162    -0.00001    157.32162
2386226735.39613    -0.00001    157.25912    -58.98925    67.25912    -58.98925    67.25912    -0.00001    157.25912
2391792666.78634    -0.00001    157.19640    -58.96004    67.19640    -58.96004    67.19640    -0.00001    157.19640
2397371580.84569    -0.00001    157.13345    -58.93077    67.13345    -58.93077    67.13345    -0.00001    157.13345
2402963507.85659    -0.00001    157.07026    -58.90144    67.07026    -58.90144    67.07026    -0.00001    157.07026
2408568478.17206    -0.00001    157.00685    -58.87206    67.00685    -58.87206    67.00685    -0.00001    157.00685
2414186522.21592    -0.00001    156.94321    -58.84261    66.94321    -58.84261    66.94321    -0.00001    156.94321
2419817670.48296    -0.00001    156.87934    -58.81310    66.87934    -58.81310    66.87934    -0.00001    156.87934
2425461953.53911    -0.00001    156.81523    -58.78353    66.81523    -58.78353    66.81523    -0.00001    156.81523
2431119402.02155    -0.00001    156.75088    -58.75390    66.75088    -58.75390    66.75088    -0.00001    156.75088
2436790046.63898    -0.00001    156.68630    -58.72421    66.68630    -58.72421    66.68630    -0.00001    156.68630
2442473918.17168    -0.00001    156.62148    -58.69445    66.62148    -58.69445    66.62148    -0.00001    156.62148
2448171047.47178    -0.00001    156.55641    -58.66463    66.55641    -58.66463    66.55641    -0.00001    156.55641
2453881465.46331    -0.00001    156.49111    -58.63474    66.49111    -58.63474    66.49111    -0.00001    156.49111
2459605203.14249    -0.00001    156.42557    -58.60479    66.42557    -58.60479    66.42557    -0.00001    156.42557
2465342291.57780    -0.00001    156.35978    -58.57478    66.35978    -58.57478    66.35978    -0.00001    156.35978
2471092761.91020    -0.00001    156.29374    -58.54470    66.29374    -58.54470    66.29374    -0.00001    156.29374
2476856645.35329    -0.00001    156.22746    -58.51455    66.22746    -58.51455    66.22746    -0.00001    156.22746
2482633973.19347    -0.00001    156.16093    -58.48434    66.16093    -58.48434    66.16093    -0.00001    156.16093
2488424776.79013    -0.00001    156.09415    -58.45406    66.09415    -58.45406    66.09415    -0.00001    156.09415
2494229087.57578    -0.00001    156.02712    -58.42371    66.02712    -58.42371    66.02712    -0.00001    156.02712
2500046937.05629    -0.00001    155.95983    -58.39330    65.95983    -58.39330    65.95983    -0.00001    155.95983
2505878356.81097    -0.00001    155.89229    -58.36281    65.89229    -58.36281    65.89229    -0.00001    155.89229
2511723378.49281    -0.00001    155.82450    -58.33226    65.82450    -58.33226    65.82450    -0.00001    155.82450
2517582033.82865    -0.00001    155.75645    -58.30163    65.75645    -58.30163    65.75645    -0.00001    155.75645
2523454354.61930    -0.00001    155.68813    -58.27094    65.68813    -58.27094    65.68813    -0.00001    155.68813
2529340372.73978    -0.00001    155.61956    -58.24017    65.61956    -58.24017    65.61956    -0.00001    155.61956
2535240120.13943    -0.00001    155.55073    -58.20933    65.55073    -58.20933    65.55073    -0.00001    155.55073
2541153628.84213    -0.00001    155.48163    -58.17842    65.48163    -58.17842    65.48163    -0.00001    155.48163
2547080930.94644    -0.00001    155.41226    -58.14743    65.41226    -58.14743    65.41226    -0.00001    155.41226
2553022058.62582    -0.00001    155.34263    -58.11637    65.34263    -58.11637    65.34263    -0.00001    155.34263
2558977044.12874    -0.00001    155.27273    -58.08524    65.27273    -58.08524    65.27273    -0.00001    155.27273
2564945919.77892    -0.00001    155.20256    -58.05403    65.20256    -58.05403    65.20256    -0.00001    155.20256
2570928717.97545    -0.00001    155.13212    -58.02275    65.13212    -58.02275    65.13212    -0.00001    155.13212
2576925471.19303    -0.00001    155.06141    -57.99139    65.06141    -57.99139    65.06141    -0.00001    155.06141
2582936211.98206    -0.00001    154.99041    -57.95995    64.99041    -57.95995    64.99041    -0.00001    154.99041
2588960972.96889    -0.00001    154.91914    -57.92843    64.91914    -57.92843    64.91914    -0.00001    154.91914
2594999786.85597    -0.00001    154.84760    -57.89684    64.84760    -57.89684    64.84760    -0.00001    154.84760
2601052686.42204    -0.00001    154.77577    -57.86516    64.77577    -57.86516    64.77577    -0.00001    154.77577
2607119704.52227    -0.00001    154.70366    -57.83341    64.70366    -57.83341    64.70366    -0.00001    154.70366
2613200874.08851    -0.00001    154.63126    -57.80157    64.63126    -57.80157    64.63126    -0.00001    154.63126
2619296228.12936    -0.00001    154.55858    -57.76966    64.55858    -57.76966    64.55858    -0.00001    154.55858
2625405799.73046    -0.00001    154.48561    -57.73766    64.48561    -57.73766    64.48561    -0.00001    154.48561
2631529622.05462    -0.00001    154.41235    -57.70558    64.41235    -57.70558    64.41235    -0.00001    154.41235
2637667728.34199    -0.00001    154.33880    -57.67342    64.33880    -57.67342    64.33880    -0.00001    154.33880
2643820151.91026    -0.00001    154.26496    -57.64117    64.26496    -57.64117    64.26496    -0.00001    154.26496
2649986926.15484    -0.00001    154.19082    -57.60883    64.19082    -57.60883    64.19082    -0.00001    154.19082
2656168084.54901    -0.00001    154.11638    -57.57641    64.11638    -57.57641    64.11638    -0.00001    154.11638
2662363660.64416    -0.00001    154.04164    -57.54391    64.04164    -57.54391    64.04164    -0.00001    154.04164
2668573688.06993    -0.00001    153.96660    -57.51131    63.96660    -57.51131    63.96660    -0.00001    153.96660
2674798200.53438    -0.00001    153.89126    -57.47863    63.89126    -57.47863    63.89126    -0.00001    153.89126
2681037231.82422    -0.00001    153.81562    -57.44586    63.81562    -57.44586    63.81562    -0.00001    153.81562
2687290815.80496    -0.00001    153.73966    -57.41300    63.73966    -57.41300    63.73966    -0.00001    153.73966
2693558986.42112    -0.00001    153.66340    -57.38005    63.66340    -57.38005    63.66340    -0.00001    153.66340
2699841777.69635    -0.00001    153.58682    -57.34701    63.58682    -57.34701    63.58682    -0.00001    153.58682
2706139223.73370    -0.00001    153.50994    -57.31387    63.50994    -57.31387    63.50994    -0.00001    153.50994
2712451358.71576    -0.00001    153.43273    -57.28064    63.43273    -57.28064    63.43273    -0.00001    153.43273
2718778216.90485    -0.00001    153.35521    -57.24732    63.35521    -57.24732    63.35521    -0.00001    153.35521
2725119832.64320    -0.00001    153.27737    -57.21390    63.27737    -57.21390    63.27737    -0.00001    153.27737
2731476240.35315    -0.00001    153.19921    -57.18039    63.19921    -57.18039    63.19921    -0.00001    153.19921
2737847474.53733    -0.00001    153.12072    -57.14678    63.12072    -57.14678    63.12072    -0.00001    153.12072
2744233569.77885    -0.00001    153.04191    -57.11307    63.04191    -57.11307    63.04191    -0.00001    153.04191
2750634560.74148    -0.00001    152.96277    -57.07927    62.96277    -57.07927    62.96277    -0.00001    152.96277
2757050482.16986    -0.00001    152.88329    -57.04536    62.88329    -57.04536    62.88329    -0.00001    152.88329
2763481368.88965    -0.00001    152.80349    -57.01136    62.80349    -57.01136    62.80349    -0.00001    152.80349
2769927255.80776    -0.00001    152.72335    -56.97725    62.72335    -56.97725    62.72335    -0.00001    152.72335
2776388177.91251    -0.00001    152.64287    -56.94304    62.64287    -56.94304    62.64287    -0.00001    152.64287
2782864170.27384    -0.00001    152.56205    -56.90873    62.56205    -56.90873    62.56205    -0.00001    152.56205
2789355268.04348    -0.00001    152.48088    -56.87431    62.48088    -56.87431    62.48088    -0.00001    152.48088
2795861506.45516    -0.00001    152.39938    -56.83979    62.39938    -56.83979    62.39938    -0.00001    152.39938
2802382920.82479    -0.00001    152.31752    -56.80516    62.31752    -56.80516    62.31752    -0.00001    152.31752
2808919546.55067    -0.00001    152.23532    -56.77042    62.23532    -56.77042    62.23532    -0.00001    152.23532
2815471419.11366    -0.00001    152.15276    -56.73558    62.15276    -56.73558    62.15276    -0.00001    152.15276
2822038574.07735    -0.00001    152.06985    -56.70063    62.06985    -56.70063    62.06985    -0.00001    152.06985
2828621047.08832    -0.00001    151.98658    -56.66556    61.98658    -56.66556    61.98658    -0.00001    151.98658
2835218873.87628    -0.00001    151.90296    -56.63039    61.90296    -56.63039    61.90296    -0.00001    151.90296
2841832090.25430    -0.00001    151.81897    -56.59510    61.81897    -56.59510    61.81897    -0.00001    151.81897
2848460732.11896    -0.00001    151.73461    -56.55970    61.73461    -56.55970    61.73461    -0.00001    151.73461
2855104835.45058    -0.00001    151.64989    -56.52418    61.64989    -56.52418    61.64989    -0.00001    151.64989
2861764436.31341    -0.00001    151.56479    -56.48855    61.56479    -56.48855    61.56479    -0.00001    151.56479
2868439570.85581    -0.00001    151.47933    -56.45280    61.47933    -56.45280    61.47933    -0.00001    151.47933
2875130275.31045    -0.00001    151.39348    -56.41694    61.39348    -56.41694    61.39348    -0.00001    151.39348
2881836585.99454    -0.00001    151.30726    -56.38095    61.30726    -56.38095    61.30726    -0.00001    151.30726
2888558539.30999    -0.00001    151.22066    -56.34484    61.22066    -56.34484    61.22066    -0.00001    151.22066
2895296171.74362    -0.00001    151.13367    -56.30861    61.13367    -56.30861    61.13367    -0.00001    151.13367
2902049519.86732    -0.00001    151.04630    -56.27226    61.04630    -56.27226    61.04630    -0.00001    151.04630
2908818620.33834    -0.00001    150.95854    -56.23579    60.95854    -56.23579    60.95854    -0.00001    150.95854
2915603509.89941    -0.00001    150.87038    -56.19919    60.87038    -56.19919    60.87038    -0.00001    150.87038
2922404225.37896    -0.00001    150.78183    -56.16246    60.78183    -56.16246    60.78183    -0.00001    150.78183
2929220803.69132    -0.00001    150.69288    -56.12560    60.69288    -56.12560    60.69288    -0.00001    150.69288
2936053281.83694    -0.00001    150.60352    -56.08862    60.60352    -56.08862    60.60352    -0.00001    150.60352
2942901696.90256    -0.00001    150.51377    -56.05150    60.51377    -56.05150    60.51377    -0.00001    150.51377
2949766086.06143    -0.00001    150.42360    -56.01425    60.42360    -56.01425    60.42360    -0.00001    150.42360
2956646486.57351    -0.00001    150.33302    -55.97687    60.33302    -55.97687    60.33302    -0.00001    150.33302
2963542935.78566    -0.00001    150.24203    -55.93936    60.24203    -55.93936    60.24203    -0.00001    150.24203
2970455471.13186    -0.00001    150.15062    -55.90170    60.15062    -55.90170    60.15062    -0.00001    150.15062
2977384130.13342    -0.00001    150.05879    -55.86391    60.05879    -55.86391    60.05879    -0.00001    150.05879
2984328950.39915    -0.00001    149.96654    -55.82599    59.96654    -55.82599    59.96654    -0.00001    149.96654
2991289969.62557    -0.00001    149.87386    -55.78792    59.87386    -55.78792    59.87386    -0.00001    149.87386
2998267225.59716    -0.00001    149.78075    -55.74971    59.78075    -55.74971    59.78075    -0.00001    149.78075
3005260756.18653    -0.00001    149.68721    -55.71135    59.68721    -55.71135    59.68721    -0.00001    149.68721
3012270599.35460    -0.00001    149.59322    -55.67286    59.59322    -55.67286    59.59322    -0.00001    149.59322
3019296793.15086    -0.00001    149.49880    -55.63421    59.49880    -55.63421    59.49880    -0.00001    149.49880
3026339375.71355    -0.00001    149.40393    -55.59542    59.40393    -55.59542    59.40393    -0.00001    149.40393
3033398385.26986    -0.00001    149.30862    -55.55648    59.30862    -55.55648    59.30862    -0.00001    149.30862
3040473860.13614    -0.00001    149.21285    -55.51739    59.21285    -55.51739    59.21285    -0.00001    149.21285
3047565838.71813    -0.00001    149.11663    -55.47814    59.11663    -55.47814    59.11663    -0.00001    149.11663
3054674359.51115    -0.00001    149.01995    -55.43875    59.01995    -55.43875    59.01995    -0.00001    149.01995
3061799461.10029    -0.00001    148.92281    -55.39919    58.92281    -55.39919    58.92281    -0.00001    148.92281
3068941182.16068    -0.00001    148.82520    -55.35948    58.82520    -55.35948    58.82520    -0.00001    148.82520
3076099561.45762    -0.00001    148.72712    -55.31961    58.72712    -55.31961    58.72712    -0.00001    148.72712
3083274637.84685    -0.00001    148.62856    -55.27958    58.62856    -55.27958    58.62856    -0.00001    148.62856
3090466450.27474    -0.00001    148.52953    -55.23938    58.52953    -55.23938    58.52953    -0.00001    148.52953
3097675037.77851    -0.00001    148.43002    -55.19902    58.43002    -55.19902    58.43002    -0.00001    148.43002
3104900439.48642    -0.00001    148.33002    -55.15850    58.33002    -55.15850    58.33002    -0.00001    148.33002
3112142694.61802    -0.00001    148.22953    -55.11781    58.22953    -55.11781    58.22953    -0.00001    148.22953
3119401842.48431    -0.00001    148.12855    -55.07694    58.12855    -55.07694    58.12855    -0.00001    148.12855
3126677922.48803    -0.00001    148.02707    -55.03591    58.02707    -55.03591    58.02707    -0.00001    148.02707
3133970974.12376    -0.00001    147.92508    -54.99470    57.92508    -54.99470    57.92508    -0.00001    147.92508
3141281036.97826    -0.00001    147.82259    -54.95332    57.82259    -54.95332    57.82259    -0.00001    147.82259
3148608150.73061    -0.00001    147.71959    -54.91176    57.71959    -54.91176    57.71959    -0.00001    147.71959
3155952355.15244    -0.00001    147.61608    -54.87002    57.61608    -54.87002    57.61608    -0.00001    147.61608
3163313690.10816    -0.00001    147.51204    -54.82810    57.51204    -54.82810    57.51204    -0.00001    147.51204
3170692195.55512    -0.00001    147.40748    -54.78600    57.40748    -54.78600    57.40748    -0.00001    147.40748
3178087911.54393    -0.00001    147.30239    -54.74371    57.30239    -54.74371    57.30239    -0.00001    147.30239
3185500878.21859    -0.00001    147.19677    -54.70123    57.19677    -54.70123    57.19677    -0.00001    147.19677
3192931135.81673    -0.00001    147.09061    -54.65857    57.09061    -54.65857    57.09061    -0.00001    147.09061
3200378724.66986    -0.00002    146.98391    -54.61571    56.98391    -54.61571    56.98391    -0.00002    146.98391
3207843685.20355    -0.00002    146.87666    -54.57266    56.87666    -54.57266    56.87666    -0.00002    146.87666
3215326057.93766    -0.00002    146.76885    -54.52941    56.76885    -54.52941    56.76885    -0.00002    146.76885
3222825883.48656    -0.00002    146.66049    -54.48596    56.66049    -54.48596    56.66049    -0.00002    146.66049
3230343202.55937    -0.00002    146.55157    -54.44231    56.55157    -54.44231    56.55157    -0.00002    146.55157
3237878055.96015    -0.00002    146.44208    -54.39847    56.44208    -54.39847    56.44208    -0.00002    146.44208
3245430484.58815    -0.00002    146.33202    -54.35441    56.33202    -54.35441    56.33202    -0.00002    146.33202
3253000529.43800    -0.00002    146.22138    -54.31015    56.22138    -54.31015    56.22138    -0.00002    146.22138
3260588231.59999    -0.00002    146.11016    -54.26568    56.11016    -54.26568    56.11016    -0.00002    146.11016
3268193632.26019    -0.00002    145.99835    -54.22099    55.99835    -54.22099    55.99835    -0.00002    145.99835
3275816772.70079    -0.00002    145.88595    -54.17609    55.88595    -54.17609    55.88595    -0.00002    145.88595
3283457694.30025    -0.00002    145.77295    -54.13097    55.77295    -54.13097    55.77295    -0.00002    145.77295
3291116438.53356    -0.00002    145.65934    -54.08564    55.65934    -54.08564    55.65934    -0.00002    145.65934
3298793046.97244    -0.00002    145.54512    -54.04008    55.54512    -54.04008    55.54512    -0.00002    145.54512
3306487561.28558    -0.00002    145.43029    -53.99429    55.43029    -53.99429    55.43029    -0.00002    145.43029
3314200023.23888    -0.00002    145.31484    -53.94828    55.31484    -53.94828    55.31484    -0.00002    145.31484
3321930474.69561    -0.00002    145.19876    -53.90204    55.19876    -53.90204    55.19876    -0.00002    145.19876
3329678957.61674    -0.00002    145.08204    -53.85556    55.08204    -53.85556    55.08204    -0.00002    145.08204
3337445514.06109    -0.00002    144.96469    -53.80885    54.96469    -53.80885    54.96469    -0.00002    144.96469
3345230186.18560    -0.00002    144.84669    -53.76189    54.84669    -53.76189    54.84669    -0.00002    144.84669
3353033016.24551    -0.00002    144.72804    -53.71470    54.72804    -53.71470    54.72804    -0.00002    144.72804
3360854046.59467    -0.00002    144.60874    -53.66726    54.60874    -53.66726    54.60874    -0.00002    144.60874
3368693319.68567    -0.00002    144.48877    -53.61958    54.48877    -53.61958    54.48877    -0.00002    144.48877
3376550878.07015    -0.00002    144.36812    -53.57164    54.36812    -53.57164    54.36812    -0.00002    144.36812
3384426764.39900    -0.00002    144.24681    -53.52345    54.24681    -53.52345    54.24681    -0.00002    144.24681
3392321021.42260    -0.00002    144.12480    -53.47500    54.12480    -53.47500    54.12480    -0.00002    144.12480
3400233691.99102    -0.00002    144.00211    -53.42629    54.00211    -53.42629    54.00211    -0.00002    144.00211
3408164819.05432    -0.00002    143.87872    -53.37732    53.87872    -53.37732    53.87872    -0.00002    143.87872
3416114445.66271    -0.00002    143.75463    -53.32808    53.75463    -53.32808    53.75463    -0.00002    143.75463
3424082614.96682    -0.00002    143.62982    -53.27858    53.62982    -53.27858    53.62982    -0.00002    143.62982
3432069370.21793    -0.00002    143.50430    -53.22880    53.50430    -53.22880    53.50430    -0.00002    143.50430
3440074754.76822    -0.00002    143.37805    -53.17874    53.37805    -53.17874    53.37805    -0.00002    143.37805
3448098812.07097    -0.00002    143.25107    -53.12840    53.25107    -53.12840    53.25107    -0.00002    143.25107
3456141585.68085    -0.00002    143.12335    -53.07778    53.12335    -53.07778    53.12335    -0.00002    143.12335
3464203119.25407    -0.00002    142.99488    -53.02687    52.99488    -53.02687    52.99488    -0.00002    142.99488
3472283456.54871    -0.00002    142.86565    -52.97567    52.86565    -52.97567    52.86565    -0.00002    142.86565
3480382641.42489    -0.00002    142.73567    -52.92418    52.73567    -52.92418    52.73567    -0.00002    142.73567
3488500717.84506    -0.00002    142.60491    -52.87239    52.60491    -52.87239    52.60491    -0.00002    142.60491
3496637729.87420    -0.00002    142.47337    -52.82029    52.47337    -52.82029    52.47337    -0.00002    142.47337
3504793721.68008    -0.00002    142.34105    -52.76789    52.34105    -52.76789    52.34105    -0.00002    142.34105
3512968737.53349    -0.00002    142.20793    -52.71518    52.20793    -52.71518    52.20793    -0.00002    142.20793
3521162821.80845    -0.00002    142.07400    -52.66216    52.07400    -52.66216    52.07400    -0.00002    142.07400
3529376018.98254    -0.00002    141.93927    -52.60882    51.93927    -52.60882    51.93927    -0.00002    141.93927
3537608373.63706    -0.00002    141.80371    -52.55515    51.80371    -52.55515    51.80371    -0.00002    141.80371
3545859930.45728    -0.00002    141.66732    -52.50116    51.66732    -52.50116    51.66732    -0.00002    141.66732
3554130734.23272    -0.00002    141.53010    -52.44684    51.53010    -52.44684    51.53010    -0.00002    141.53010
3562420829.85738    -0.00003    141.39202    -52.39218    51.39202    -52.39218    51.39202    -0.00003    141.39202
3570730262.32994    -0.00003    141.25309    -52.33719    51.25309    -52.33719    51.25309    -0.00003    141.25309
3579059076.75408    -0.00003    141.11330    -52.28185    51.11330    -52.28185    51.11330    -0.00003    141.11330
3587407318.33866    -0.00003    140.97262    -52.22616    50.97262    -52.22616    50.97262    -0.00003    140.97262
3595775032.39800    -0.00003    140.83107    -52.17012    50.83107    -52.17012    50.83107    -0.00003    140.83107
3604162264.35213    -0.00003    140.68861    -52.11372    50.68861    -52.11372    50.68861    -0.00003    140.68861
3612569059.72700    -0.00003    140.54525    -52.05696    50.54525    -52.05696    50.54525    -0.00003    140.54525
3620995464.15478    -0.00003    140.40098    -51.99983    50.40098    -51.99983    50.40098    -0.00003    140.40098
3629441523.37402    -0.00003    140.25578    -51.94232    50.25578    -51.94232    50.25578    -0.00003    140.25578
3637907283.23002    -0.00003    140.10964    -51.88444    50.10964    -51.88444    50.10964    -0.00003    140.10964
3646392789.67499    -0.00003    139.96256    -51.82618    49.96256    -51.82618    49.96256    -0.00003    139.96256
3654898088.76831    -0.00003    139.81452    -51.76753    49.81452    -51.76753    49.81452    -0.00003    139.81452
3663423226.67683    -0.00003    139.66551    -51.70848    49.66551    -51.70848    49.66551    -0.00003    139.66551
3671968249.67507    -0.00003    139.51553    -51.64904    49.51553    -51.64904    49.51553    -0.00003    139.51553
3680533204.14545    -0.00003    139.36455    -51.58919    49.36455    -51.58919    49.36455    -0.00003    139.36455
3689118136.57862    -0.00003    139.21256    -51.52893    49.21256    -51.52893    49.21256    -0.00003    139.21256
3697723093.57368    -0.00003    139.05957    -51.46826    49.05957    -51.46826    49.05957    -0.00003    139.05957
3706348121.83838    -0.00003    138.90555    -51.40717    48.90555    -51.40717    48.90555    -0.00003    138.90555
3714993268.18945    -0.00003    138.75048    -51.34564    48.75048    -51.34564    48.75048    -0.00003    138.75048
3723658579.55281    -0.00003    138.59437    -51.28369    48.59437    -51.28369    48.59437    -0.00003    138.59437
3732344102.96385    -0.00003    138.43720    -51.22129    48.43720    -51.22129    48.43720    -0.00003    138.43720
3741049885.56764    -0.00003    138.27894    -51.15845    48.27894    -51.15845    48.27894    -0.00003    138.27894
3749775974.61923    -0.00003    138.11960    -51.09515    48.11960    -51.09515    48.11960    -0.00003    138.11960
3758522417.48392    -0.00003    137.95916    -51.03140    47.95916    -51.03140    47.95916    -0.00003    137.95916
3767289261.63747    -0.00003    137.79760    -50.96718    47.79760    -50.96718    47.79760    -0.00003    137.79760
3776076554.66637    -0.00004    137.63491    -50.90249    47.63491    -50.90249    47.63491    -0.00004    137.63491
3784884344.26810    -0.00004    137.47107    -50.83732    47.47107    -50.83732    47.47107    -0.00004    137.47107
3793712678.25143    -0.00004    137.30608    -50.77167    47.30608    -50.77167    47.30608    -0.00004    137.30608
3802561604.53662    -0.00004    137.13992    -50.70552    47.13992    -50.70552    47.13992    -0.00004    137.13992
3811431171.15571    -0.00004    136.97257    -50.63887    46.97257    -50.63887    46.97257    -0.00004    136.97257
3820321426.25277    -0.00004    136.80401    -50.57171    46.80401    -50.57171    46.80401    -0.00004    136.80401
3829232418.08419    -0.00004    136.63424    -50.50404    46.63424    -50.50404    46.63424    -0.00004    136.63424
3838164195.01890    -0.00004    136.46324    -50.43585    46.46324    -50.43585    46.46324    -0.00004    136.46324
3847116805.53864    -0.00004    136.29098    -50.36712    46.29098    -50.36712    46.29098    -0.00004    136.29098
3856090298.23825    -0.00004    136.11746    -50.29786    46.11746    -50.29786    46.11746    -0.00004    136.11746
3865084721.82593    -0.00004    135.94266    -50.22805    45.94266    -50.22805    45.94266    -0.00004    135.94266
3874100125.12348    -0.00004    135.76656    -50.15769    45.76656    -50.15769    45.76656    -0.00004    135.76656
3883136557.06657    -0.00004    135.58915    -50.08676    45.58915    -50.08676    45.58915    -0.00004    135.58915
3892194066.70504    -0.00004    135.41040    -50.01526    45.41040    -50.01526    45.41040    -0.00004    135.41040
3901272703.20310    -0.00004    135.23030    -49.94318    45.23030    -49.94318    45.23030    -0.00004    135.23030
3910372515.83966    -0.00004    135.04884    -49.87051    45.04884    -49.87051    45.04884    -0.00004    135.04884
3919493554.00860    -0.00005    134.86598    -49.79724    44.86598    -49.79724    44.86598    -0.00005    134.86598
3928635867.21896    -0.00005    134.68172    -49.72337    44.68172    -49.72337    44.68172    -0.00005    134.68172
3937799505.09529    -0.00005    134.49603    -49.64888    44.49603    -49.64888    44.49603    -0.00005    134.49603
3946984517.37791    -0.00005    134.30890    -49.57376    44.30890    -49.57376    44.30890    -0.00005    134.30890
3956190953.92312    -0.00005    134.12031    -49.49801    44.12031    -49.49801    44.12031    -0.00005    134.12031
3965418864.70353    -0.00005    133.93022    -49.42161    43.93022    -49.42161    43.93022    -0.00005    133.93022
3974668299.80831    -0.00005    133.73864    -49.34455    43.73864    -49.34455    43.73864    -0.00005    133.73864
3983939309.44346    -0.00005    133.54552    -49.26683    43.54552    -49.26683    43.54552    -0.00005    133.54552
3993231943.93211    -0.00005    133.35086    -49.18843    43.35086    -49.18843    43.35086    -0.00005    133.35086
4002546253.71473    -0.00005    133.15462    -49.10934    43.15462    -49.10934    43.15462    -0.00005    133.15462
4011882289.34950    -0.00005    132.95680    -49.02955    42.95680    -49.02955    42.95680    -0.00005    132.95680
4021240101.51246    -0.00006    132.75735    -48.94905    42.75735    -48.94905    42.75735    -0.00006    132.75735
4030619740.99790    -0.00006    132.55627    -48.86783    42.55627    -48.86783    42.55627    -0.00006    132.55627
4040021258.71857    -0.00006    132.35352    -48.78588    42.35352    -48.78588    42.35352    -0.00006    132.35352
4049444705.70598    -0.00006    132.14909    -48.70318    42.14909    -48.70318    42.14909    -0.00006    132.14909
4058890133.11069    -0.00006    131.94294    -48.61972    41.94294    -48.61972    41.94294    -0.00006    131.94294
4068357592.20254    -0.00006    131.73505    -48.53549    41.73505    -48.53549    41.73505    -0.00006    131.73505
4077847134.37099    -0.00006    131.52540    -48.45048    41.52540    -48.45048    41.52540    -0.00006    131.52540
4087358811.12531    -0.00006    131.31395    -48.36468    41.31395    -48.36468    41.31395    -0.00006    131.31395
4096892674.09499    -0.00006    131.10069    -48.27806    41.10069    -48.27806    41.10069    -0.00006    131.10069
4106448775.02989    -0.00007    130.88558    -48.19063    40.88558    -48.19063    40.88558    -0.00007    130.88558
4116027165.80062    -0.00007    130.66860    -48.10235    40.66860    -48.10235    40.66860    -0.00007    130.66860
4125627898.39874    -0.00007    130.44971    -48.01323    40.44971    -48.01323    40.44971    -0.00007    130.44971
4135251024.93713    -0.00007    130.22889    -47.92324    40.22889    -47.92324    40.22889    -0.00007    130.22889
4144896597.65016    -0.00007    130.00610    -47.83238    40.00610    -47.83238    40.00610    -0.00007    130.00610
4154564668.89409    -0.00007    129.78132    -47.74062    39.78132    -47.74062    39.78132    -0.00007    129.78132
4164255291.14728    -0.00007    129.55452    -47.64795    39.55452    -47.64795    39.55452    -0.00007    129.55452
4173968517.01052    -0.00008    129.32565    -47.55435    39.32565    -47.55435    39.32565    -0.00008    129.32565
4183704399.20725    -0.00008    129.09469    -47.45982    39.09469    -47.45982    39.09469    -0.00008    129.09469
4193462990.58395    -0.00008    128.86161    -47.36432    38.86161    -47.36432    38.86161    -0.00008    128.86161
4203244344.11029    -0.00008    128.62636    -47.26785    38.62636    -47.26785    38.62636    -0.00008    128.62636
4213048512.87956    -0.00008    128.38892    -47.17040    38.38892    -47.17040    38.38892    -0.00008    128.38892
4222875550.10884    -0.00009    128.14924    -47.07193    38.14924    -47.07193    38.14924    -0.00009    128.14924
4232725509.13939    -0.00009    127.90729    -46.97243    37.90729    -46.97243    37.90729    -0.00009    127.90729
4242598443.43685    -0.00009    127.66303    -46.87190    37.66303    -46.87190    37.66303    -0.00009    127.66303
4252494406.59160    -0.00009    127.41643    -46.77029    37.41643    -46.77029    37.41643    -0.00009    127.41643
4262413452.31897    -0.00009    127.16744    -46.66761    37.16744    -46.66761    37.16744    -0.00009    127.16744
4272355634.45965    -0.00010    126.91601    -46.56383    36.91601    -46.56383    36.91601    -0.00010    126.91601
4282321006.97986    -0.00010    126.66212    -46.45892    36.66212    -46.45892    36.66212    -0.00010    126.66212
4292309623.97174    -0.00010    126.40571    -46.35287    36.40571    -46.35287    36.40571    -0.00010    126.40571
4302321539.65357    -0.00010    126.14674    -46.24566    36.14674    -46.24566    36.14674    -0.00010    126.14674
4312356808.37010    -0.00011    125.88517    -46.13727    35.88517    -46.13727    35.88517    -0.00011    125.88517
4322415484.59287    -0.00011    125.62095    -46.02767    35.62095    -46.02767    35.62095    -0.00011    125.62095
4332497622.92042    -0.00011    125.35402    -45.91684    35.35402    -45.91684    35.35402    -0.00011    125.35402
4342603278.07870    -0.00011    125.08435    -45.80476    35.08435    -45.80476    35.08435    -0.00011    125.08435
4352732504.92127    -0.00012    124.81188    -45.69141    34.81188    -45.69141    34.81188    -0.00012    124.81188
4362885358.42965    -0.00012    124.53656    -45.57676    34.53656    -45.57676    34.53656    -0.00012    124.53656
4373061893.71362    -0.00012    124.25834    -45.46078    34.25834    -45.46078    34.25834    -0.00012    124.25834
4383262166.01151    -0.00013    123.97716    -45.34346    33.97716    -45.34346    33.97716    -0.00013    123.97716
4393486230.69043    -0.00013    123.69297    -45.22477    33.69297    -45.22477    33.69297    -0.00013    123.69297
4403734143.24671    -0.00013    123.40571    -45.10467    33.40571    -45.10467    33.40571    -0.00013    123.40571
4414005959.30609    -0.00014    123.11531    -44.98315    33.11531    -44.98315    33.11531    -0.00014    123.11531
4424301734.62408    -0.00014    122.82173    -44.86018    32.82173    -44.86018    32.82173    -0.00014    122.82173
4434621525.08622    -0.00015    122.52490    -44.73573    32.52490    -44.73573    32.52490    -0.00015    122.52490
4444965386.70842    -0.00015    122.22474    -44.60976    32.22474    -44.60976    32.22474    -0.00015    122.22474
4455333375.63724    -0.00015    121.92121    -44.48225    31.92121    -44.48225    31.92121    -0.00015    121.92121
4465725548.15019    -0.00016    121.61422    -44.35318    31.61422    -44.35318    31.61422    -0.00016    121.61422
4476141960.65607    -0.00016    121.30372    -44.22250    31.30372    -44.22250    31.30372    -0.00016    121.30372
4486582669.69526    -0.00017    120.98962    -44.09018    30.98962    -44.09018    30.98962    -0.00017    120.98962
4497047731.93999    -0.00017    120.67186    -43.95620    30.67186    -43.95620    30.67186    -0.00017    120.67186
4507537204.19471    -0.00018    120.35035    -43.82052    30.35035    -43.82052    30.35035    -0.00018    120.35035
4518051143.39638    -0.00019    120.02503    -43.68311    30.02503    -43.68311    30.02503    -0.00019    120.02503
4528589606.61470    -0.00019    119.69580    -43.54393    29.69580    -43.54393    29.69580    -0.00019    119.69580
4539152651.05255    -0.00020    119.36259    -43.40294    29.36259    -43.40294    29.36259    -0.00020    119.36259
4549740334.04622    -0.00021    119.02531    -43.26010    29.02531    -43.26010    29.02531    -0.00021    119.02531
4560352713.06573    -0.00021    118.68388    -43.11539    28.68388    -43.11539    28.68388    -0.00021    118.68388
4570989845.71515    -0.00022    118.33819    -42.96876    28.33819    -42.96876    28.33819    -0.00022    118.33819
4581651789.73294    -0.00023    117.98816    -42.82016    27.98816    -42.82016    27.98816    -0.00023    117.98816
4592338602.99221    -0.00023    117.63369    -42.66956    27.63369    -42.66956    27.63369    -0.00023    117.63369
4603050343.50105    -0.00024    117.27468    -42.51692    27.27468    -42.51692    27.27468    -0.00024    117.27468
4613787069.40287    -0.00025    116.91102    -42.36220    26.91102    -42.36220    26.91102    -0.00025    116.91102
4624548838.97671    -0.00026    116.54261    -42.20534    26.54261    -42.20534    26.54261    -0.00026    116.54261
4635335710.63754    -0.00027    116.16935    -42.04630    26.16935    -42.04630    26.16935    -0.00027    116.16935
4646147742.93659    -0.00028    115.79110    -41.88504    25.79110    -41.88504    25.79110    -0.00028    115.79110
4656984994.56164    -0.00029    115.40777    -41.72150    25.40777    -41.72150    25.40777    -0.00029    115.40777
4667847524.33738    -0.00030    115.01921    -41.55564    25.01921    -41.55564    25.01921    -0.00030    115.01921
4678735391.22571    -0.00032    114.62532    -41.38741    24.62532    -41.38741    24.62532    -0.00032    114.62532
4689648654.32605    -0.00033    114.22595    -41.21674    24.22595    -41.21674    24.22595    -0.00033    114.22595
4700587372.87568    -0.00034    113.82098    -41.04360    23.82098    -41.04360    23.82098    -0.00034    113.82098
4711551606.25005    -0.00036    113.41026    -40.86792    23.41026    -40.86792    23.41026    -0.00036    113.41026
4722541413.96313    -0.00037    112.99365    -40.68965    22.99365    -40.68965    22.99365    -0.00037    112.99365
4733556855.66763    -0.00039    112.57099    -40.50872    22.57099    -40.50872    22.57099    -0.00039    112.57099
4744597991.15548    -0.00040    112.14213    -40.32507    22.14213    -40.32507    22.14213    -0.00040    112.14213
4755664880.35805    -0.00042    111.70691    -40.13865    21.70691    -40.13865    21.70691    -0.00042    111.70691
4766757583.34649    -0.00044    111.26516    -39.94939    21.26516    -39.94939    21.26516    -0.00044    111.26516
4777876160.33210    -0.00046    110.81671    -39.75722    20.81671    -39.75722    20.81671    -0.00046    110.81671
4789020671.66659    -0.00048    110.36137    -39.56207    20.36137    -39.56207    20.36137    -0.00048    110.36137
4800191177.84245    -0.00050    109.89896    -39.36388    19.89896    -39.36388    19.89896    -0.00050    109.89896
4811387739.49327    -0.00053    109.42928    -39.16257    19.42928    -39.16257    19.42928    -0.00053    109.42928
4822610417.39408    -0.00055    108.95213    -38.95806    18.95213    -38.95806    18.95213    -0.00055    108.95213
4833859272.46166    -0.00058    108.46729    -38.75028    18.46729    -38.75028    18.46729    -0.00058    108.46729
4845134365.75489    -0.00061    107.97454    -38.53915    17.97454    -38.53915    17.97454    -0.00061    107.97454
4856435758.47505    -0.00064    107.47366    -38.32458    17.47366    -38.32458    17.47366    -0.00064    107.47366
4867763511.96623    -0.00067    106.96440    -38.10649    16.96440    -38.10649    16.96440    -0.00067    106.96440
4879117687.71550    -0.00071    106.44652    -37.88479    16.44652    -37.88479    16.44652    -0.00071    106.44652
4890498347.35345    -0.00074    105.91975    -37.65940    15.91975    -37.65940    15.91975    -0.00074    105.91975
4901905552.65438    -0.00078    105.38382    -37.43021    15.38382    -37.43021    15.38382    -0.00078    105.38382
4913339365.53670    -0.00083    104.83845    -37.19713    14.83845    -37.19713    14.83845    -0.00083    104.83845
4924799848.06322    -0.00087    104.28333    -36.96007    14.28333    -36.96007    14.28333    -0.00087    104.28333
4936287062.44156    -0.00092    103.71816    -36.71890    13.71816    -36.71890    13.71816    -0.00092    103.71816
4947801071.02436    -0.00098    103.14262    -36.47354    13.14262    -36.47354    13.14262    -0.00098    103.14262
4959341936.30977    -0.00104    102.55635    -36.22386    12.55635    -36.22386    12.55635    -0.00104    102.55635
4970909720.94171    -0.00110    101.95901    -35.96976    11.95901    -35.96976    11.95901    -0.00110    101.95901
4982504487.71019    -0.00117    101.35022    -35.71110    11.35022    -35.71110    11.35022    -0.00117    101.35022
4994126299.55169    -0.00124    100.72957    -35.44777    10.72957    -35.44777    10.72957    -0.00124    100.72957
5005775219.54951    -0.00132    100.09667    -35.17965    10.09667    -35.17965    10.09667    -0.00132    100.09667
5017451310.93408    -0.00140    99.45108    -34.90659    9.45108    -34.90659    9.45108    -0.00140    99.45108
5029154637.08329    -0.00150    98.79233    -34.62845    8.79233    -34.62845    8.79233    -0.00150    98.79233
5040885261.52291    -0.00160    98.11995    -34.34510    8.11995    -34.34510    8.11995    -0.00160    98.11995
5052643247.92684    -0.00171    97.43343    -34.05639    7.43343    -34.05639    7.43343    -0.00171    97.43343
5064428660.11753    -0.00183    96.73223    -33.76215    6.73223    -33.76215    6.73223    -0.00183    96.73223
5076241562.06632    -0.00196    96.01579    -33.46223    6.01579    -33.46223    6.01579    -0.00196    96.01579
5088082017.89368    -0.00210    95.28350    -33.15646    5.28350    -33.15646    5.28350    -0.00210    95.28350
5099950091.86972    -0.00226    94.53475    -32.84467    4.53475    -32.84467    4.53475    -0.00226    94.53475
5111845848.41444    -0.00243    93.76885    -32.52667    3.76885    -32.52667    3.76885    -0.00243    93.76885
5123769352.09809    -0.00262    92.98511    -32.20227    2.98511    -32.20227    2.98511    -0.00262    92.98511
5135720667.64156    -0.00282    92.18275    -31.87127    2.18275    -31.87127    2.18275    -0.00282    92.18275
5147699859.91667    -0.00305    91.36099    -31.53348    1.36099    -31.53348    1.36099    -0.00305    91.36099
5159706993.94656    -0.00330    90.51897    -31.18866    0.51897    -31.18866    0.51897    -0.00330    90.51897
5171742134.90608    -0.00358    89.65579    -30.83660    -0.34421    -30.83660    -0.34421    -0.00358    89.65579
5183805348.12203    -0.00389    88.77047    -30.47707    -1.22953    -30.47707    -1.22953    -0.00389    88.77047
5195896699.07363    -0.00424    87.86198    -30.10980    -2.13802    -30.10980    -2.13802    -0.00424    87.86198
5208016253.39285    -0.00462    86.92922    -29.73455    -3.07078    -29.73455    -3.07078    -0.00462    86.92922
5220164076.86470    -0.00505    85.97099    -29.35105    -4.02901    -29.35105    -4.02901    -0.00505    85.97099
5232340235.42770    -0.00552    84.98604    -28.95900    -5.01396    -28.95900    -5.01396    -0.00552    84.98604
5244544795.17408    -0.00606    83.97298    -28.55812    -6.02702    -28.55812    -6.02702    -0.00606    83.97298
5256777822.35031    -0.00666    82.93036    -28.14809    -7.06964    -28.14809    -7.06964    -0.00666    82.93036
5269039383.35736    -0.00733    81.85657    -27.72858    -8.14343    -27.72858    -8.14343    -0.00733    81.85657
5281329544.75107    -0.00810    80.74991    -27.29924    -9.25009    -27.29924    -9.25009    -0.00810    80.74991
5293648373.24254    -0.00896    79.60852    -26.85972    -10.39148    -26.85972    -10.39148    -0.00896    79.60852
5305995935.69846    -0.00994    78.43038    -26.40962    -11.56962    -26.40962    -11.56962    -0.00994    78.43038
5318372299.14150    -0.01105    77.21329    -25.94854    -12.78671    -25.94854    -12.78671    -0.01105    77.21329
5330777530.75067    -0.01233    75.95488    -25.47607    -14.04512    -25.47607    -14.04512    -0.01233    75.95488
5343211697.86163    -0.01378    74.65252    -24.99174    -15.34748    -24.99174    -15.34748    -0.01378    74.65252
5355674867.96716    -0.01545    73.30336    -24.49508    -16.69664    -24.49508    -16.69664    -0.01545    73.30336
5368167108.71743    -0.01738    71.90426    -23.98559    -18.09574    -23.98559    -18.09574    -0.01738    71.90426
5380688487.92043    -0.01961    70.45175    -23.46273    -19.54825    -23.46273    -19.54825    -0.01961    70.45175
5393239073.54232    -0.02220    68.94201    -22.92596    -21.05799    -22.92596    -21.05799    -0.02220    68.94201
5405818933.70774    -0.02521    67.37082    -22.37466    -22.62918    -22.37466    -22.62918    -0.02521    67.37082
5418428136.70028    -0.02873    65.73345    -21.80822    -24.26655    -21.80822    -24.26655    -0.02873    65.73345
5431066750.96280    -0.03287    64.02467    -21.22597    -25.97533    -21.22597    -25.97533    -0.03287    64.02467
5443734845.09779    -0.03775    62.23859    -20.62721    -27.76141    -20.62721    -27.76141    -0.03775    62.23859
5456432487.86777    -0.04354    60.36860    -20.01120    -29.63140    -20.01120    -29.63140    -0.04354    60.36860
5469159748.19564    -0.05042    58.40727    -19.37716    -31.59273    -19.37716    -31.59273    -0.05042    58.40727
5481916695.16509    -0.05865    56.34616    -18.72430    -33.65384    -18.72430    -33.65384    -0.05865    56.34616
5494703398.02088    -0.06855    54.17568    -18.05176    -35.82432    -18.05176    -35.82432    -0.06855    54.17568
5507519926.16936    -0.08053    51.88491    -17.35868    -38.11509    -17.35868    -38.11509    -0.08053    51.88491
5520366349.17875    -0.09509    49.46129    -16.64416    -40.53871    -16.64416    -40.53871    -0.09509    49.46129
5533242736.77952    -0.11290    46.89041    -15.90734    -43.10959    -15.90734    -43.10959    -0.11290    46.89041
5546149158.86482    -0.13483    44.15560    -15.14735    -45.84440    -15.14735    -45.84440    -0.13483    44.15560
5559085685.49079    -0.16200    41.23756    -14.36340    -48.76244    -14.36340    -48.76244    -0.16200    41.23756
5572052386.87699    -0.19591    38.11385    -13.55482    -51.88615    -13.55482    -51.88615    -0.19591    38.11385
5585049333.40680    -0.23853    34.75835    -12.72113    -55.24165    -12.72113    -55.24165    -0.23853    34.75835
5598076595.62773    -0.29249    31.14064    -11.86221    -58.85936    -11.86221    -58.85936    -0.29249    31.14064
5611134244.25187    -0.36132    27.22537    -10.97838    -62.77463    -10.97838    -62.77463    -0.36132    27.22537
5624222350.15623    -0.44978    22.97167    -10.07075    -67.02833    -10.07075    -67.02833    -0.44978    22.97167
5637340984.38318    -0.56435    18.33281    -9.14146    -71.66719    -9.14146    -71.66719    -0.56435    18.33281
5650490218.14073    -0.71378    13.25630    -8.19419    -76.74370    -8.19419    -76.74370    -0.71378    13.25630
5663670122.80302    -0.90994    7.68503    -7.23475    -82.31497    -7.23475    -82.31497    -0.90994    7.68503
5676880769.91070    -1.16880    1.56012    -6.27175    -88.43988    -6.27175    -88.43988    -1.16880    1.56012
5690122231.17126    -1.51160    -5.17359    -5.31737    -95.17359    -5.31737    -95.17359    -1.51160    -5.17359
5703394578.45944    -1.96604    -12.55827    -4.38791    -102.55827    -4.38791    -102.55827    -1.96604    -12.55827
5716697883.81768    -2.56718    -20.60974    -3.50382    -110.60974    -3.50382    -110.60974    -2.56718    -20.60974
5730032219.45638    -3.35776    -29.30148    -2.68859    -119.30148    -2.68859    -119.30148    -3.35776    -29.30148
5743397657.75444    -4.38791    -38.55056    -1.96604    -128.55056    -1.96604    -128.55056    -4.38791    -38.55056
5756794271.25956    -5.71496    -48.21341    -1.35624    -138.21341    -1.35624    -138.21341    -5.71496    -48.21341
5770222132.68865    -7.40635    -58.09852    -0.87090    -148.09852    -0.87090    -148.09852    -7.40635    -58.09852
5783681314.92827    -9.55177    -67.99644    -0.51036    -157.99644    -0.51036    -157.99644    -9.55177    -67.99644
5797171891.03495    -12.29796    -77.71695    -0.26370    -167.71695    -0.26370    -167.71695    -12.29796    -77.71695
5810693934.23566    -15.94838    -87.11861    -0.11182    -177.11861    -0.11182    -177.11861    -15.94838    -87.11861
5824247517.92812    -21.33469    -96.12066    -0.03206    173.87934    -0.03206    173.87934    -21.33469    -96.12066
5837832715.68132    -32.78124    -104.69822    -0.00229    165.30178    -0.00229    165.30178    -32.78124    -104.69822
5851449601.23580    -30.82097    67.13211    -0.00360    157.13211    -0.00360    157.13211    -30.82097    67.13211
5865098248.50412    -23.10457    59.32846    -0.02130    149.32846    -0.02130    149.32846    -23.10457    59.32846
5878778731.57126    -19.87387    51.83711    -0.04494    141.83711    -0.04494    141.83711    -19.87387    51.83711
5892491124.69499    -18.10693    44.60187    -0.06768    134.60187    -0.06768    134.60187    -18.10693    44.60187
5906235502.30626    -17.09844    37.56977    -0.08555    127.56977    -0.08555    127.56977    -17.09844    37.56977
5920011939.00968    -16.57226    30.69398    -0.09669    120.69398    -0.09669    120.69398    -16.57226    30.69398
5933820509.58384    -16.39545    23.93513    -0.10076    113.93513    -0.10076    113.93513    -16.39545    23.93513
5947661288.98178    -16.49791    17.26150    -0.09838    107.26150    -0.09838    107.26150    -16.49791    17.26150
5961534352.33136    -16.84259    10.64864    -0.09079    100.64864    -0.09079    100.64864    -16.84259    10.64864
5975439774.93566    -17.41275    4.07869    -0.07952    94.07869    -0.07952    94.07869    -17.41275    4.07869
5989377632.27346    -18.20641    -2.46050    -0.06614    87.53950    -0.06614    87.53950    -18.20641    -2.46050
6003347999.99951    -19.23479    -8.97638    -0.05211    81.02362    -0.05211    81.02362    -19.23479    -8.97638
6017350953.94509    -20.52375    -15.47269    -0.03867    74.52731    -0.03867    74.52731    -20.52375    -15.47269
6031386570.11835    -22.11926    -21.95049    -0.02674    68.04951    -0.02674    68.04951    -22.11926    -21.95049
6045454924.70472    -24.10002    -28.40913    -0.01693    61.59087    -0.01693    61.59087    -24.10002    -28.40913
6059556094.06734    -26.60704    -34.84713    -0.00950    55.15287    -0.00950    55.15287    -26.60704    -34.84713
6073690154.74749    -29.92357    -41.26288    -0.00442    48.73712    -0.00442    48.73712    -29.92357    -41.26288
6087857183.46491    -34.75913    -47.65525    -0.00145    42.34475    -0.00145    42.34475    -34.75913    -47.65525
6102057257.11837    -44.11481    -54.02393    -0.00017    35.97607    -0.00017    35.97607    -44.11481    -54.02393
6116290452.78598    -48.00470    119.63035    -0.00007    29.63035    -0.00007    29.63035    -48.00470    119.63035
6130556847.72563    -38.33756    113.30577    -0.00064    23.30577    -0.00064    23.30577    -38.33756    113.30577
6144856519.37543    -34.89401    106.99959    -0.00141    16.99959    -0.00141    16.99959    -34.89401    106.99959
6159189545.35411    -33.33130    100.70827    -0.00202    10.70827    -0.00202    10.70827    -33.33130    100.70827
6173556003.46146    -32.87737    94.42784    -0.00224    4.42784    -0.00224    4.42784    -32.87737    94.42784
6187955971.67869    -33.36179    88.15422    -0.00200    -1.84578    -0.00200    -1.84578    -33.36179    88.15422
6202389528.16895    -34.93853    81.88350    -0.00139    -8.11650    -0.00139    -8.11650    -34.93853    81.88350
6216856751.27771    -38.33463    75.61233    -0.00064    -14.38767    -0.00064    -14.38767    -38.33463    75.61233
6231357719.53316    -47.46412    69.33812    -0.00008    -20.66188    -0.00008    -20.66188    -47.46412    69.33812
6245892511.64670    -45.13229    -116.94071    -0.00013    -26.94071    -0.00013    -26.94071    -45.13229    -116.94071
6260461206.51324    -35.40309    -123.22464    -0.00125    -33.22464    -0.00125    -33.22464    -35.40309    -123.22464
6275063883.21180    -30.51102    -129.51304    -0.00386    -39.51304    -0.00386    -39.51304    -30.51102    -129.51304
6289700621.00581    -27.17768    -135.80422    -0.00833    -45.80422    -0.00833    -45.80422    -27.17768    -135.80422
6304371499.34361    -24.65637    -142.09564    -0.01489    -52.09564    -0.01489    -52.09564    -24.65637    -142.09564
6319076597.85883    -22.65044    -148.38411    -0.02365    -58.38411    -0.02365    -58.38411    -22.65044    -148.38411
6333815996.37086    -21.01049    -154.66616    -0.03455    -64.66616    -0.03455    -64.66616    -21.01049    -154.66616
6348589774.88528    -19.65019    -160.93834    -0.04733    -70.93834    -0.04733    -70.93834    -19.65019    -160.93834
6363398013.59429    -18.51504    -167.19759    -0.06157    -77.19759    -0.06157    -77.19759    -18.51504    -167.19759
6378240792.87708    -17.56851    -173.44154    -0.07669    -83.44154    -0.07669    -83.44154    -17.56851    -173.44154
6393118193.30040    -16.78511    -179.66882    -0.09202    -89.66882    -0.09202    -89.66882    -16.78511    -179.66882
6408030295.61888    -16.14664    174.12078    -0.10677    -95.87922    -0.10677    -95.87922    -16.14664    174.12078
6422977180.77554    -15.64012    167.92618    -0.12016    -102.07382    -0.12016    -102.07382    -15.64012    167.92618
6437958929.90221    -15.25650    161.74496    -0.13143    -108.25504    -0.13143    -108.25504    -15.25650    161.74496
6452975624.31989    -14.98997    155.57345    -0.13988    -114.42655    -0.13988    -114.42655    -14.98997    155.57345
6468027345.53933    -14.83762    149.40685    -0.14496    -120.59315    -0.14496    -120.59315    -14.83762    149.40685
6483114175.26141    -14.79931    143.23944    -0.14627    -126.76056    -0.14627    -126.76056    -14.79931    143.23944
6498236195.37754    -14.87787    137.06486    -0.14360    -132.93514    -0.14360    -132.93514    -14.87787    137.06486
6513393487.97018    -15.07944    130.87641    -0.13698    -139.12359    -0.13698    -139.12359    -15.07944    130.87641
6528586135.31321    -15.41430    124.66740    -0.12667    -145.33260    -0.12667    -145.33260    -15.41430    124.66740
6543814219.87248    -15.89811    118.43153    -0.11314    -151.56847    -0.11314    -151.56847    -15.89811    118.43153
6559077824.30609    -16.55422    112.16323    -0.09710    -157.83677    -0.09710    -157.83677    -16.55422    112.16323
6574377031.46504    -17.41756    105.85803    -0.07943    -164.14197    -0.07943    -164.14197    -17.41756    105.85803
6589711924.39354    -18.54212    99.51290    -0.06118    -170.48710    -0.06118    -170.48710    -18.54212    99.51290
6605082586.32950    -20.01620    93.12643    -0.04348    -176.87357    -0.04348    -176.87357    -20.01620    93.12643
6620489100.70503    -21.99775    86.69907    -0.02750    176.69907    -0.02750    176.69907    -21.99775    86.69907
6635931551.14675    -24.81327    80.23315    -0.01436    170.23315    -0.01436    170.23315    -24.81327    80.23315
6651410021.47643    -29.33755    73.73281    -0.00506    163.73281    -0.00506    163.73281    -29.33755    73.73281
6666924595.71133    -40.15845    67.20381    -0.00042    157.20381    -0.00042    157.20381    -40.15845    67.20381
6682475358.06468    -36.42458    -119.34686    -0.00099    150.65314    -0.00099    150.65314    -36.42458    -119.34686
6698062392.94613    -27.91443    -125.91140    -0.00703    144.08860    -0.00703    144.08860    -27.91443    -125.91140
6713685784.96223    -23.72784    -132.48175    -0.01845    137.51825    -0.01845    137.51825    -23.72784    -132.48175
6729345618.91687    -20.97520    -139.05021    -0.03483    130.94979    -0.03483    130.94979    -20.97520    -139.05021
6745041979.81178    -18.96639    -145.60996    -0.05545    124.39004    -0.05545    124.39004    -18.96639    -145.60996
6760774952.84689    -17.42529    -152.15563    -0.07929    117.84437    -0.07929    117.84437    -17.42529    -152.15563
6776544623.42090    -16.21331    -158.68365    -0.10512    111.31635    -0.10512    111.31635    -16.21331    -158.68365
6792351077.13173    -15.25113    -165.19258    -0.13159    104.80742    -0.13159    104.80742    -15.25113    -165.19258
6808194399.77691    -14.48946    -171.68324    -0.15728    98.31676    -0.15728    98.31676    -14.48946    -171.68324
6824074677.35415    -13.89603    -178.15873    -0.18080    91.84127    -0.18080    91.84127    -13.89603    -178.15873
6839991996.06168    -13.44918    175.37571    -0.20085    85.37571    -0.20085    85.37571    -13.44918    175.37571
6855946442.29885    -13.13446    168.91289    -0.21633    78.91289    -0.21633    78.91289    -13.13446    168.91289
6871938102.66652    -12.94276    162.44403    -0.22635    72.44403    -0.22635    72.44403    -12.94276    162.44403
6887967063.96754    -12.86924    155.95909    -0.23032    65.95909    -0.23032    65.95909    -12.86924    155.95909
6904033413.20723    -12.91290    149.44728    -0.22795    59.44728    -0.22795    59.44728    -12.91290    149.44728
6920137237.59388    -13.07644    142.89746    -0.21931    52.89746    -0.21931    52.89746    -13.07644    142.89746
6936278624.53918    -13.36656    136.29871    -0.20480    46.29871    -0.20480    46.29871    -13.36656    136.29871
6952457661.65866    -13.79470    129.64083    -0.18516    39.64083    -0.18516    39.64083    -13.79470    129.64083
6968674436.77228    -14.37836    122.91486    -0.16143    32.91486    -0.16143    32.91486    -14.37836    122.91486
6984929037.90483    -15.14355    116.11360    -0.13495    26.11360    -0.13495    26.11360    -15.14355    116.11360
7001221553.28641    -16.12915    109.23204    -0.10721    19.23204    -0.10721    19.23204    -16.12915    109.23204
7017552071.35291    -17.39541    102.26769    -0.07984    12.26769    -0.07984    12.26769    -17.39541    102.26769
7033920680.74654    -19.04173    95.22084    -0.05449    5.22084    -0.05449    5.22084    -19.04173    95.22084
7050327470.31619    -21.24926    88.09450    -0.03270    -1.90550    -0.03270    -1.90550    -21.24926    88.09450
7066772529.11807    -24.40629    80.89428    -0.01577    -9.10572    -0.01577    -9.10572    -24.40629    80.89428
7083255946.41608    -29.63793    73.62792    -0.00472    -16.37208    -0.00472    -16.37208    -29.63793    73.62792
7099777811.68233    -45.36473    66.30465    -0.00013    -23.69535    -0.00013    -23.69535    -45.36473    66.30465
7116338214.59765    -33.16093    -121.06561    -0.00210    -31.06561    -0.00210    -31.06561    -33.16093    -121.06561
7132937245.05203    -26.26857    -128.47319    -0.01027    -38.47319    -0.01027    -38.47319    -26.26857    -128.47319
7149574993.14515    -22.62342    -135.90956    -0.02380    -45.90956    -0.02380    -45.90956    -22.62342    -135.90956
7166251549.18680    -20.21966    -143.36817    -0.04148    -53.36817    -0.04148    -53.36817    -20.21966    -143.36817
7182967003.69747    -18.49868    -150.84509    -0.06180    -60.84509    -0.06180    -60.84509    -18.49868    -150.84509
7199721447.40878    -17.22446    -158.33942    -0.08308    -68.33942    -0.08308    -68.33942    -17.22446    -158.33942
7216514971.26399    -16.27570    -165.85344    -0.10361    -75.85344    -0.10361    -75.85344    -16.27570    -165.85344
7233347666.41846    -15.58278    -173.39254    -0.12178    -83.39254    -0.12178    -83.39254    -15.58278    -173.39254
7250219624.24023    -15.10331    179.03515    -0.13622    -90.96485    -0.13622    -90.96485    -15.10331    179.03515
7267130936.31036    -14.81101    171.41925    -0.14587    -98.58075    -0.14587    -98.58075    -14.81101    171.41925
7284081694.42362    -14.69027    163.74784    -0.15005    -106.25216    -0.15005    -106.25216    -14.69027    163.74784
7301071990.58884    -14.73329    156.00817    -0.14855    -113.99183    -0.14855    -113.99183    -14.73329    156.00817
7318101917.02949    -14.93862    148.18750    -0.14157    -121.81250    -0.14157    -121.81250    -14.93862    148.18750
7335171566.18413    -15.31061    140.27393    -0.12978    -129.72607    -0.12978    -129.72607    -15.31061    140.27393
7352281030.70697    -15.85960    132.25707    -0.11416    -137.74293    -0.11416    -137.74293    -15.85960    132.25707
7369430403.46832    -16.60280    124.12873    -0.09601    -145.87127    -0.09601    -145.87127    -16.60280    124.12873
7386619777.55508    -17.56634    115.88325    -0.07673    -154.11675    -0.07673    -154.11675    -17.56634    115.88325
7403849246.27131    -18.78910    107.51766    -0.05778    -162.48234    -0.05778    -162.48234    -18.78910    107.51766
7421118903.13870    -20.33035    99.03150    -0.04044    -170.96850    -0.04044    -170.96850    -20.33035    99.03150
7438428841.89710    -22.28556    90.42628    -0.02573    -179.57372    -0.02573    -179.57372    -22.28556    90.42628
7455779156.50501    -24.82354    81.70467    -0.01433    171.70467    -0.01433    171.70467    -24.82354    81.70467
7473169941.14001    -28.29150    72.86944    -0.00644    162.86944    -0.00644    162.86944    -28.29150    72.86944
7490601290.19946    -33.62694    63.92235    -0.00188    153.92235    -0.00188    153.92235    -33.62694    63.92235
7508073298.30084    -46.07072    54.86312    -0.00011    144.86312    -0.00011    144.86312    -46.07072    54.86312
7525586060.28235    -41.34275    -134.31140    -0.00032    135.68860    -0.00032    135.68860    -41.34275    -134.31140
7543139671.20340    -34.24673    -143.60768    -0.00163    126.39232    -0.00163    126.39232    -34.24673    -143.60768
7560734226.34512    -31.29216    -153.03557    -0.00323    116.96443    -0.00323    116.96443    -31.29216    -153.03557
7578369821.21091    -29.88390    -162.60799    -0.00446    107.39201    -0.00446    107.39201    -29.88390    -162.60799
7596046551.52692    -29.40225    -172.34030    -0.00499    97.65970    -0.00499    97.65970    -29.40225    -172.34030
7613764513.24254    -29.62216    177.75041    -0.00474    87.75041    -0.00474    87.75041    -29.62216    177.75041
7631523802.53102    -30.45160    167.64595    -0.00392    77.64595    -0.00392    77.64595    -30.45160    167.64595
7649324515.78994    -31.83866    157.32724    -0.00284    67.32724    -0.00284    67.32724    -31.83866    157.32724
7667166749.64169    -33.68216    146.77395    -0.00186    56.77395    -0.00186    56.77395    -33.68216    146.77395
7685050600.93408    -35.64985    135.96347    -0.00118    45.96347    -0.00118    45.96347    -35.64985    135.96347
7702976166.74076    -36.87964    124.86909    -0.00089    34.86909    -0.00089    34.86909    -36.87964    124.86909
7720943544.36185    -36.15607    113.45802    -0.00105    23.45802    -0.00105    23.45802    -36.15607    113.45802
7738952831.32441    -33.30358    101.68980    -0.00203    11.68980    -0.00203    11.68980    -33.30358    101.68980
7757004125.38301    -29.45185    89.51594    -0.00493    -0.48406    -0.00493    -0.48406    -29.45185    89.51594
7775097524.52020    -25.58728    76.88198    -0.01201    -13.11802    -0.01201    -13.11802    -25.58728    76.88198
7793233126.94709    -22.12352    63.73212    -0.02672    -26.26788    -0.02672    -26.26788    -22.12352    63.73212
7811411031.10390    -19.18315    50.01465    -0.05274    -39.98535    -0.05274    -39.98535    -19.18315    50.01465
7829631335.66039    -16.80414    35.68302    -0.09161    -54.31698    -0.09161    -54.31698    -16.80414    35.68302
7847894139.51653    -15.02835    20.68093    -0.13863    -69.31907    -0.13863    -69.31907    -15.02835    20.68093
7866199541.80297    -13.95763    4.89365    -0.17820    -85.10635    -0.17820    -85.10635    -13.95763    4.89365
7884547641.88156    -13.86176    -11.95855    -0.18226    -101.95855    -0.18226    -101.95855    -13.86176    -11.95855
7902938539.34598    -15.59269    -30.51517    -0.12150    -120.51517    -0.12150    -120.51517    -15.59269    -30.51517
7921372334.02209    -24.18000    -52.06217    -0.01662    -142.06217    -0.01662    -142.06217    -24.18000    -52.06217
7939849125.96871    -16.55180    101.42481    -0.09715    -168.57519    -0.09715    -168.57519    -16.55180    101.42481
7958369015.47800    -6.70914    69.27069    -1.04217    159.27069    -1.04217    159.27069    -6.70914    69.27069
7976932103.07607    -2.54547    36.56551    -3.53091    126.56551    -3.53091    126.56551    -2.54547    36.56551
7995538489.52350    -0.93229    10.08127    -7.14014    100.08127    -7.14014    100.08127    -0.93229    10.08127
8014188275.81591    -0.35689    -9.40649    -11.02970    80.59351    -11.02970    80.59351    -0.35689    -9.40649
8032881563.18447    -0.14619    -23.99665    -14.80163    66.00335    -14.80163    66.00335    -0.14619    -23.99665
8051618453.09653    -0.06382    -35.44722    -18.35986    54.55278    -18.35986    54.55278    -0.06382    -35.44722
8070399047.25601    -0.02943    -44.82584    -21.70483    45.17416    -21.70483    45.17416    -0.02943    -44.82584
8089223447.60415    -0.01421    -52.76194    -24.85763    37.23806    -24.85763    37.23806    -0.01421    -52.76194
8108091756.31994    -0.00715    -59.64135    -27.83885    30.35865    -27.83885    30.35865    -0.00715    -59.64135
8127004075.82071    -0.00373    -65.71325    -30.66370    24.28675    -30.66370    24.28675    -0.00373    -65.71325
8145960508.76271    -0.00201    -71.14687    -33.34160    18.85313    -33.34160    18.85313    -0.00201    -71.14687
8164961158.04154    -0.00112    -76.06224    -35.87671    13.93776    -35.87671    13.93776    -0.00112    -76.06224
8184006126.79290    -0.00065    -80.54773    -38.26891    9.45227    -38.26891    9.45227    -0.00065    -80.54773
8203095518.39303    -0.00039    -84.67041    -40.51471    5.32959    -40.51471    5.32959    -0.00039    -84.67041
8222229436.45929    -0.00024    -88.48252    -42.60852    1.51748    -42.60852    1.51748    -0.00024    -88.48252
8241407984.85075    -0.00015    -92.02560    -44.54393    -2.02560    -44.54393    -2.02560    -0.00015    -92.02560
8260631267.66871    -0.00010    -95.33331    -46.31523    -5.33331    -46.31523    -5.33331    -0.00010    -95.33331
8279899389.25733    -0.00007    -98.43333    -47.91888    -8.43333    -47.91888    -8.43333    -0.00007    -98.43333
8299212454.20406    -0.00005    -101.34874    -49.35477    -11.34874    -49.35477    -11.34874    -0.00005    -101.34874
8318570567.34040    -0.00004    -104.09896    -50.62695    -14.09896    -50.62695    -14.09896    -0.00004    -104.09896
8337973833.74235    -0.00003    -106.70056    -51.74374    -16.70056    -51.74374    -16.70056    -0.00003    -106.70056
8357422358.73096    -0.00002    -109.16774    -52.71726    -19.16774    -52.71726    -19.16774    -0.00002    -109.16774
8376916247.87301    -0.00002    -111.51280    -53.56238    -21.51280    -53.56238    -21.51280    -0.00002    -111.51280
8396455606.98149    -0.00002    -113.74646    -54.29557    -23.74646    -54.29557    -23.74646    -0.00002    -113.74646
8416040542.11613    -0.00001    -115.87810    -54.93368    -25.87810    -54.93368    -25.87810    -0.00001    -115.87810
8435671159.58415    -0.00001    -117.91601    -55.49295    -27.91601    -55.49295    -27.91601    -0.00001    -117.91601
8455347565.94070    -0.00001    -119.86754    -55.98836    -29.86754    -55.98836    -29.86754    -0.00001    -119.86754
8475069867.98945    -0.00001    -121.73921    -56.43324    -31.73921    -56.43324    -31.73921    -0.00001    -121.73921
8494838172.78322    -0.00001    -123.53688    -56.83911    -33.53688    -56.83911    -33.53688    -0.00001    -123.53688
8514652587.62452    -0.00001    -125.26580    -57.21574    -35.26580    -57.21574    -35.26580    -0.00001    -125.26580
8534513220.06617    -0.00001    -126.93069    -57.57126    -36.93069    -57.57126    -36.93069    -0.00001    -126.93069
8554420177.91179    -0.00001    -128.53583    -57.91240    -38.53583    -57.91240    -38.53583    -0.00001    -128.53583
8574373569.21652    -0.00001    -130.08510    -58.24466    -40.08510    -58.24466    -40.08510    -0.00001    -130.08510
8594373502.28753    -0.00001    -131.58203    -58.57256    -41.58203    -58.57256    -41.58203    -0.00001    -131.58203
8614420085.68460    -0.00001    -133.02984    -58.89979    -43.02984    -58.89979    -43.02984    -0.00001    -133.02984
8634513428.22076    -0.00001    -134.43148    -59.22940    -44.43148    -59.22940    -44.43148    -0.00001    -134.43148
8654653638.96285    -0.00000    -135.78965    -59.56394    -45.78965    -59.56394    -45.78965    -0.00000    -135.78965
8674840827.23202    -0.00000    -137.10684    -59.90559    -47.10684    -59.90559    -47.10684    -0.00000    -137.10684
8695075102.60453    -0.00000    -138.38532    -60.25623    -48.38532    -60.25623    -48.38532    -0.00000    -138.38532
8715356574.91218    -0.00000    -139.62721    -60.61756    -49.62721    -60.61756    -49.62721    -0.00000    -139.62721
8735685354.24295    -0.00000    -140.83446    -60.99115    -50.83446    -60.99115    -50.83446    -0.00000    -140.83446
8756061550.94162    -0.00000    -142.00889    -61.37851    -52.00889    -61.37851    -52.00889    -0.00000    -142.00889
8776485275.61035    -0.00000    -143.15218    -61.78115    -53.15218    -61.78115    -53.15218    -0.00000    -143.15218
8796956639.10929    -0.00000    -144.26588    -62.20063    -54.26588    -62.20063    -54.26588    -0.00000    -144.26588
8817475752.55711    -0.00000    -145.35145    -62.63862    -55.35145    -62.63862    -55.35145    -0.00000    -145.35145
8838042727.33175    -0.00000    -146.41025    -63.09692    -56.41025    -63.09692    -56.41025    -0.00000    -146.41025
8858657675.07090    -0.00000    -147.44355    -63.57757    -57.44355    -63.57757    -57.44355    -0.00000    -147.44355
8879320707.67266    -0.00000    -148.45252    -64.08289    -58.45252    -64.08289    -58.45252    -0.00000    -148.45252
8900031937.29613    -0.00000    -149.43830    -64.61554    -59.43830    -64.61554    -59.43830    -0.00000    -149.43830
8920791476.36206    -0.00000    -150.40191    -65.17866    -60.40191    -65.17866    -60.40191    -0.00000    -150.40191
8941599437.55332    -0.00000    -151.34434    -65.77599    -61.34434    -65.77599    -61.34434    -0.00000    -151.34434
8962455933.81573    -0.00000    -152.26650    -66.41202    -62.26650    -66.41202    -62.26650    -0.00000    -152.26650
8983361078.35850    -0.00000    -153.16927    -67.09224    -63.16927    -67.09224    -63.16927    -0.00000    -153.16927
9004314984.65492    -0.00000    -154.05345    -67.82345    -64.05345    -67.82345    -64.05345    -0.00000    -154.05345
9025317766.44296    -0.00000    -154.91983    -68.61420    -64.91983    -68.61420    -64.91983    -0.00000    -154.91983
9046369537.72587    -0.00000    -155.76913    -69.47550    -65.76913    -69.47550    -65.76913    -0.00000    -155.76913
9067470412.77288    -0.00000    -156.60204    -70.42179    -66.60204    -70.42179    -66.60204    -0.00000    -156.60204
9088620506.11963    -0.00000    -157.41921    -71.47256    -67.41921    -71.47256    -67.41921    -0.00000    -157.41921
9109819932.56902    -0.00000    -158.22125    -72.65499    -68.22125    -72.65499    -68.22125    -0.00000    -158.22125
9131068807.19170    -0.00000    -159.00876    -74.00859    -69.00876    -74.00859    -69.00876    -0.00000    -159.00876
9152367245.32673    -0.00000    -159.78228    -75.59401    -69.78228    -75.59401    -69.78228    -0.00000    -159.78228
9173715362.58223    -0.00000    -160.54235    -77.51143    -70.54235    -77.51143    -70.54235    -0.00000    -160.54235
9195113274.83588    -0.00000    -161.28946    -79.94460    -71.28946    -79.94460    -71.28946    -0.00000    -161.28946
9216561098.23575    -0.00000    -162.02410    -83.29101    -72.02410    -83.29101    -72.02410    -0.00000    -162.02410
9238058949.20079    -0.00000    -162.74671    -88.72055    -72.74671    -88.72055    -72.74671    -0.00000    -162.74671
9259606944.42150    -0.00000    -163.45774    -105.71987    -73.45774    -105.71987    -73.45774    -0.00000    -163.45774
9281205200.86056    -0.00000    -164.15758    -91.72167    105.84242    -91.72167    105.84242    -0.00000    -164.15758
9302853835.75348    -0.00000    -164.84664    -84.92822    105.15336    -84.92822    105.15336    -0.00000    -164.84664
9324552966.60923    -0.00000    -165.52529    -81.19767    104.47471    -81.19767    104.47471    -0.00000    -165.52529
9346302711.21087    -0.00000    -166.19390    -78.62161    103.80610    -78.62161    103.80610    -0.00000    -166.19390
9368103187.61613    -0.00000    -166.85279    -76.65719    103.14721    -76.65719    103.14721    -0.00000    -166.85279
9389954514.15820    -0.00000    -167.50231    -75.07242    102.49769    -75.07242    102.49769    -0.00000    -167.50231
9411856809.44624    -0.00000    -168.14276    -73.74642    101.85724    -73.74642    101.85724    -0.00000    -168.14276
9433810192.36609    -0.00000    -168.77446    -72.60815    101.22554    -72.60815    101.22554    -0.00000    -168.77446
9455814782.08091    -0.00000    -169.39767    -71.61229    100.60233    -71.61229    100.60233    -0.00000    -169.39767
9477870698.03172    -0.00000    -170.01270    -70.72816    99.98730    -70.72816    99.98730    -0.00000    -170.01270
9499978059.93823    -0.00000    -170.61979    -69.93399    99.38021    -69.93399    99.38021    -0.00000    -170.61979
9522136987.79938    -0.00000    -171.21920    -69.21380    98.78080    -69.21380    98.78080    -0.00000    -171.21920
9544347601.89400    -0.00000    -171.81119    -68.55551    98.18881    -68.55551    98.18881    -0.00000    -171.81119
9566610022.78147    -0.00000    -172.39597    -67.94974    97.60403    -67.94974    97.60403    -0.00000    -172.39597
9588924371.30239    -0.00000    -172.97380    -67.38910    97.02620    -67.38910    97.02620    -0.00000    -172.97380
9611290768.57925    -0.00000    -173.54487    -66.86763    96.45513    -66.86763    96.45513    -0.00000    -173.54487
9633709336.01696    -0.00000    -174.10940    -66.38047    95.89060    -66.38047    95.89060    -0.00000    -174.10940
9656180195.30371    -0.00000    -174.66759    -65.92360    95.33241    -65.92360    95.33241    -0.00000    -174.66759
9678703468.41150    -0.00000    -175.21963    -65.49365    94.78037    -65.49365    94.78037    -0.00000    -175.21963
9701279277.59683    -0.00000    -175.76573    -65.08779    94.23427    -65.08779    94.23427    -0.00000    -175.76573
9723907745.40140    -0.00000    -176.30604    -64.70359    93.69396    -64.70359    93.69396    -0.00000    -176.30604
9746588994.65264    -0.00000    -176.84076    -64.33897    93.15924    -64.33897    93.15924    -0.00000    -176.84076
9769323148.46459    -0.00000    -177.37005    -63.99214    92.62995    -63.99214    92.62995    -0.00000    -177.37005
9792110330.23841    -0.00000    -177.89407    -63.66152    92.10593    -63.66152    92.10593    -0.00000    -177.89407
9814950663.66309    -0.00000    -178.41297    -63.34572    91.58703    -63.34572    91.58703    -0.00000    -178.41297
9837844272.71615    -0.00000    -178.92692    -63.04355    91.07308    -63.04355    91.07308    -0.00000    -178.92692
9860791281.66427    -0.00000    -179.43606    -62.75393    90.56394    -62.75393    90.56394    -0.00000    -179.43606
9883791815.06399    -0.00000    -179.94054    -62.47589    90.05946    -62.47589    90.05946    -0.00000    -179.94054
9906845997.76243    -0.00000    179.55952    -62.20858    89.55952    -62.20858    89.55952    -0.00000    179.55952
9929953954.89779    -0.00000    179.06398    -61.95123    89.06398    -61.95123    89.06398    -0.00000    179.06398
9953115811.90028    -0.00000    178.57270    -61.70316    88.57270    -61.70316    88.57270    -0.00000    178.57270
9976331694.49265    -0.00000    178.08556    -61.46373    88.08556    -61.46373    88.08556    -0.00000    178.08556
9999601728.69087    -0.00000    177.60245    -61.23238    87.60245    -61.23238    87.60245    -0.00000    177.60245
10022926040.80489    -0.00000    177.12323    -61.00859    87.12323    -61.00859    87.12323    -0.00000    177.12323
10046304757.43927    -0.00000    176.64781    -60.79190    86.64781    -60.79190    86.64781    -0.00000    176.64781
10069738005.49381    -0.00000    176.17606    -60.58186    86.17606    -60.58186    86.17606    -0.00000    176.17606
10093225912.16439    -0.00000    175.70787    -60.37809    85.70787    -60.37809    85.70787    -0.00000    175.70787
10116768604.94356    -0.00000    175.24315    -60.18022    85.24315    -60.18022    85.24315    -0.00000    175.24315
10140366211.62122    -0.00000    174.78180    -59.98792    84.78180    -59.98792    84.78180    -0.00000    174.78180
10164018860.28538    -0.00000    174.32370    -59.80088    84.32370    -59.80088    84.32370    -0.00000    174.32370
10187726679.32283    -0.00000    173.86877    -59.61881    83.86877    -59.61881    83.86877    -0.00000    173.86877
10211489797.41973    -0.00000    173.41692    -59.44145    83.41692    -59.44145    83.41692    -0.00000    173.41692
10235308343.56249    -0.00001    172.96804    -59.26855    82.96804    -59.26855    82.96804    -0.00001    172.96804
10259182447.03838    -0.00001    172.52206    -59.09989    82.52206    -59.09989    82.52206    -0.00001    172.52206
10283112237.43621    -0.00001    172.07888    -58.93525    82.07888    -58.93525    82.07888    -0.00001    172.07888
10307097844.64707    -0.00001    171.63842    -58.77444    81.63842    -58.77444    81.63842    -0.00001    171.63842
10331139398.86505    -0.00001    171.20061    -58.61726    81.20061    -58.61726    81.20061    -0.00001    171.20061
10355237030.58784    -0.00001    170.76535    -58.46354    80.76535    -58.46354    80.76535    -0.00001    170.76535
10379390870.61759    -0.00001    170.33257    -58.31313    80.33257    -58.31313    80.33257    -0.00001    170.33257
10403601050.06154    -0.00001    169.90220    -58.16587    79.90220    -58.16587    79.90220    -0.00001    169.90220
10427867700.33273    -0.00001    169.47416    -58.02161    79.47416    -58.02161    79.47416    -0.00001    169.47416
10452190953.15072    -0.00001    169.04837    -57.88022    79.04837    -57.88022    79.04837    -0.00001    169.04837
10476570940.54233    -0.00001    168.62478    -57.74158    78.62478    -57.74158    78.62478    -0.00001    168.62478
10501007794.84234    -0.00001    168.20330    -57.60556    78.20330    -57.60556    78.20330    -0.00001    168.20330
10525501648.69412    -0.00001    167.78387    -57.47205    77.78387    -57.47205    77.78387    -0.00001    167.78387
10550052635.05054    -0.00001    167.36642    -57.34094    77.36642    -57.34094    77.36642    -0.00001    167.36642
10574660887.17454    -0.00001    166.95089    -57.21214    76.95089    -57.21214    76.95089    -0.00001    166.95089
10599326538.63990    -0.00001    166.53721    -57.08555    76.53721    -57.08555    76.53721    -0.00001    166.53721
10624049723.33197    -0.00001    166.12533    -56.96107    76.12533    -56.96107    76.12533    -0.00001    166.12533
10648830575.44843    -0.00001    165.71518    -56.83863    75.71518    -56.83863    75.71518    -0.00001    165.71518
10673669229.49986    -0.00001    165.30671    -56.71813    75.30671    -56.71813    75.30671    -0.00001    165.30671
10698565820.31070    -0.00001    164.89984    -56.59951    74.89984    -56.59951    74.89984    -0.00001    164.89984
10723520483.01984    -0.00001    164.49454    -56.48269    74.49454    -56.48269    74.49454    -0.00001    164.49454
10748533353.08139    -0.00001    164.09073    -56.36760    74.09073    -56.36760    74.09073    -0.00001    164.09073
10773604566.26540    -0.00001    163.68837    -56.25416    73.68837    -56.25416    73.68837    -0.00001    163.68837
10798734258.65860    -0.00001    163.28740    -56.14233    73.28740    -56.14233    73.28740    -0.00001    163.28740
10823922566.66520    -0.00001    162.88777    -56.03204    72.88777    -56.03204    72.88777    -0.00001    162.88777
10849169627.00746    -0.00001    162.48943    -55.92323    72.48943    -55.92323    72.48943    -0.00001    162.48943
10874475576.72665    -0.00001    162.09232    -55.81585    72.09232    -55.81585    72.09232    -0.00001    162.09232
10899840553.18367    -0.00001    161.69640    -55.70983    71.69640    -55.70983    71.69640    -0.00001    161.69640
10925264694.05980    -0.00001    161.30162    -55.60514    71.30162    -55.60514    71.30162    -0.00001    161.30162
10950748137.35752    -0.00001    160.90792    -55.50173    70.90792    -55.50173    70.90792    -0.00001    160.90792
10976291021.40108    -0.00001    160.51526    -55.39955    70.51526    -55.39955    70.51526    -0.00001    160.51526
11001893484.83748    -0.00001    160.12359    -55.29854    70.12359    -55.29854    70.12359    -0.00001    160.12359
11027555666.63710    -0.00001    159.73287    -55.19869    69.73287    -55.19869    69.73287    -0.00001    159.73287
11053277706.09447    -0.00001    159.34306    -55.09993    69.34306    -55.09993    69.34306    -0.00001    159.34306
11079059742.82900    -0.00001    158.95409    -55.00223    68.95409    -55.00223    68.95409    -0.00001    158.95409
11104901916.78580    -0.00001    158.56594    -54.90556    68.56594    -54.90556    68.56594    -0.00001    158.56594
11130804368.23639    -0.00001    158.17856    -54.80988    68.17856    -54.80988    68.17856    -0.00001    158.17856
11156767237.77951    -0.00001    157.79191    -54.71516    67.79191    -54.71516    67.79191    -0.00001    157.79191
11182790666.34174    -0.00001    157.40594    -54.62135    67.40594    -54.62135    67.40594    -0.00001    157.40594
11208874795.17850    -0.00002    157.02061    -54.52844    67.02061    -54.52844    67.02061    -0.00002    157.02061
11235019765.87463    -0.00002    156.63587    -54.43638    66.63587    -54.43638    66.63587    -0.00002    156.63587
11261225720.34525    -0.00002    156.25170    -54.34515    66.25170    -54.34515    66.25170    -0.00002    156.25170
11287492800.83651    -0.00002    155.86805    -54.25472    65.86805    -54.25472    65.86805    -0.00002    155.86805
11313821149.92626    -0.00002    155.48488    -54.16507    65.48488    -54.16507    65.48488    -0.00002    155.48488
11340210910.52501    -0.00002    155.10215    -54.07616    65.10215    -54.07616    65.10215    -0.00002    155.10215
11366662225.87659    -0.00002    154.71982    -53.98797    64.71982    -53.98797    64.71982    -0.00002    154.71982
11393175239.55895    -0.00002    154.33785    -53.90048    64.33785    -53.90048    64.33785    -0.00002    154.33785
11419750095.48493    -0.00002    153.95621    -53.81366    63.95621    -53.81366    63.95621    -0.00002    153.95621
11446386937.90305    -0.00002    153.57486    -53.72748    63.57486    -53.72748    63.57486    -0.00002    153.57486
11473085911.39835    -0.00002    153.19375    -53.64194    63.19375    -53.64194    63.19375    -0.00002    153.19375
11499847160.89297    -0.00002    152.81286    -53.55699    62.81286    -53.55699    62.81286    -0.00002    152.81286
11526670831.64723    -0.00002    152.43215    -53.47264    62.43215    -53.47264    62.43215    -0.00002    152.43215
11553557069.26022    -0.00002    152.05157    -53.38884    62.05157    -53.38884    62.05157    -0.00002    152.05157
11580506019.67064    -0.00002    151.67111    -53.30559    61.67111    -53.30559    61.67111    -0.00002    151.67111
11607517829.15762    -0.00002    151.29071    -53.22286    61.29071    -53.22286    61.29071    -0.00002    151.29071
11634592644.34149    -0.00002    150.91034    -53.14064    60.91034    -53.14064    60.91034    -0.00002    150.91034
11661730612.18449    -0.00002    150.52997    -53.05891    60.52997    -53.05891    60.52997    -0.00002    150.52997
11688931879.99176    -0.00002    150.14957    -52.97765    60.14957    -52.97765    60.14957    -0.00002    150.14957
11716196595.41199    -0.00002    149.76909    -52.89684    59.76909    -52.89684    59.76909    -0.00002    149.76909
11743524906.43826    -0.00002    149.38851    -52.81648    59.38851    -52.81648    59.38851    -0.00002    149.38851
11770916961.40887    -0.00002    149.00779    -52.73653    59.00779    -52.73653    59.00779    -0.00002    149.00779
11798372909.00809    -0.00002    148.62690    -52.65699    58.62690    -52.65699    58.62690    -0.00002    148.62690
11825892898.26707    -0.00002    148.24580    -52.57784    58.24580    -52.57784    58.24580    -0.00002    148.24580
11853477078.56444    -0.00002    147.86446    -52.49907    57.86446    -52.49907    57.86446    -0.00002    147.86446
11881125599.62738    -0.00002    147.48285    -52.42065    57.48285    -52.42065    57.48285    -0.00002    147.48285
11908838611.53228    -0.00003    147.10092    -52.34259    57.10092    -52.34259    57.10092    -0.00003    147.10092
11936616264.70559    -0.00003    146.71866    -52.26487    56.71866    -52.26487    56.71866    -0.00003    146.71866
11964458709.92463    -0.00003    146.33602    -52.18746    56.33602    -52.18746    56.33602    -0.00003    146.33602
11992366098.31843    -0.00003    145.95298    -52.11036    55.95298    -52.11036    55.95298    -0.00003    145.95298
12020338581.36844    -0.00003    145.56949    -52.03357    55.56949    -52.03357    55.56949    -0.00003    145.56949
12048376310.90956    -0.00003    145.18554    -51.95705    55.18554    -51.95705    55.18554    -0.00003    145.18554
12076479439.13081    -0.00003    144.80107    -51.88081    54.80107    -51.88081    54.80107    -0.00003    144.80107
12104648118.57616    -0.00003    144.41608    -51.80483    54.41608    -51.80483    54.41608    -0.00003    144.41608
12132882502.14545    -0.00003    144.03051    -51.72909    54.03051    -51.72909    54.03051    -0.00003    144.03051
12161182743.09517    -0.00003    143.64433    -51.65360    53.64433    -51.65360    53.64433    -0.00003    143.64433
12189548995.03915    -0.00003    143.25753    -51.57833    53.25753    -51.57833    53.25753    -0.00003    143.25753
12217981411.94967    -0.00003    142.87005    -51.50328    52.87005    -51.50328    52.87005    -0.00003    142.87005
12246480148.15812    -0.00003    142.48188    -51.42844    52.48188    -51.42844    52.48188    -0.00003    142.48188
12275045358.35586    -0.00003    142.09297    -51.35379    52.09297    -51.35379    52.09297    -0.00003    142.09297
12303677197.59507    -0.00003    141.70330    -51.27933    51.70330    -51.27933    51.70330    -0.00003    141.70330
12332375821.28963    -0.00003    141.31283    -51.20504    51.31283    -51.20504    51.31283    -0.00003    141.31283
12361141385.21582    -0.00003    140.92153    -51.13092    50.92153    -51.13092    50.92153    -0.00003    140.92153
12389974045.51338    -0.00003    140.52937    -51.05696    50.52937    -51.05696    50.52937    -0.00003    140.52937
12418873958.68621    -0.00003    140.13631    -50.98315    50.13631    -50.98315    50.13631    -0.00003    140.13631
12447841281.60328    -0.00004    139.74233    -50.90947    49.74233    -50.90947    49.74233    -0.00004    139.74233
12476876171.49942    -0.00004    139.34739    -50.83593    49.34739    -50.83593    49.34739    -0.00004    139.34739
12505978785.97625    -0.00004    138.95146    -50.76250    48.95146    -50.76250    48.95146    -0.00004    138.95146
12535149283.00303    -0.00004    138.55450    -50.68919    48.55450    -50.68919    48.55450    -0.00004    138.55450
12564387820.91736    -0.00004    138.15648    -50.61599    48.15648    -50.61599    48.15648    -0.00004    138.15648
12593694558.42629    -0.00004    137.75737    -50.54288    47.75737    -50.54288    47.75737    -0.00004    137.75737
12623069654.60702    -0.00004    137.35714    -50.46985    47.35714    -50.46985    47.35714    -0.00004    137.35714
12652513268.90780    -0.00004    136.95576    -50.39691    46.95576    -50.39691    46.95576    -0.00004    136.95576
12682025561.14880    -0.00004    136.55318    -50.32404    46.55318    -50.32404    46.55318    -0.00004    136.55318
12711606691.52301    -0.00004    136.14938    -50.25124    46.14938    -50.25124    46.14938    -0.00004    136.14938
12741256820.59695    -0.00004    135.74432    -50.17848    45.74432    -50.17848    45.74432    -0.00004    135.74432
12770976109.31179    -0.00004    135.33797    -50.10578    45.33797    -50.10578    45.33797    -0.00004    135.33797
12800764718.98407    -0.00004    134.93030    -50.03312    44.93030    -50.03312    44.93030    -0.00004    134.93030
12830622811.30659    -0.00004    134.52127    -49.96049    44.52127    -49.96049    44.52127    -0.00004    134.52127
12860550548.34930    -0.00004    134.11085    -49.88789    44.11085    -49.88789    44.11085    -0.00004    134.11085
12890548092.56019    -0.00005    133.69900    -49.81531    43.69900    -49.81531    43.69900    -0.00005    133.69900
12920615606.76622    -0.00005    133.28569    -49.74274    43.28569    -49.74274    43.28569    -0.00005    133.28569
12950753254.17399    -0.00005    132.87088    -49.67018    42.87088    -49.67018    42.87088    -0.00005    132.87088
12980961198.37093    -0.00005    132.45455    -49.59761    42.45455    -49.59761    42.45455    -0.00005    132.45455
13011239603.32600    -0.00005    132.03664    -49.52503    42.03664    -49.52503    42.03664    -0.00005    132.03664
13041588633.39061    -0.00005    131.61714    -49.45244    41.61714    -49.45244    41.61714    -0.00005    131.61714
13072008453.29959    -0.00005    131.19600    -49.37983    41.19600    -49.37983    41.19600    -0.00005    131.19600
13102499228.17185    -0.00005    130.77319    -49.30718    40.77319    -49.30718    40.77319    -0.00005    130.77319
13133061123.51161    -0.00005    130.34867    -49.23450    40.34867    -49.23450    40.34867    -0.00005    130.34867
13163694305.20906    -0.00005    129.92240    -49.16178    39.92240    -49.16178    39.92240    -0.00005    129.92240
13194398939.54137    -0.00005    129.49436    -49.08900    39.49436    -49.08900    39.49436    -0.00005    129.49436
13225175193.17352    -0.00005    129.06449    -49.01617    39.06449    -49.01617    39.06449    -0.00005    129.06449
13256023233.15926    -0.00006    128.63278    -48.94328    38.63278    -48.94328    38.63278    -0.00006    128.63278
13286943226.94198    -0.00006    128.19916    -48.87032    38.19916    -48.87032    38.19916    -0.00006    128.19916
13317935342.35570    -0.00006    127.76362    -48.79728    37.76362    -48.79728    37.76362    -0.00006    127.76362
13348999747.62577    -0.00006    127.32611    -48.72416    37.32611    -48.72416    37.32611    -0.00006    127.32611
13380136611.37008    -0.00006    126.88660    -48.65095    36.88660    -48.65095    36.88660    -0.00006    126.88660
13411346102.59974    -0.00006    126.44504    -48.57764    36.44504    -48.57764    36.44504    -0.00006    126.44504
13442628390.72013    -0.00006    126.00139    -48.50424    36.00139    -48.50424    36.00139    -0.00006    126.00139
13473983645.53181    -0.00006    125.55562    -48.43072    35.55562    -48.43072    35.55562    -0.00006    125.55562
13505412037.23123    -0.00006    125.10769    -48.35709    35.10769    -48.35709    35.10769    -0.00006    125.10769
13536913736.41200    -0.00006    124.65756    -48.28334    34.65756    -48.28334    34.65756    -0.00006    124.65756
13568488914.06559    -0.00007    124.20518    -48.20947    34.20518    -48.20947    34.20518    -0.00007    124.20518
13600137741.58231    -0.00007    123.75052    -48.13546    33.75052    -48.13546    33.75052    -0.00007    123.75052
13631860390.75223    -0.00007    123.29353    -48.06131    33.29353    -48.06131    33.29353    -0.00007    123.29353
13663657033.76615    -0.00007    122.83417    -47.98701    32.83417    -47.98701    32.83417    -0.00007    122.83417
13695527843.21654    -0.00007    122.37241    -47.91256    32.37241    -47.91256    32.37241    -0.00007    122.37241
13727472992.09830    -0.00007    121.90820    -47.83796    31.90820    -47.83796    31.90820    -0.00007    121.90820
13759492653.81000    -0.00007    121.44149    -47.76319    31.44149    -47.76319    31.44149    -0.00007    121.44149
13791587002.15461    -0.00007    120.97224    -47.68824    30.97224    -47.68824    30.97224    -0.00007    120.97224
13823756211.34050    -0.00008    120.50041    -47.61312    30.50041    -47.61312    30.50041    -0.00008    120.50041
13856000455.98238    -0.00008    120.02596    -47.53781    30.02596    -47.53781    30.02596    -0.00008    120.02596
13888319911.10233    -0.00008    119.54884    -47.46231    29.54884    -47.46231    29.54884    -0.00008    119.54884
13920714752.13048    -0.00008    119.06900    -47.38662    29.06900    -47.38662    29.06900    -0.00008    119.06900
13953185154.90635    -0.00008    118.58640    -47.31072    28.58640    -47.31072    28.58640    -0.00008    118.58640
13985731295.67953    -0.00008    118.10099    -47.23461    28.10099    -47.23461    28.10099    -0.00008    118.10099
14018353351.11071    -0.00008    117.61273    -47.15828    27.61273    -47.15828    27.61273    -0.00008    117.61273
14051051498.27269    -0.00009    117.12157    -47.08173    27.12157    -47.08173    27.12157    -0.00009    117.12157
14083825914.65124    -0.00009    116.62747    -47.00495    26.62747    -47.00495    26.62747    -0.00009    116.62747
14116676778.14620    -0.00009    116.13036    -46.92792    26.13036    -46.92792    26.13036    -0.00009    116.13036
14149604267.07223    -0.00009    115.63022    -46.85066    25.63022    -46.85066    25.63022    -0.00009    115.63022
14182608560.16003    -0.00009    115.12698    -46.77314    25.12698    -46.77314    25.12698    -0.00009    115.12698
14215689836.55716    -0.00009    114.62059    -46.69537    24.62059    -46.69537    24.62059    -0.00009    114.62059
14248848275.82905    -0.00009    114.11101    -46.61733    24.11101    -46.61733    24.11101    -0.00009    114.11101
14282084057.95996    -0.00010    113.59819    -46.53901    23.59819    -46.53901    23.59819    -0.00010    113.59819
14315397363.35403    -0.00010    113.08206    -46.46042    23.08206    -46.46042    23.08206    -0.00010    113.08206
14348788372.83604    -0.00010    112.56259    -46.38154    22.56259    -46.38154    22.56259    -0.00010    112.56259
14382257267.65269    -0.00010    112.03972    -46.30236    22.03972    -46.30236    22.03972    -0.00010    112.03972
14415804229.47340    -0.00010    111.51340    -46.22288    21.51340    -46.22288    21.51340    -0.00010    111.51340
14449429440.39136    -0.00011    110.98356    -46.14310    20.98356    -46.14310    20.98356    -0.00011    110.98356
14483133082.92445    -0.00011    110.45016    -46.06299    20.45016    -46.06299    20.45016    -0.00011    110.45016
14516915340.01637    -0.00011    109.91315    -45.98256    19.91315    -45.98256    19.91315    -0.00011    109.91315
14550776395.03737    -0.00011    109.37246    -45.90180    19.37246    -45.90180    19.37246    -0.00011    109.37246
14584716431.78556    -0.00011    108.82803    -45.82069    18.82803    -45.82069    18.82803    -0.00011    108.82803
14618735634.48774    -0.00012    108.27982    -45.73923    18.27982    -45.73923    18.27982    -0.00012    108.27982
14652834187.80039    -0.00012    107.72776    -45.65742    17.72776    -45.65742    17.72776    -0.00012    107.72776
14687012276.81073    -0.00012    107.17180    -45.57524    17.17180    -45.57524    17.17180    -0.00012    107.17180
14721270087.03769    -0.00012    106.61187    -45.49269    16.61187    -45.49269    16.61187    -0.00012    106.61187
14755607804.43298    -0.00012    106.04792    -45.40975    16.04792    -45.40975    16.04792    -0.00012    106.04792
14790025615.38190    -0.00013    105.47988    -45.32642    15.47988    -45.32642    15.47988    -0.00013    105.47988
14824523706.70465    -0.00013    104.90770    -45.24268    14.90770    -45.24268    14.90770    -0.00013    104.90770
14859102265.65712    -0.00013    104.33131    -45.15854    14.33131    -45.15854    14.33131    -0.00013    104.33131
14893761479.93200    -0.00014    103.75064    -45.07397    13.75064    -45.07397    13.75064    -0.00014    103.75064
14928501537.65979    -0.00014    103.16564    -44.98897    13.16564    -44.98897    13.16564    -0.00014    103.16564
14963322627.40984    -0.00014    102.57623    -44.90353    12.57623    -44.90353    12.57623    -0.00014    102.57623
14998224938.19118    -0.00014    101.98236    -44.81764    11.98236    -44.81764    11.98236    -0.00014    101.98236
15033208659.45388    -0.00015    101.38396    -44.73129    11.38396    -44.73129    11.38396    -0.00015    101.38396
15068273981.08986    -0.00015    100.78095    -44.64447    10.78095    -44.64447    10.78095    -0.00015    100.78095
15103421093.43394    -0.00015    100.17328    -44.55716    10.17328    -44.55716    10.17328    -0.00015    100.17328
15138650187.26493    -0.00016    99.56087    -44.46936    9.56087    -44.46936    9.56087    -0.00016    99.56087
15173961453.80669    -0.00016    98.94366    -44.38106    8.94366    -44.38106    8.94366    -0.00016    98.94366
15209355084.72892    -0.00016    98.32157    -44.29223    8.32157    -44.29223    8.32157    -0.00016    98.32157
15244831272.14859    -0.00017    97.69453    -44.20288    7.69453    -44.20288    7.69453    -0.00017    97.69453
15280390208.63071    -0.00017    97.06247    -44.11298    7.06247    -44.11298    7.06247    -0.00017    97.06247
15316032087.18948    -0.00017    96.42532    -44.02253    6.42532    -44.02253    6.42532    -0.00017    96.42532
15351757101.28928    -0.00018    95.78300    -43.93151    5.78300    -43.93151    5.78300    -0.00018    95.78300
15387565444.84577    -0.00018    95.13544    -43.83990    5.13544    -43.83990    5.13544    -0.00018    95.13544
15423457312.22696    -0.00018    94.48257    -43.74770    4.48257    -43.74770    4.48257    -0.00018    94.48257
15459432898.25409    -0.00019    93.82430    -43.65489    3.82430    -43.65489    3.82430    -0.00019    93.82430
15495492398.20297    -0.00019    93.16056    -43.56145    3.16056    -43.56145    3.16056    -0.00019    93.16056
15531636007.80484    -0.00020    92.49126    -43.46738    2.49126    -43.46738    2.49126    -0.00020    92.49126
15567863923.24750    -0.00020    91.81634    -43.37264    1.81634    -43.37264    1.81634    -0.00020    91.81634
15604176341.17636    -0.00020    91.13571    -43.27723    1.13571    -43.27723    1.13571    -0.00020    91.13571
15640573458.69555    -0.00021    90.44929    -43.18113    0.44929    -43.18113    0.44929    -0.00021    90.44929
15677055473.36880    -0.00021    89.75700    -43.08433    -0.24300    -43.08433    -0.24300    -0.00021    89.75700
15713622583.22083    -0.00022    89.05875    -42.98679    -0.94125    -42.98679    -0.94125    -0.00022    89.05875
15750274986.73818    -0.00022    88.35446    -42.88851    -1.64554    -42.88851    -1.64554    -0.00022    88.35446
15787012882.87041    -0.00023    87.64404    -42.78947    -2.35596    -42.78947    -2.35596    -0.00023    87.64404
15823836471.03107    -0.00023    86.92741    -42.68964    -3.07259    -42.68964    -3.07259    -0.00023    86.92741
15860745951.09891    -0.00024    86.20448    -42.58900    -3.79552    -42.58900    -3.79552    -0.00024    86.20448
15897741523.41892    -0.00024    85.47517    -42.48754    -4.52483    -42.48754    -4.52483    -0.00024    85.47517
15934823388.80324    -0.00025    84.73938    -42.38523    -5.26062    -42.38523    -5.26062    -0.00025    84.73938
15971991748.53259    -0.00026    83.99702    -42.28204    -6.00298    -42.28204    -6.00298    -0.00026    83.99702
16009246804.35709    -0.00026    83.24800    -42.17795    -6.75200    -42.17795    -6.75200    -0.00026    83.24800
16046588758.49750    -0.00027    82.49223    -42.07294    -7.50777    -42.07294    -7.50777    -0.00027    82.49223
16084017813.64628    -0.00028    81.72961    -41.96697    -8.27039    -41.96697    -8.27039    -0.00028    81.72961
16121534172.96852    -0.00028    80.96006    -41.86003    -9.03994    -41.86003    -9.03994    -0.00028    80.96006
16159138040.10336    -0.00029    80.18347    -41.75208    -9.81653    -41.75208    -9.81653    -0.00029    80.18347
16196829619.16490    -0.00030    79.39975    -41.64309    -10.60025    -41.64309    -10.60025    -0.00030    79.39975
16234609114.74330    -0.00031    78.60879    -41.53304    -11.39121    -41.53304    -11.39121    -0.00031    78.60879
16272476731.90598    -0.00031    77.81051    -41.42188    -12.18949    -41.42188    -12.18949    -0.00031    77.81051
16310432676.19864    -0.00032    77.00480    -41.30958    -12.99520    -41.30958    -12.99520    -0.00032    77.00480
16348477153.64645    -0.00033    76.19156    -41.19611    -13.80844    -41.19611    -13.80844    -0.00033    76.19156
16386610370.75519    -0.00034    75.37068    -41.08143    -14.62932    -41.08143    -14.62932    -0.00034    75.37068
16424832534.51213    -0.00035    74.54207    -40.96550    -15.45793    -40.96550    -15.45793    -0.00035    74.54207
16463143852.38754    -0.00036    73.70561    -40.84828    -16.29439    -40.84828    -16.29439    -0.00036    73.70561
16501544532.33554    -0.00037    72.86120    -40.72972    -17.13880    -40.72972    -17.13880    -0.00037    72.86120
16540034782.79534    -0.00038    72.00873    -40.60978    -17.99127    -40.60978    -17.99127    -0.00038    72.00873
16578614812.69235    -0.00039    71.14809    -40.48842    -18.85191    -40.48842    -18.85191    -0.00039    71.14809
16617284831.43918    -0.00040    70.27918    -40.36558    -19.72082    -40.36558    -19.72082    -0.00040    70.27918
16656045048.93703    -0.00041    69.40187    -40.24120    -20.59813    -40.24120    -20.59813    -0.00041    69.40187
16694895675.57667    -0.00042    68.51606    -40.11525    -21.48394    -40.11525    -21.48394    -0.00042    68.51606
16733836922.23960    -0.00044    67.62163    -39.98764    -22.37837    -39.98764    -22.37837    -0.00044    67.62163
16772869000.29922    -0.00045    66.71846    -39.85833    -23.28154    -39.85833    -23.28154    -0.00045    66.71846
16811992121.62194    -0.00046    65.80644    -39.72725    -24.19356    -39.72725    -24.19356    -0.00046    65.80644
16851206498.56843    -0.00048    64.88543    -39.59433    -25.11457    -39.59433    -25.11457    -0.00048    64.88543
16890512343.99451    -0.00049    63.95533    -39.45951    -26.04467    -39.45951    -26.04467    -0.00049    63.95533
16929909871.25268    -0.00051    63.01600    -39.32269    -26.98400    -39.32269    -26.98400    -0.00051    63.01600
16969399294.19302    -0.00052    62.06732    -39.18381    -27.93268    -39.18381    -27.93268    -0.00052    62.06732
17008980827.16442    -0.00054    61.10916    -39.04278    -28.89084    -39.04278    -28.89084    -0.00054    61.10916
17048654685.01576    -0.00056    60.14139    -38.89950    -29.85861    -38.89950    -29.85861    -0.00056    60.14139
17088421083.09710    -0.00058    59.16386    -38.75389    -30.83614    -38.75389    -30.83614    -0.00058    59.16386
17128280237.26063    -0.00060    58.17646    -38.60585    -31.82354    -38.60585    -31.82354    -0.00060    58.17646
17168232363.86222    -0.00062    57.17903    -38.45526    -32.82097    -38.45526    -32.82097    -0.00062    57.17903
17208277679.76233    -0.00064    56.17142    -38.30202    -33.82858    -38.30202    -33.82858    -0.00064    56.17142
17248416402.32722    -0.00067    55.15351    -38.14601    -34.84649    -38.14601    -34.84649    -0.00067    55.15351
17288648749.43021    -0.00069    54.12512    -37.98709    -35.87488    -37.98709    -35.87488    -0.00069    54.12512
17328974939.45279    -0.00072    53.08612    -37.82513    -36.91388    -37.82513    -36.91388    -0.00072    53.08612
17369395191.28588    -0.00074    52.03633    -37.66000    -37.96367    -37.66000    -37.96367    -0.00074    52.03633
17409909724.33082    -0.00077    50.97559    -37.49153    -39.02441    -37.49153    -39.02441    -0.00077    50.97559
17450518758.50085    -0.00081    49.90373    -37.31957    -40.09627    -37.31957    -40.09627    -0.00081    49.90373
17491222514.22213    -0.00084    48.82058    -37.14394    -41.17942    -37.14394    -41.17942    -0.00084    48.82058
17532021212.43496    -0.00087    47.72594    -36.96446    -42.27406    -36.96446    -42.27406    -0.00087    47.72594
17572915074.59499    -0.00091    46.61964    -36.78092    -43.38036    -36.78092    -43.38036    -0.00091    46.61964
17613904322.67450    -0.00095    45.50146    -36.59313    -44.49854    -36.59313    -44.49854    -0.00095    45.50146
17654989179.16330    -0.00099    44.37121    -36.40084    -45.62879    -36.40084    -45.62879    -0.00099    44.37121
17696169867.07038    -0.00104    43.22865    -36.20383    -46.77135    -36.20383    -46.77135    -0.00104    43.22865
17737446609.92484    -0.00109    42.07357    -36.00184    -47.92643    -36.00184    -47.92643    -0.00109    42.07357
17778819631.77715    -0.00114    40.90571    -35.79457    -49.09429    -35.79457    -49.09429    -0.00114    40.90571
17820289157.20040    -0.00120    39.72481    -35.58175    -50.27519    -35.58175    -50.27519    -0.00120    39.72481
17861855411.29156    -0.00126    38.53062    -35.36305    -51.46938    -35.36305    -51.46938    -0.00126    38.53062
17903518619.67245    -0.00133    37.32282    -35.13812    -52.67718    -35.13812    -52.67718    -0.00133    37.32282
17945279008.49135    -0.00140    36.10111    -34.90660    -53.89889    -34.90660    -53.89889    -0.00140    36.10111
17987136804.42398    -0.00148    34.86515    -34.66808    -55.13485    -34.66808    -55.13485    -0.00148    34.86515
18029092234.67478    -0.00157    33.61459    -34.42214    -56.38541    -34.42214    -56.38541    -0.00157    33.61459
18071145526.97815    -0.00166    32.34902    -34.16831    -57.65098    -34.16831    -57.65098    -0.00166    32.34902
18113296909.59974    -0.00177    31.06802    -33.90608    -58.93198    -33.90608    -58.93198    -0.00177    31.06802
18155546611.33748    -0.00188    29.77114    -33.63491    -60.22886    -33.63491    -60.22886    -0.00188    29.77114
18197894861.52312    -0.00201    28.45785    -33.35420    -61.54215    -33.35420    -61.54215    -0.00201    28.45785
18240341890.02330    -0.00215    27.12761    -33.06331    -62.87239    -33.06331    -62.87239    -0.00215    27.12761
18282887927.24081    -0.00230    25.77979    -32.76154    -64.22021    -32.76154    -64.22021    -0.00230    25.77979
18325533204.11589    -0.00247    24.41371    -32.44811    -65.58629    -32.44811    -65.58629    -0.00247    24.41371
18368277952.12741    -0.00267    23.02861    -32.12219    -66.97139    -32.12219    -66.97139    -0.00267    23.02861
18411122403.29428    -0.00288    21.62364    -31.78286    -68.37636    -31.78286    -68.37636    -0.00288    21.62364
18454066790.17638    -0.00313    20.19784    -31.42910    -69.80216    -31.42910    -69.80216    -0.00313    20.19784
18497111345.87622    -0.00340    18.75011    -31.05979    -71.24989    -31.05979    -71.24989    -0.00340    18.75011
18540256304.04001    -0.00372    17.27924    -30.67372    -72.72076    -30.67372    -72.72076    -0.00372    17.27924
18583501898.85890    -0.00408    15.78382    -30.26950    -74.21618    -30.26950    -74.21618    -0.00408    15.78382
18626848365.07032    -0.00450    14.26222    -29.84564    -75.73778    -29.84564    -75.73778    -0.00450    14.26222
18670295937.95929    -0.00499    12.71257    -29.40042    -77.28743    -29.40042    -77.28743    -0.00499    12.71257
18713844853.35944    -0.00556    11.13270    -28.93197    -78.86730    -28.93197    -78.86730    -0.00556    11.13270
18757495347.65469    -0.00623    9.52004    -28.43814    -80.47996    -28.43814    -80.47996    -0.00623    9.52004
18801247657.78026    -0.00702    7.87158    -27.91654    -82.12842    -27.91654    -82.12842    -0.00702    7.87158
18845102021.22403    -0.00798    6.18370    -27.36441    -83.81630    -27.36441    -83.81630    -0.00798    6.18370
18889058676.02782    -0.00913    4.45206    -26.77865    -85.54794    -26.77865    -85.54794    -0.00913    4.45206
18933117860.78870    -0.01054    2.67137    -26.15564    -87.32863    -26.15564    -87.32863    -0.01054    2.67137
18977279814.66032    -0.01228    0.83512    -25.49123    -89.16488    -25.49123    -89.16488    -0.01228    0.83512
19021544777.35400    -0.01447    -1.06482    -24.78052    -91.06482    -24.78052    -91.06482    -0.01447    -1.06482
19065912989.14035    -0.01725    -3.03873    -24.01778    -93.03873    -24.01778    -93.03873    -0.01725    -3.03873
19110384690.85037    -0.02086    -5.09987    -23.19612    -95.09987    -23.19612    -95.09987    -0.02086    -5.09987
19154960123.87680    -0.02561    -7.26567    -22.30726    -97.26567    -22.30726    -97.26567    -0.02561    -7.26567
19199639530.17551    -0.03201    -9.55949    -21.34101    -99.55949    -21.34101    -99.55949    -0.03201    -9.55949
19244423152.26653    -0.04087    -12.01355    -20.28471    -102.01355    -20.28471    -102.01355    -0.04087    -12.01355
19289311233.23577    -0.05349    -14.67366    -19.12223    -104.67366    -19.12223    -104.67366    -0.05349    -14.67366
19334304016.73608    -0.07213    -17.60728    -17.83264    -107.60728    -17.83264    -107.60728    -0.07213    -17.60728
19379401746.98865    -0.10093    -20.91824    -16.38809    -110.91824    -16.38809    -110.91824    -0.10093    -20.91824
19424604668.78429    -0.14795    -24.77509    -14.75045    -114.77509    -14.75045    -114.77509    -0.14795    -24.77509
19469913027.48483    -0.23048    -29.46996    -12.86618    -119.46996    -12.86618    -119.46996    -0.23048    -29.46996
19515327069.02438    -0.39015    -35.55217    -10.65914    -125.55217    -10.65914    -125.55217    -0.39015    -35.55217
19560847039.91079    -0.74446    -44.16143    -8.02633    -134.16143    -8.02633    -134.16143    -0.74446    -44.16143
19606473187.22667    -1.70670    -57.90496    -4.88172    -147.90496    -4.88172    -147.90496    -1.70670    -57.90496
19652205758.63117    -5.24276    -82.49759    -1.54304    -172.49759    -1.54304    -172.49759    -5.24276    -82.49759
19698045002.36105    -26.56624    59.01853    -0.00959    149.01853    -0.00959    149.01853    -26.56624    59.01853
19743991167.23206    -5.22659    25.67453    -1.54996    115.67453    -1.54996    115.67453    -5.22659    25.67453
19790044502.64044    -2.39140    6.46533    -3.73229    96.46533    -3.73229    96.46533    -2.39140    6.46533
19836205258.56389    -1.46231    -5.08958    -5.43810    84.91042    -5.43810    84.91042    -1.46231    -5.08958
19882473685.56342    -1.06786    -13.18365    -6.61569    76.81635    -6.61569    76.81635    -1.06786    -13.18365
19928850034.78443    -0.88189    -19.64716    -7.35716    70.35284    -7.35716    70.35284    -0.88189    -19.64716
19975334557.95809    -0.80089    -25.35373    -7.73643    64.64627    -7.73643    64.64627    -0.80089    -25.35373
20021927507.40275    -0.78846    -30.80259    -7.79831    59.19741    -7.79831    59.19741    -0.78846    -30.80259
20068629136.02531    -0.83648    -36.35527    -7.56483    53.64473    -7.56483    53.64473    -0.83648    -36.35527
20115439697.32264    -0.95637    -42.35717    -7.04101    47.64283    -7.04101    47.64283    -0.95637    -42.35717
20162359445.38269    -1.18500    -49.23408    -6.21969    40.76592    -6.21969    40.76592    -1.18500    -49.23408
20209388634.88628    -1.61010    -57.61322    -5.08952    32.38678    -5.08952    32.38678    -1.61010    -57.61322
20256527521.10822    -2.44645    -68.50646    -3.65843    21.49354    -3.65843    21.49354    -2.44645    -68.50646
20303776359.91875    -4.28329    -83.50459    -2.02710    6.49541    -2.02710    6.49541    -4.28329    -83.50459
20351135407.78494    -9.12593    -104.35355    -0.56651    -14.35355    -0.56651    -14.35355    -9.12593    -104.35355
20398604921.77213    -31.31871    49.85638    -0.00321    -40.14361    -0.00321    -40.14361    -31.31871    49.85639
20446185159.54508    -8.36905    25.06538    -0.68328    -64.93462    -0.68328    -64.93462    -8.36905    25.06538
20493876379.36975    -4.31743    5.87549    -2.00692    -84.12451    -2.00692    -84.12451    -4.31743    5.87549
20541678840.11445    -2.71862    -8.13177    -3.32299    -98.13177    -3.32299    -98.13177    -2.71862    -8.13177
20589592801.25132    -1.98124    -18.83898    -4.36149    -108.83898    -4.36149    -108.83898    -1.98124    -18.83898
20637618522.85771    -1.62566    -27.69973    -5.05504    -117.69973    -5.05504    -117.69973    -1.62566    -27.69973
20685756265.61760    -1.47912    -35.66684    -5.39640    -125.66684    -5.39640    -125.66684    -1.47912    -35.66684
20734006290.82311    -1.48284    -43.42564    -5.38726    -133.42564    -5.38726    -133.42564    -1.48284    -43.42564
20782368860.37561    -1.63970    -51.59124    -5.02430    -141.59124    -5.02430    -141.59124    -1.63970    -51.59124
20830844236.78757    -2.01699    -60.88241    -4.30034    -150.88241    -4.30034    -150.88241    -2.01699    -60.88241
20879432683.18370    -2.80798    -72.32429    -3.22250    -162.32429    -3.22250    -162.32429    -2.80798    -72.32429
20928134463.30249    -4.55294    -87.46331    -1.87430    -177.46331    -1.87430    -177.46331    -4.55294    -87.46331
20976949841.49756    -9.07354    -108.11138    -0.57386    161.88862    -0.57386    161.88862    -9.07354    -108.11138
21025879082.73924    -44.92104    46.00458    -0.00014    136.00458    -0.00014    136.00458    -44.92104    46.00458
21074922452.61568    -8.88768    20.13848    -0.60077    110.13848    -0.60077    110.13848    -8.88768    20.13848
21124080217.33476    -4.54251    -0.61814    -1.87995    89.38186    -1.87995    89.38186    -4.54251    -0.61814
21173352643.72519    -2.87966    -16.18695    -3.14499    73.81305    -3.14499    73.81305    -2.87966    -16.18695
21222739999.23810    -2.16372    -28.49050    -4.06288    61.50950    -4.06288    61.50950    -2.16372    -28.49050
21272242551.94843    -1.89169    -39.23736    -4.52090    50.76264    -4.52090    50.76264    -1.89169    -39.23736
21321860570.55649    -1.91957    -49.78211    -4.47029    40.21789    -4.47029    40.21789    -1.91957    -49.78211
21371594324.38913    -2.29300    -61.51437    -3.86998    28.48563    -3.86998    28.48563    -2.29300    -61.51437
21421444083.40162    -3.34069    -76.42502    -2.70328    13.57498    -2.70328    13.57498    -3.34069    -76.42502
21471410118.17884    -6.35351    -97.75922    -1.14386    -7.75922    -1.14386    -7.75922    -6.35351    -97.75922
21521492699.93682    -20.61326    -128.43373    -0.03787    -38.43373    -0.03787    -38.43373    -20.61326    -128.43373
21571692100.52420    -9.00705    17.52125    -0.58334    -72.47875    -0.58334    -72.47875    -9.00705    17.52125
21622008592.42379    -4.18167    -9.51315    -2.08869    -99.51315    -2.08869    -99.51315    -4.18167    -9.51315
21672442448.75375    -2.94898    -30.35322    -3.07250    -120.35322    -3.07250    -120.35322    -2.94898    -30.35322
21722993943.26951    -3.39781    -51.96304    -2.65455    -141.96304    -2.65455    -141.96304    -3.39781    -51.96304
21773663350.36499    -12.18404    -94.52826    -0.27093    175.47174    -0.27093    175.47174    -12.18404    -94.52826
21824450945.07411    -0.09649    -23.28488    -16.58113    66.71512    -16.58113    66.71512    -0.09649    -23.28488
21875357003.07233    -32.60174    40.33647    -0.00239    130.33647    -0.00239    130.33647    -32.60174    40.33647
21926381800.67814    -5.67295    -33.01363    -1.37174    56.98637    -1.37174    56.98637    -5.67295    -33.01363
21977525614.85453    -0.95725    23.15510    -7.03741    -66.84490    -7.03741    -66.84490    -0.95725    23.15510
22028788723.21059    -0.03017    -12.55763    -21.59745    -102.55763    -21.59745    -102.55763    -0.03017    -12.55763
22080171404.00273    -0.00351    -24.55524    -30.92868    -114.55524    -30.92868    -114.55524    -0.00351    -24.55524
22131673936.13661    -0.00079    -31.78694    -37.42933    -121.78694    -37.42933    -121.78694    -0.00079    -31.78694
22183296599.16837    -0.00029    -37.07560    -41.78914    -127.07560    -41.78914    -127.07560    -0.00029    -37.07560
22235039673.30623    -0.00015    -41.32037    -44.51550    -131.32037    -44.51550    -131.32037    -0.00015    -41.32037
22286903439.41208    -0.00011    -44.91679    -46.15073    -134.91679    -46.15073    -134.91679    -0.00011    -44.91679
22338888179.00269    -0.00008    -48.07268    -47.14512    -138.07268    -47.14512    -138.07268    -0.00008    -48.07268
22390994174.25169    -0.00007    -50.91027    -47.79155    -140.91027    -47.79155    -140.91027    -0.00007    -50.91027
22443221707.99084    -0.00006    -53.50729    -48.25503    -143.50729    -48.25503    -143.50729    -0.00006    -53.50729
22495571063.71161    -0.00006    -55.91619    -48.62216    -145.91619    -48.62216    -145.91619    -0.00006    -55.91619
22548042525.56668    -0.00006    -58.17388    -48.93700    -148.17388    -48.93700    -148.17388    -0.00006    -58.17388
22600636378.37158    -0.00005    -60.30735    -49.22159    -150.30735    -49.22159    -150.30735    -0.00005    -60.30735
22653352907.60622    -0.00005    -62.33687    -49.48682    -152.33687    -49.48682    -152.33687    -0.00005    -62.33687
22706192399.41617    -0.00005    -64.27803    -49.73794    -154.27803    -49.73794    -154.27803    -0.00005    -64.27803
22759155140.61468    -0.00004    -66.14308    -49.97736    -156.14308    -49.97736    -156.14308    -0.00004    -66.14308
22812241418.68392    -0.00004    -67.94183    -50.20613    -157.94183    -50.20613    -157.94183    -0.00004    -67.94183
22865451521.77663    -0.00004    -69.68219    -50.42464    -159.68219    -50.42464    -159.68219    -0.00004    -69.68219
22918785738.71772    -0.00004    -71.37072    -50.63298    -161.37072    -50.63298    -161.37072    -0.00004    -71.37072
22972244359.00560    -0.00004    -73.01283    -50.83117    -163.01283    -50.83117    -163.01283    -0.00004    -73.01283
23025827672.81414    -0.00003    -74.61309    -51.01921    -164.61309    -51.01921    -164.61309    -0.00003    -74.61309
23079535970.99398    -0.00003    -76.17537    -51.19713    -166.17537    -51.19713    -166.17537    -0.00003    -76.17537
23133369545.07419    -0.00003    -77.70299    -51.36502    -167.70299    -51.36502    -167.70299    -0.00003    -77.70299
23187328687.26382    -0.00003    -79.19880    -51.52299    -169.19880    -51.52299    -169.19880    -0.00003    -79.19880
23241413690.45352    -0.00003    -80.66530    -51.67122    -170.66530    -51.67122    -170.66530    -0.00003    -80.66530
23295624848.21710    -0.00003    -82.10466    -51.80991    -172.10466    -51.80991    -172.10466    -0.00003    -82.10466
23349962454.81324    -0.00003    -83.51878    -51.93926    -173.51878    -51.93926    -173.51878    -0.00003    -83.51878
23404426805.18671    -0.00003    -84.90938    -52.05952    -174.90938    -52.05952    -174.90938    -0.00003    -84.90938
23459018194.97051    -0.00003    -86.27795    -52.17095    -176.27795    -52.17095    -176.27795    -0.00003    -86.27795
23513736920.48714    -0.00003    -87.62586    -52.27378    -177.62586    -52.27378    -177.62586    -0.00003    -87.62586
23568583278.75025    -0.00003    -88.95431    -52.36827    -178.95431    -52.36827    -178.95431    -0.00003    -88.95431
23623557567.46640    -0.00002    -90.26442    -52.45468    179.73558    -52.45468    179.73558    -0.00002    -90.26442
23678660085.03628    -0.00002    -91.55718    -52.53325    178.44282    -52.53325    178.44282    -0.00002    -91.55718
23733891130.55686    -0.00002    -92.83352    -52.60421    177.16648    -52.60421    177.16648    -0.00002    -92.83352
23789251003.82269    -0.00002    -94.09426    -52.66781    175.90574    -52.66781    175.90574    -0.00002    -94.09426
23844740005.32760    -0.00002    -95.34018    -52.72425    174.65982    -52.72425    174.65982    -0.00002    -95.34018
23900358436.26630    -0.00002    -96.57199    -52.77374    173.42801    -52.77374    173.42801    -0.00002    -96.57199
23956106598.53609    -0.00002    -97.79036    -52.81649    172.20964    -52.81649    172.20964    -0.00002    -97.79036
24011984794.73849    -0.00002    -98.99591    -52.85268    171.00409    -52.85268    171.00409    -0.00002    -98.99591
24067993328.18063    -0.00002    -100.18921    -52.88249    169.81079    -52.88249    169.81079    -0.00002    -100.18921
24124132502.87734    -0.00002    -101.37080    -52.90609    168.62920    -52.90609    168.62920    -0.00002    -101.37080
24180402623.55249    -0.00002    -102.54120    -52.92363    167.45880    -52.92363    167.45880    -0.00002    -102.54120
24236803995.64075    -0.00002    -103.70089    -52.93526    166.29911    -52.93526    166.29911    -0.00002    -103.70089
24293336925.28919    -0.00002    -104.85033    -52.94112    165.14967    -52.94112    165.14967    -0.00002    -104.85033
24350001719.35908    -0.00002    -105.98996    -52.94134    164.01004    -52.94134    164.01004    -0.00002    -105.98996
24406798685.42720    -0.00002    -107.12018    -52.93604    162.87982    -52.93604    162.87982    -0.00002    -107.12018
24463728131.78799    -0.00002    -108.24141    -52.92532    161.75859    -52.92532    161.75859    -0.00002    -108.24141
24520790367.45494    -0.00002    -109.35402    -52.90930    160.64598    -52.90930    160.64598    -0.00002    -109.35402
24577985702.16230    -0.00002    -110.45839    -52.88807    159.54161    -52.88807    159.54161    -0.00002    -110.45839
24635314446.36681    -0.00002    -111.55487    -52.86172    158.44513    -52.86172    158.44513    -0.00002    -111.55487
24692776911.24931    -0.00002    -112.64380    -52.83034    157.35620    -52.83034    157.35620    -0.00002    -112.64380
24750373408.71661    -0.00002    -113.72553    -52.79401    156.27447    -52.79401    156.27447    -0.00002    -113.72553
24808104251.40277    -0.00002    -114.80038    -52.75279    155.19962    -52.75279    155.19962    -0.00002    -114.80038
24865969752.67133    -0.00002    -115.86868    -52.70677    154.13132    -52.70677    154.13132    -0.00002    -115.86868
24923970226.61670    -0.00002    -116.93073    -52.65599    153.06927    -52.65599    153.06927    -0.00002    -116.93073
24982105988.06588    -0.00002    -117.98684    -52.60053    152.01316    -52.60053    152.01316    -0.00002    -117.98684
25040377352.58025    -0.00002    -119.03732    -52.54043    150.96268    -52.54043    150.96268    -0.00002    -119.03732
25098784636.45730    -0.00002    -120.08246    -52.47574    149.91754    -52.47574    149.91754    -0.00002    -120.08246
25157328156.73206    -0.00002    -121.12257    -52.40651    148.87743    -52.40651    148.87743    -0.00002    -121.12257
25216008231.17930    -0.00003    -122.15793    -52.33279    147.84207    -52.33279    147.84207    -0.00003    -122.15793
25274825178.31490    -0.00003    -123.18884    -52.25461    146.81116    -52.25461    146.81116    -0.00003    -123.18884
25333779317.39774    -0.00003    -124.21557    -52.17201    145.78443    -52.17201    145.78443    -0.00003    -124.21557
25392870968.43131    -0.00003    -125.23843    -52.08501    144.76157    -52.08501    144.76157    -0.00003    -125.23843
25452100452.16557    -0.00003    -126.25770    -51.99366    143.74230    -51.99366    143.74230    -0.00003    -126.25770
25511468090.09870    -0.00003    -127.27366    -51.89797    142.72634    -51.89797    142.72634    -0.00003    -127.27366
25570974204.47853    -0.00003    -128.28661    -51.79797    141.71339    -51.79797    141.71339    -0.00003    -128.28661
25630619118.30478    -0.00003    -129.29683    -51.69369    140.70317    -51.69369    140.70317    -0.00003    -129.29683
25690403155.33053    -0.00003    -130.30461    -51.58513    139.69539    -51.58513    139.69539    -0.00003    -130.30461
25750326640.06398    -0.00003    -131.31026    -51.47231    138.68974    -51.47231    138.68974    -0.00003    -131.31026
25810389897.77027    -0.00003    -132.31406    -51.35525    137.68594    -51.35525    137.68594    -0.00003    -132.31406
25870593254.47333    -0.00003    -133.31631    -51.23395    136.68369    -51.23395    136.68369    -0.00003    -133.31631
25930937036.95726    -0.00003    -134.31733    -51.10842    135.68267    -51.10842    135.68267    -0.00003    -134.31733
25991421572.76867    -0.00003    -135.31740    -50.97867    134.68260    -50.97867    134.68260    -0.00003    -135.31740
26052047190.21809    -0.00004    -136.31686    -50.84469    133.68314    -50.84469    133.68314    -0.00004    -136.31686
26112814218.38184    -0.00004    -137.31601    -50.70649    132.68399    -50.70649    132.68399    -0.00004    -137.31601
26173722987.10382    -0.00004    -138.31518    -50.56406    131.68482    -50.56406    131.68482    -0.00004    -138.31518
26234773826.99731    -0.00004    -139.31471    -50.41740    130.68529    -50.41740    130.68529    -0.00004    -139.31471
26295967069.44682    -0.00004    -140.31492    -50.26649    129.68508    -50.26649    129.68508    -0.00004    -140.31492
26357303046.60958    -0.00004    -141.31616    -50.11132    128.68384    -50.11132    128.68384    -0.00004    -141.31616
26418782091.41782    -0.00004    -142.31879    -49.95188    127.68121    -49.95188    127.68121    -0.00004    -142.31879
26480404537.58028    -0.00005    -143.32316    -49.78815    126.67684    -49.78815    126.67684    -0.00005    -143.32316
26542170719.58409    -0.00005    -144.32967    -49.62010    125.67033    -49.62010    125.67033    -0.00005    -144.32967
26604080972.69664    -0.00005    -145.33867    -49.44772    124.66133    -49.44772    124.66133    -0.00005    -145.33867
26666135632.96709    -0.00005    -146.35058    -49.27097    123.64942    -49.27097    123.64942    -0.00005    -146.35058
26728335037.22869    -0.00005    -147.36579    -49.08982    122.63421    -49.08982    122.63421    -0.00005    -147.36579
26790679523.10032    -0.00006    -148.38474    -48.90425    121.61526    -48.90425    121.61526    -0.00006    -148.38474
26853169428.98832    -0.00006    -149.40784    -48.71421    120.59216    -48.71421    120.59216    -0.00006    -149.40784
26915805094.08837    -0.00006    -150.43556    -48.51965    119.56444    -48.51965    119.56444    -0.00006    -150.43556
26978586858.38736    -0.00006    -151.46836    -48.32055    118.53164    -48.32055    118.53164    -0.00006    -151.46836
27041515062.66520    -0.00007    -152.50672    -48.11684    117.49328    -48.11684    117.49328    -0.00007    -152.50672
27104590048.49675    -0.00007    -153.55115    -47.90848    116.44885    -47.90848    116.44885    -0.00007    -153.55115
27167812158.25335    -0.00007    -154.60217    -47.69542    115.39783    -47.69542    115.39783    -0.00007    -154.60217
27231181735.10518    -0.00008    -155.66032    -47.47758    114.33968    -47.47758    114.33968    -0.00008    -155.66032
27294699123.02281    -0.00008    -156.72616    -47.25492    113.27384    -47.25492    113.27384    -0.00008    -156.72616
27358364666.77910    -0.00009    -157.80030    -47.02735    112.19970    -47.02735    112.19970    -0.00009    -157.80030
27422178711.95123    -0.00009    -158.88335    -46.79482    111.11665    -46.79482    111.11665    -0.00009    -158.88335
27486141604.92212    -0.00010    -159.97594    -46.55724    110.02406    -46.55724    110.02406    -0.00010    -159.97594
27550253692.88296    -0.00010    -161.07877    -46.31453    108.92123    -46.31453    108.92123    -0.00010    -161.07877
27614515323.83466    -0.00011    -162.19254    -46.06662    107.80746    -46.06662    107.80746    -0.00011    -162.19254
27678926846.58984    -0.00011    -163.31799    -45.81340    106.68201    -45.81340    106.68201    -0.00011    -163.31799
27743488610.77475    -0.00012    -164.45591    -45.55480    105.54409    -45.55480    105.54409    -0.00012    -164.45591
27808200966.83116    -0.00013    -165.60710    -45.29070    104.39290    -45.29070    104.39290    -0.00013    -165.60710
27873064266.01833    -0.00014    -166.77244    -45.02101    103.22756    -45.02101    103.22756    -0.00014    -166.77244
27938078860.41454    -0.00015    -167.95284    -44.74562    102.04716    -44.74562    102.04716    -0.00015    -167.95284
28003245102.91964    -0.00016    -169.14925    -44.46441    100.85075    -44.46441    100.85075    -0.00016    -169.14925
28068563347.25648    -0.00017    -170.36269    -44.17727    99.63731    -44.17727    99.63731    -0.00017    -170.36269
28134033947.97300    -0.00018    -171.59422    -43.88407    98.40578    -43.88407    98.40578    -0.00018    -171.59422
28199657260.44424    -0.00019    -172.84497    -43.58469    97.15503    -43.58469    97.15503    -0.00019    -172.84497
28265433640.87383    -0.00020    -174.11615    -43.27899    95.88385    -43.27899    95.88385    -0.00020    -174.11615
28331363446.29659    -0.00022    -175.40901    -42.96684    94.59099    -42.96684    94.59099    -0.00022    -175.40901
28397447034.58001    -0.00024    -176.72490    -42.64809    93.27510    -42.64809    93.27510    -0.00024    -176.72490
28463684764.42632    -0.00025    -178.06526    -42.32260    91.93474    -42.32260    91.93474    -0.00025    -178.06526
28530076995.37444    -0.00027    -179.43158    -41.99020    90.56842    -41.99020    90.56842    -0.00027    -179.43158
28596624087.80189    -0.00030    179.17452    -41.65075    89.17452    -41.65075    89.17452    -0.00030    179.17452
28663326402.92683    -0.00032    177.75131    -41.30407    87.75131    -41.30407    87.75131    -0.00032    177.75131
28730184302.81004    -0.00035    176.29698    -40.95001    86.29698    -40.95001    86.29698    -0.00035    176.29698
28797198150.35650    -0.00038    174.80958    -40.58839    84.80958    -40.58839    84.80958    -0.00038    174.80958
28864368309.31802    -0.00041    173.28704    -40.21904    83.28704    -40.21904    83.28704    -0.00041    173.28704
28931695144.29473    -0.00045    171.72712    -39.84178    81.72712    -39.84178    81.72712    -0.00045    171.72712
28999179020.73721    -0.00049    170.12748    -39.45643    80.12748    -39.45643    80.12748    -0.00049    170.12748
29066820304.94858    -0.00054    168.48557    -39.06282    78.48557    -39.06282    78.48557    -0.00054    168.48557
29134619364.08604    -0.00059    166.79868    -38.66075    76.79868    -38.66075    76.79868    -0.00059    166.79868
29202576566.16352    -0.00065    165.06391    -38.25005    75.06391    -38.25005    75.06391    -0.00065    165.06391
29270692280.05323    -0.00072    163.27817    -37.83054    73.27817    -37.83054    73.27817    -0.00072    163.27817
29338966875.48780    -0.00079    161.43811    -37.40204    71.43811    -37.40204    71.43811    -0.00079    161.43811
29407400723.06227    -0.00087    159.54017    -36.96439    69.54017    -36.96439    69.54017    -0.00087    159.54017
29475994194.23608    -0.00097    157.58054    -36.51743    67.58054    -36.51743    67.58054    -0.00097    157.58054
29544747661.33524    -0.00108    155.55511    -36.06101    65.55511    -36.06101    65.55511    -0.00108    155.55511
29613661497.55389    -0.00120    153.45950    -35.59499    63.45950    -35.59499    63.45950    -0.00120    153.45950
29682736076.95698    -0.00134    151.28899    -35.11927    61.28899    -35.11927    61.28899    -0.00134    151.28899
29751971774.48185    -0.00149    149.03855    -34.63375    59.03855    -34.63375    59.03855    -0.00149    149.03855
29821368965.94042    -0.00168    146.70279    -34.13837    56.70279    -34.13837    56.70279    -0.00168    146.70279
29890928028.02116    -0.00188    144.27594    -33.63312    54.27594    -33.63312    54.27594    -0.00188    144.27594
29960649338.29133    -0.00212    141.75185    -33.11800    51.75185    -33.11800    51.75185    -0.00212    141.75185
30030533275.19852    -0.00239    139.12398    -32.59310    49.12398    -32.59310    49.12398    -0.00239    139.12398
30100580218.07338    -0.00270    136.38536    -32.05856    46.38536    -32.05856    46.38536    -0.00270    136.38536
30170790547.13128    -0.00307    133.52862    -31.51459    43.52862    -31.51459    43.52862    -0.00307    133.52862
30241164643.47441    -0.00348    130.54598    -30.96148    40.54598    -30.96148    40.54598    -0.00348    130.54598
30311702889.09392    -0.00396    127.42927    -30.39966    37.42927    -30.39966    37.42927    -0.00396    127.42927
30382405666.87195    -0.00452    124.16999    -29.82965    34.16999    -29.82965    34.16999    -0.00452    124.16999
30453273360.58384    -0.00516    120.75931    -29.25212    30.75931    -29.25212    30.75931    -0.00516    120.75931
30524306354.89977    -0.00591    117.18819    -28.66790    27.18819    -28.66790    27.18819    -0.00591    117.18819
30595505035.38749    -0.00677    113.44747    -28.07799    23.44747    -28.07799    23.44747    -0.00677    113.44747
30666869788.51398    -0.00776    109.52805    -27.48361    19.52805    -27.48361    19.52805    -0.00776    109.52805
30738401001.64768    -0.00890    105.42102    -26.88619    15.42102    -26.88619    15.42102    -0.00890    105.42102
30810099063.06057    -0.01022    101.11795    -26.28740    11.11795    -26.28740    11.11795    -0.01022    101.11795
30881964361.93040    -0.01173    96.61114    -25.68917    6.61114    -25.68917    6.61114    -0.01173    96.61114
30953997288.34234    -0.01346    91.89401    -25.09370    1.89401    -25.09370    1.89401    -0.01346    91.89401
31026198233.29179    -0.01542    86.96149    -24.50343    -3.03851    -24.50343    -3.03851    -0.01542    86.96149
31098567588.68604    -0.01764    81.81048    -23.92107    -8.18952    -23.92107    -8.18952    -0.01764    81.81048
31171105747.34650    -0.02013    76.44034    -23.34954    -13.55966    -23.34954    -13.55966    -0.02013    76.44034
31243813103.01088    -0.02289    70.85340    -22.79191    -19.14660    -22.79191    -19.14660    -0.02289    70.85340
31316690050.33525    -0.02594    65.05546    -22.25136    -24.94454    -22.25136    -24.94454    -0.02594    65.05546
31389736984.89638    -0.02925    59.05617    -21.73105    -30.94383    -21.73105    -30.94383    -0.02925    59.05617
31462954303.19335    -0.03281    52.86938    -21.23403    -37.13062    -21.23403    -37.13062    -0.03281    52.86938
31536342402.65046    -0.03659    46.51326    -20.76305    -43.48674    -20.76305    -43.48674    -0.03659    46.51326
31609901681.61887    -0.04053    40.01019    -20.32045    -49.98981    -20.32045    -49.98981    -0.04053    40.01019
31683632539.37893    -0.04459    33.38645    -19.90797    -56.61355    -19.90797    -56.61355    -0.04459    33.38645
31757535376.14242    -0.04870    26.67156    -19.52659    -63.32844    -19.52659    -63.32844    -0.04870    26.67156
31831610593.05428    -0.05282    19.89742    -19.17643    -70.10258    -19.17643    -70.10258    -0.05282    19.89742
31905858592.19548    -0.05688    13.09726    -18.85660    -76.90274    -18.85660    -76.90274    -0.05688    13.09726
31980279776.58472    -0.06086    6.30435    -18.56516    -83.69565    -18.56516    -83.69565    -0.06086    6.30435
32054874550.18079    -0.06473    -0.44918    -18.29911    -90.44918    -18.29911    -90.44918    -0.06473    -0.44918
32129643317.88469    -0.06851    -7.13357    -18.05435    -97.13357    -18.05435    -97.13357    -0.06851    -7.13357
32204586485.54187    -0.07225    -13.72253    -17.82580    -103.72253    -17.82580    -103.72253    -0.07225    -13.72253
32279704459.94442    -0.07600    -20.19406    -17.60741    -110.19406    -17.60741    -110.19406    -0.07600    -20.19406
32354997648.83341    -0.07990    -26.53114    -17.39223    -116.53114    -17.39223    -116.53114    -0.07990    -26.53114
32430466460.90063    -0.08409    -32.72218    -17.17247    -122.72218    -17.17247    -122.72218    -0.08409    -32.72218
32506111305.79148    -0.08877    -38.76134    -16.93952    -128.76134    -16.93952    -128.76134    -0.08877    -38.76134
32581932594.10677    -0.09421    -44.64882    -16.68386    -134.64882    -16.68386    -134.64882    -0.09421    -44.64882
32657930737.40504    -0.10077    -50.39114    -16.39500    -140.39114    -16.39500    -140.39114    -0.10077    -50.39114
32734106148.20493    -0.10892    -56.00173    -16.06122    -146.00173    -16.06122    -146.00173    -0.10892    -56.00173
32810459239.98690    -0.11935    -61.50198    -15.66924    -151.50198    -15.66924    -151.50198    -0.11935    -61.50198
32886990427.19627    -0.13306    -66.92313    -15.20363    -156.92313    -15.20363    -156.92313    -0.13306    -66.92313
32963700125.24491    -0.15161    -72.30968    -14.64608    -162.30968    -14.64608    -162.30968    -0.15161    -72.30968
33040588750.51365    -0.17751    -77.72556    -13.97410    -167.72556    -13.97410    -167.72556    -0.17751    -77.72556
33117656720.35455    -0.21507    -83.26548    -13.15917    -173.26548    -13.15917    -173.26548    -0.21507    -83.26548
33194904453.09315    -0.27223    -89.07671    -12.16382    -179.07671    -12.16382    -179.07671    -0.27223    -89.07671
33272332368.03085    -0.36492    -95.40364    -10.93704    174.59636    -10.93704    174.59636    -0.36492    -95.40364
33349940885.44675    -0.52870    -102.68617    -9.40745    167.31383    -9.40745    167.31383    -0.52870    -102.68617
33427730426.60060    -0.85564    -111.79855    -7.47575    158.20145    -7.47575    158.20145    -0.85564    -111.79855
33505701413.73462    -1.63814    -124.67952    -5.02769    145.32048    -5.02769    145.32048    -1.63814    -124.67952
33583854270.07595    -4.12252    -145.85874    -2.12563    124.14126    -2.12563    124.14126    -4.12252    -145.85874
33662189419.83902    -19.21660    178.24101    -0.05233    88.24101    -0.05233    88.24101    -19.21660    178.24101
33740707288.22738    -6.24856    -40.90116    -1.17598    49.09884    -1.17598    49.09884    -6.24856    -40.90116
33819408301.43676    -2.32873    -65.39992    -3.81911    24.60008    -3.81911    24.60008    -2.32873    -65.39992
33898292886.65686    -1.22154    -79.67759    -6.10523    10.32241    -6.10523    10.32241    -1.22154    -79.67759
33977361472.07382    -0.79268    -89.26732    -7.77716    0.73268    -7.77716    0.73268    -0.79268    -89.26732
34056614486.87255    -0.59823    -96.64471    -8.90487    -6.64471    -8.90487    -6.64471    -0.59823    -96.64471
34136052361.23902    -0.50989    -102.94952    -9.55552    -12.94952    -9.55552    -12.94952    -0.50989    -102.94952
34215675526.36262    -0.48539    -108.82441    -9.75741    -18.82441    -9.75741    -18.82441    -0.48539    -108.82441
34295484414.43865    -0.51693    -114.76646    -9.49946    -24.76646    -9.49946    -24.76646    -0.51693    -114.76646
34375479458.67011    -0.62501    -121.35332    -8.72775    -31.35332    -8.72775    -31.35332    -0.62501    -121.35332
34455661093.27086    -0.88740    -129.56574    -7.33277    -39.56574    -7.33277    -39.56574    -0.88740    -129.56574
34536029753.46742    -1.58759    -141.62005    -5.14009    -51.62005    -5.14009    -51.62005    -1.58759    -141.62005
34616585875.50152    -4.17239    -163.53347    -2.09443    -73.53347    -2.09443    -73.53347    -4.17239    -163.53347
34697329896.63251    -39.35286    -25.98176    -0.00050    -115.98176    -0.00050    -115.98176    -39.35286    -25.98176
34778262255.13935    -3.87142    -68.79825    -2.29199    -158.79825    -2.29199    -158.79825    -3.87142    -68.79825
34859383390.32361    -1.40603    -90.96919    -5.58195    179.03081    -5.58195    179.03081    -1.40603    -90.96919
34940693742.51144    -0.75715    -103.09019    -7.95912    166.90981    -7.95912    166.90981    -0.75715    -103.09019
35022193753.05608    -0.52677    -111.35666    -9.42233    158.64334    -9.42233    158.64334    -0.52677    -111.35666
35103883864.34022    -0.44881    -118.14995    -10.07972    151.85005    -10.07972    151.85005    -0.44881    -118.14995
35185764519.77840    -0.46499    -124.74643    -9.93384    145.25357    -9.93384    145.25357    -0.46499    -124.74643
35267836163.81958    -0.60699    -132.46217    -8.84602    137.53783    -8.84602    137.53783    -0.60699    -132.46217
35350099241.94905    -1.11568    -144.16416    -6.44834    125.83584    -6.44834    125.83584    -1.11568    -144.16416
35432554200.69154    -4.04004    -170.91893    -2.17852    99.08107    -2.17852    99.08107    -4.04004    -170.91893
35515201487.61322    -7.60189    -58.42155    -0.82865    31.57845    -0.82865    31.57845    -7.60189    -58.42155
35598041551.32420    -1.09587    -99.71512    -6.51669    -9.71512    -6.51669    -9.71512    -1.09587    -99.71512
35681074841.48099    -0.86179    -107.41314    -7.44761    -17.41314    -7.44761    -17.41314    -0.86179    -107.41314
35764301808.78906    -0.38562    -121.42966    -10.70765    -31.42966    -10.70765    -31.42966    -0.38562    -121.42966
35847722905.00478    -0.38768    -130.33965    -10.68549    -40.33965    -10.68549    -40.33965    -0.38768    -130.33965
35931338582.93863    -0.73850    -143.12684    -8.05837    -53.12684    -8.05837    -53.12684    -0.73850    -143.12684
36015149296.45717    -6.62612    172.04407    -1.06496    -97.95593    -1.06496    -97.95593    -6.62612    172.04407
36099155500.48559    -1.32153    -102.15947    -5.81109    167.84053    -5.81109    167.84053    -1.32153    -102.15947
36183357651.01022    -0.87873    -123.96279    -7.37127    146.03721    -7.37127    146.03721    -0.87873    -123.96279
36267756205.08100    -1.80357    -76.36833    -4.68713    13.63167    -4.68713    13.63167    -1.80357    -76.36833
36352351620.81406    -0.01625    -115.28514    -24.27740    -25.28514    -24.27740    -25.28514    -0.01625    -115.28514
36437144357.39370    -0.00107    -122.30956    -36.06878    -32.30956    -36.06878    -32.30956    -0.00107    -122.30956
36522134875.07569    -0.00006    -126.28404    -48.31884    -36.28404    -48.31884    -36.28404    -0.00006    -126.28404
36607323635.18923    -0.00000    -129.18450    -66.38172    140.81550    -66.38172    140.81550    -0.00000    -129.18450
36692711100.13956    -0.00002    -131.53970    -52.65349    138.46030    -52.65349    138.46030    -0.00002    -131.53970
36778297733.41051    -0.00004    -133.56449    -49.87293    136.43551    -49.87293    136.43551    -0.00004    -133.56449
36864083999.56712    -0.00006    -135.36686    -48.73507    134.63314    -48.73507    134.63314    -0.00006    -135.36686
36950070364.25763    -0.00007    -137.00863    -48.17645    132.99137    -48.17645    132.99137    -0.00007    -137.00863
37036257294.21684    -0.00007    -138.52851    -47.87378    131.47149    -47.87378    131.47149    -0.00007    -138.52851
37122645257.26808    -0.00007    -139.95234    -47.69718    130.04766    -47.69718    130.04766    -0.00007    -139.95234
37209234722.32587    -0.00008    -141.29828    -47.58653    128.70172    -47.58653    128.70172    -0.00008    -141.29828
37296026159.39851    -0.00008    -142.57959    -47.51153    127.42041    -47.51153    127.42041    -0.00008    -142.57959
37383020039.59059    -0.00008    -143.80628    -47.45602    126.19372    -47.45602    126.19372    -0.00008    -143.80628
37470216835.10570    -0.00008    -144.98612    -47.41101    125.01388    -47.41101    125.01388    -0.00008    -144.98612
37557617019.24845    -0.00008    -146.12526    -47.37138    123.87474    -47.37138    123.87474    -0.00008    -146.12526
37645221066.42786    -0.00008    -147.22869    -47.33410    122.77131    -47.33410    122.77131    -0.00008    -147.22869
37733029452.15938    -0.00008    -148.30052    -47.29738    121.69948    -47.29738    121.69948    -0.00008    -148.30052
37821042653.06760    -0.00008    -149.34417    -47.26012    120.65583    -47.26012    120.65583    -0.00008    -149.34417
37909261146.88899    -0.00008    -150.36257    -47.22165    119.63743    -47.22165    119.63743    -0.00008    -150.36257
37997685412.47396    -0.00008    -151.35820    -47.18154    118.64180    -47.18154    118.64180    -0.00008    -151.35820
38086315929.79025    -0.00008    -152.33324    -47.13951    117.66676    -47.13951    117.66676    -0.00008    -152.33324
38175153179.92497    -0.00008    -153.28959    -47.09539    116.71041    -47.09539    116.71041    -0.00008    -153.28959
38264197645.08743    -0.00009    -154.22891    -47.04903    115.77109    -47.04903    115.77109    -0.00009    -154.22891
38353449808.61166    -0.00009    -155.15272    -47.00034    114.84728    -47.00034    114.84728    -0.00009    -155.15272
38442910154.95911    -0.00009    -156.06236    -46.94924    113.93764    -46.94924    113.93764    -0.00009    -156.06236
38532579169.72122    -0.00009    -156.95906    -46.89566    113.04094    -46.89566    113.04094    -0.00009    -156.95906
38622457339.62225    -0.00009    -157.84393    -46.83954    112.15607    -46.83954    112.15607    -0.00009    -157.84393
38712545152.52132    -0.00009    -158.71800    -46.78080    111.28200    -46.78080    111.28200    -0.00009    -158.71800
38802843097.41592    -0.00009    -159.58223    -46.71939    110.41777    -46.71939    110.41777    -0.00009    -159.58223
38893351664.44399    -0.00009    -160.43749    -46.65524    109.56251    -46.65524    109.56251    -0.00009    -160.43749
38984071344.88674    -0.00010    -161.28462    -46.58827    108.71538    -46.58827    108.71538    -0.00010    -161.28462
39075002631.17143    -0.00010    -162.12440    -46.51841    107.87560    -46.51841    107.87560    -0.00010    -162.12440
39166146016.87352    -0.00010    -162.95757    -46.44557    107.04243    -46.44557    107.04243    -0.00010    -162.95757
39257501996.72015    -0.00010    -163.78485    -46.36968    106.21515    -46.36968    106.21515    -0.00010    -163.78485
39349071066.59229    -0.00010    -164.60692    -46.29062    105.39308    -46.29062    105.39308    -0.00010    -164.60692
39440853723.52755    -0.00010    -165.42444    -46.20831    104.57556    -46.20831    104.57556    -0.00010    -165.42444
39532850465.72292    -0.00011    -166.23805    -46.12263    103.76195    -46.12263    103.76195    -0.00011    -166.23805
39625061792.53741    -0.00011    -167.04837    -46.03346    102.95163    -46.03346    102.95163    -0.00011    -167.04837
39717488204.49499    -0.00011    -167.85602    -45.94068    102.14398    -45.94068    102.14398    -0.00011    -167.85602
39810130203.28664    -0.00011    -168.66161    -45.84415    101.33839    -45.84415    101.33839    -0.00011    -168.66161
39902988291.77398    -0.00012    -169.46575    -45.74371    100.53425    -45.74371    100.53425    -0.00012    -169.46575
39996062973.99145    -0.00012    -170.26904    -45.63922    99.73096    -45.63922    99.73096    -0.00012    -170.26904
40089354755.14914    -0.00012    -171.07209    -45.53048    98.92791    -45.53048    98.92791    -0.00012    -171.07209
40182864141.63571    -0.00012    -171.87553    -45.41731    98.12447    -45.41731    98.12447    -0.00012    -171.87553
40276591641.02055    -0.00013    -172.67998    -45.29950    97.32002    -45.29950    97.32002    -0.00013    -172.67998
40370537762.05740    -0.00013    -173.48608    -45.17682    96.51392    -45.17682    96.51392    -0.00013    -173.48608
40464703014.68652    -0.00014    -174.29451    -45.04903    95.70549    -45.04903    95.70549    -0.00014    -174.29451
40559087910.03765    -0.00014    -175.10595    -44.91586    94.89405    -44.91586    94.89405    -0.00014    -175.10595
40653692960.43272    -0.00014    -175.92111    -44.77700    94.07889    -44.77700    94.07889    -0.00014    -175.92111
40748518679.38869    -0.00015    -176.74074    -44.63213    93.25926    -44.63213    93.25926    -0.00015    -176.74074
40843565581.62028    -0.00015    -177.56564    -44.48090    92.43436    -44.48090    92.43436    -0.00015    -177.56564
40938834183.04283    -0.00016    -178.39663    -44.32290    91.60337    -44.32290    91.60337    -0.00016    -178.39663
41034325000.77519    -0.00017    -179.23461    -44.15772    90.76539    -44.15772    90.76539    -0.00017    -179.23461
41130038553.14197    -0.00017    179.91949    -43.98486    89.91949    -43.98486    89.91949    -0.00017    179.91949
41225975359.67721    -0.00018    179.06463    -43.80381    89.06463    -43.80381    89.06463    -0.00018    179.06463
41322135941.12665    -0.00019    178.19973    -43.61397    88.19973    -43.61397    88.19973    -0.00019    178.19973
41418520819.45067    -0.00020    177.32360    -43.41470    87.32360    -43.41470    87.32360    -0.00020    177.32360
41515130517.82729    -0.00021    176.43493    -43.20527    86.43493    -43.20527    86.43493    -0.00021    176.43493
41611965560.65440    -0.00022    175.53230    -42.98490    85.53230    -42.98490    85.53230    -0.00022    175.53230
41709026473.55351    -0.00023    174.61416    -42.75268    84.61416    -42.75268    84.61416    -0.00023    174.61416
41806313783.37202    -0.00024    173.67877    -42.50762    83.67877    -42.50762    83.67877    -0.00024    173.67877
41903828018.18619    -0.00026    172.72421    -42.24860    82.72421    -42.24860    82.72421    -0.00026    172.72421
42001569707.30405    -0.00028    171.74833    -41.97438    81.74833    -41.97438    81.74833    -0.00028    171.74833
42099539381.26825    -0.00029    170.74873    -41.68355    80.74873    -41.68355    80.74873    -0.00029    170.74873
42197737571.85909    -0.00032    169.72269    -41.37453    79.72269    -41.37453    79.72269    -0.00032    169.72269
42296164812.09679    -0.00034    168.66711    -41.04555    78.66711    -41.04555    78.66711    -0.00034    168.66711
42394821636.24535    -0.00037    167.57848    -40.69459    77.57848    -40.69459    77.57848    -0.00037    167.57848
42493708579.81477    -0.00040    166.45275    -40.31938    76.45275    -40.31938    76.45275    -0.00040    166.45275
42592826179.56415    -0.00044    165.28525    -39.91736    75.28525    -39.91736    75.28525    -0.00044    165.28525
42692174973.50473    -0.00049    164.07055    -39.48559    74.07055    -39.48559    74.07055    -0.00049    164.07055
42791755500.90224    -0.00054    162.80227    -39.02073    72.80227    -39.02073    72.80227    -0.00054    162.80227
42891568302.28072    -0.00061    161.47291    -38.51900    71.47291    -38.51900    71.47291    -0.00061    161.47291
42991613919.42480    -0.00069    160.07355    -37.97604    70.07355    -37.97604    70.07355    -0.00069    160.07355
43091892895.38289    -0.00079    158.59345    -37.38687    68.59345    -37.38687    68.59345    -0.00079    158.59345
43192405774.47003    -0.00092    157.01967    -36.74579    67.01967    -36.74579    67.01967    -0.00092    157.01967
43293153102.27094    -0.00108    155.33631    -36.04620    65.33631    -36.04620    65.33631    -0.00108    155.33631
43394135425.64287    -0.00129    153.52378    -35.28051    63.52378    -35.28051    63.52378    -0.00129    153.52378
43495353292.71881    -0.00156    151.55750    -34.43991    61.55750    -34.43991    61.55750    -0.00156    151.55750
43596807252.90983    -0.00193    149.40631    -33.51416    59.40631    -33.51416    59.40631    -0.00193    149.40631
43698497856.90897    -0.00245    147.03011    -32.49133    57.03011    -32.49133    57.03011    -0.00245    147.03011
43800425656.69360    -0.00318    144.37635    -31.35744    54.37635    -31.35744    54.37635    -0.00318    144.37635
43902591205.52878    -0.00425    141.37502    -30.09602    51.37502    -30.09602    51.37502    -0.00425    141.37502
44004995057.96959    -0.00588    137.93074    -28.68764    47.93074    -28.68764    47.93074    -0.00588    137.93074
44107637769.86508    -0.00846    133.91063    -27.10930    43.91063    -27.10930    43.91063    -0.00846    133.91063
44210519898.36070    -0.01274    129.12460    -25.33387    39.12460    -25.33387    39.12460    -0.01274    129.12460
44313642001.90144    -0.02022    123.29290    -23.32991    33.29290    -23.32991    33.29290    -0.02022    123.29290
44417004640.23487    -0.03414    115.99135    -21.06287    25.99135    -21.06287    25.99135    -0.03414    115.99135
44520608374.41420    -0.06178    106.55895    -18.50056    16.55895    -18.50056    16.55895    -0.06178    106.55895
44624453766.80130    -0.12041    93.95149    -15.63138    3.95149    -15.63138    3.95149    -0.12041    93.95149
44728541381.06992    -0.25038    76.57180    -12.51639    -13.42820    -12.51639    -13.42820    -0.25038    76.57180
44832871782.20813    -0.52828    52.37835    -9.41063    -37.62165    -9.41063    -37.62165    -0.52828    52.37835
44937445536.52231    -0.98947    20.24041    -6.90916    -69.75959    -6.90916    -69.75959    -0.98947    20.24041
45042263211.63962    -1.34076    -17.37451    -5.75749    -107.37451    -5.75749    -107.37451    -1.34076    -17.37451
45147325376.51119    -1.17884    -54.68459    -6.23938    -144.68459    -6.23938    -144.68459    -1.17884    -54.68459
45252632601.41545    -0.75204    -86.44535    -7.98601    -176.44535    -7.98601    -176.44535    -0.75204    -86.44535
45358185457.96051    -0.42484    -110.64021    -10.30626    159.35979    -10.30626    159.35979    -0.42484    -110.64021
45463984519.08825    -0.24253    -128.25853    -12.65081    141.74147    -12.65081    141.74147    -0.24253    -128.25853
45570030359.07679    -0.14745    -141.16982    -14.76481    128.83018    -14.76481    128.83018    -0.14745    -141.16982
45676323553.54378    -0.09660    -150.90910    -16.57629    119.09090    -16.57629    119.09090    -0.09660    -150.90910
45782864679.44950    -0.06799    -158.51178    -18.08748    111.48822    -18.08748    111.48822    -0.06799    -158.51178
45889654315.10001    -0.05105    -164.64569    -19.32333    105.35431    -19.32333    105.35431    -0.05105    -164.64569
45996693040.15045    -0.04061    -169.74480    -20.31199    100.25520    -20.31199    100.25520    -0.04061    -169.74480
46103981435.60752    -0.03401    -174.09842    -21.07824    95.90158    -21.07824    95.90158    -0.03401    -174.09842
46211520083.83362    -0.02986    -177.90585    -21.64168    92.09415    -21.64168    92.09415    -0.02986    -177.90585
46319309568.54938    -0.02739    178.69055    -22.01620    88.69055    -22.01620    88.69055    -0.02739    178.69055
46427350474.83694    -0.02619    175.58470    -22.20998    85.58470    -22.20998    85.58470    -0.02619    175.58470
46535643389.14336    -0.02610    172.69332    -22.22503    82.69332    -22.22503    82.69332    -0.02610    172.69332
46644188899.28308    -0.02713    169.94608    -22.05640    79.94608    -22.05640    79.94608    -0.02713    169.94608
46752987594.44215    -0.02953    167.27729    -21.69029    77.27729    -21.69029    77.27729    -0.02953    167.27729
46862040065.18072    -0.03384    164.61621    -21.10063    74.61621    -21.10063    74.61621    -0.03384    164.61621
46971346903.43645    -0.04127    161.87224    -20.24244    71.87224    -20.24244    71.87224    -0.04127    161.87224
47080908702.52769    -0.05453    158.90427    -19.03845    68.90427    -19.03845    68.90427    -0.05453    158.90427
47190726057.15677    -0.08070    155.44216    -17.34917    65.44216    -17.34917    65.44216    -0.08070    155.44216
47300799563.41312    -0.14301    150.82940    -14.89559    60.82940    -14.89559    60.82940    -0.14301    150.82940
47411129818.77676    -0.35871    142.81448    -11.00852    52.81448    -11.00852    52.81448    -0.35871    142.81448
47521717422.12083    -2.41515    116.35073    -3.70015    26.35073    -3.70015    26.35073    -2.41515    116.35073
47632562973.71587    -2.19272    -165.92451    -4.01834    -75.92451    -4.01834    -75.92451    -2.19272    -165.92451
47743667075.23241    -0.30591    168.03099    -11.67392    -101.96901    -11.67392    -101.96901    -0.30591    168.03099
47855030329.74435    -0.11381    159.92749    -15.87285    -110.07251    -15.87285    -110.07251    -0.11381    159.92749
47966653341.73248    -0.06139    155.08324    -18.52776    -114.91676    -18.52776    -114.91676    -0.06139    155.08324
48078536717.08705    -0.04143    151.25138    -20.22520    -118.74862    -20.22520    -118.74862    -0.04143    151.25138
48190681063.11205    -0.03356    147.72862    -21.13662    -122.27138    -21.13662    -122.27138    -0.03356    147.72862
48303086988.52784    -0.03266    144.14721    -21.25343    -125.85279    -21.25343    -125.85279    -0.03266    144.14721
48415755103.47469    -0.03936    140.16554    -20.44714    -129.83446    -20.44714    -129.83446    -0.03936    140.16554
48528686019.51597    -0.06232    135.22428    -18.46291    -134.77572    -18.46291    -134.77572    -0.06232    135.22428
48641880349.64159    -0.14594    127.86102    -14.80889    -142.13898    -14.80889    -142.13898    -0.14594    127.86102
48755338708.27125    -0.70256    111.45386    -8.25756    -158.54614    -8.25756    -158.54614    -0.70256    111.45386
48869061711.25797    -17.49688    -148.29213    -0.07798    121.70787    -0.07798    121.70787    -17.49688    -148.29213
48983049975.89075    -1.18309    152.67964    -6.22579    62.67964    -6.22579    62.67964    -1.18309    152.67964
49097304120.89893    -0.64145    137.33270    -8.62300    47.33270    -8.62300    47.33270    -0.64145    137.33270
49211824766.45493    -0.67583    126.23374    -8.41301    36.23374    -8.41301    36.23374    -0.67583    126.23374
49326612534.17785    -1.16374    112.28232    -6.28815    22.28232    -6.28815    22.28232    -1.16374    112.28232
49441668047.13625    -3.96304    84.35653    -2.22943    -5.64347    -2.22943    -5.64347    -3.96304    84.35653
49556991929.85251    -8.40300    -163.50764    -0.67752    -73.50764    -0.67752    -73.50764    -8.40300    -163.50764
49672584808.30556    -0.67527    144.27397    -8.41634    -125.72603    -8.41634    -125.72603    -0.67527    144.27397
49788447309.93446    -0.64282    91.90851    -8.61439    1.90851    -8.61439    1.90851    -0.64282    91.90851
49904580063.64175    -5.54258    160.81439    -1.42118    -109.18561    -1.42118    -109.18561    -5.54258    160.81439
50020983699.79692    -2.69747    129.43699    -3.34742    -140.56301    -3.34742    -140.56301    -2.69747    129.43699
50137658850.23981    -3.17881    105.58267    -2.84808    -164.41733    -2.84808    -164.41733    -3.17881    105.58267
50254606148.28406    -7.49166    69.38307    -0.85218    159.38307    -0.85218    159.38307    -7.49166    69.38307
50371826228.72066    -0.55677    132.74489    -9.19649    42.74489    -9.19649    42.74489    -0.55677    132.74489
50489319727.82079    -9.49747    0.48472    -0.51718    90.48472    -0.51718    90.48472    -9.49747    0.48472
50607087283.34023    -3.97949    -76.35726    -2.21843    13.64274    -2.21843    13.64274    -3.97949    -76.35726
50725129534.52220    -0.42050    -137.18399    -10.34870    -47.18399    -10.34870    -47.18399    -0.42050    -137.18399
50843447122.10114    -0.05569    -164.60498    -18.94751    -74.60498    -18.94751    -74.60498    -0.05569    -164.60498
50962040688.30544    -0.01019    -179.05600    -26.30033    -89.05600    -26.30033    -89.05600    -0.01019    -179.05600
51080910876.86211    -0.00221    171.67873    -32.93921    -98.32127    -32.93921    -98.32127    -0.00221    171.67873
51200058332.99945    -0.00049    164.97888    -39.46311    -105.02112    -39.46311    -105.02112    -0.00049    164.97888
51319483703.45078    -0.00009    159.74248    -46.75971    -110.25752    -46.75971    -110.25752    -0.00009    159.74248
51439187636.45792    -0.00001    155.42250    -57.83524    -114.57750    -57.83524    -114.57750    -0.00001    155.42250
51559170781.77476    -0.00000    151.71427    -63.78213    61.71427    -63.78213    61.71427    -0.00000    151.71427
51679433790.67075    -0.00001    148.43344    -54.69300    58.43344    -54.69300    58.43344    -0.00001    148.43344
51799977315.93442    -0.00003    145.46116    -51.60012    55.46116    -51.60012    55.46116    -0.00003    145.46116
51920802011.87715    -0.00004    142.71694    -49.93378    52.71694    -49.93378    52.71694    -0.00004    142.71694
52041908534.33597    -0.00006    140.14401    -48.85163    50.14401    -48.85163    50.14401    -0.00006    140.14401
52163297540.67819    -0.00007    137.70093    -48.05582    47.70093    -48.05582    47.70093    -0.00007    137.70093
52284969689.80431    -0.00008    135.35656    -47.41295    45.35656    -47.41295    45.35656    -0.00008    135.35656
52406925642.15184    -0.00009    133.08689    -46.85550    43.08689    -46.85550    43.08689    -0.00009    133.08689
52529166059.69830    -0.00010    130.87296    -46.34686    40.87296    -46.34686    40.87296    -0.00010    130.87296
52651691605.96580    -0.00011    128.69947    -45.86628    38.69947    -45.86628    38.69947    -0.00011    128.69947
52774502946.02396    -0.00013    126.55384    -45.40171    36.55384    -45.40171    36.55384    -0.00013    126.55384
52897600746.49367    -0.00014    124.42551    -44.94607    34.42551    -44.94607    34.42551    -0.00014    124.42551
53020985675.55076    -0.00015    122.30544    -44.49514    32.30544    -44.49514    32.30544    -0.00015    122.30544
53144658402.92958    -0.00017    120.18581    -44.04643    30.18581    -44.04643    30.18581    -0.00017    120.18581
53268619599.92666    -0.00019    118.05968    -43.59844    28.05968    -43.59844    28.05968    -0.00019    118.05968
53392869939.40434    -0.00021    115.92081    -43.15026    25.92081    -43.15026    25.92081    -0.00021    115.92081
53517410095.79459    -0.00023    113.76354    -42.70134    23.76354    -42.70134    23.76354    -0.00023    113.76354
53642240745.10201    -0.00026    111.58261    -42.25133    21.58261    -42.25133    21.58261    -0.00026    111.58261
53767362564.90849    -0.00029    109.37309    -41.79996    19.37309    -41.79996    19.37309    -0.00029    109.37309
53892776234.37624    -0.00032    107.13032    -41.34705    17.13032    -41.34705    17.13032    -0.00032    107.13032
54018482434.25165    -0.00035    104.84981    -40.89242    14.84981    -40.89242    14.84981    -0.00035    104.84981
54144481846.86913    -0.00039    102.52723    -40.43591    12.52723    -40.43591    12.52723    -0.00039    102.52723
54270775156.15408    -0.00044    100.15834    -39.97736    10.15834    -39.97736    10.15834    -0.00044    100.15834
54397363047.62778    -0.00049    97.73898    -39.51660    7.73898    -39.51660    7.73898    -0.00049    97.73898
54524246208.41025    -0.00054    95.26501    -39.05346    5.26501    -39.05346    5.26501    -0.00054    95.26501
54651425327.22429    -0.00060    92.73234    -38.58780    2.73234    -38.58780    2.73234    -0.00060    92.73234
54778901094.39915    -0.00067    90.13689    -38.11944    0.13689    -38.11944    0.13689    -0.00067    90.13689
54906674201.87427    -0.00075    87.47455    -37.64824    -2.52545    -37.64824    -2.52545    -0.00075    87.47455
55034745343.20308    -0.00083    84.74125    -37.17406    -5.25875    -37.17406    -5.25875    -0.00083    84.74125
55163115213.55692    -0.00093    81.93288    -36.69678    -8.06712    -36.69678    -8.06712    -0.00093    81.93288
55291784509.72806    -0.00104    79.04536    -36.21630    -10.95464    -36.21630    -10.95464    -0.00104    79.04536
55420753930.13461    -0.00116    76.07460    -35.73255    -13.92540    -35.73255    -13.92540    -0.00116    76.07460
55550024174.82362    -0.00130    73.01653    -35.24546    -16.98347    -35.24546    -16.98347    -0.00130    73.01653
55679595945.47495    -0.00145    69.86715    -34.75502    -20.13285    -34.75502    -20.13285    -0.00145    69.86715
55809469945.40538    -0.00163    66.62253    -34.26125    -23.37747    -34.26125    -23.37747    -0.00163    66.62253
55939646879.57161    -0.00183    63.27882    -33.76418    -26.72118    -33.76418    -26.72118    -0.00183    63.27882
56070127454.57524    -0.00205    59.83234    -33.26390    -30.16766    -33.26390    -30.16766    -0.00205    59.83234
56200912378.66584    -0.00230    56.27959    -32.76052    -33.72041    -32.76052    -33.72041    -0.00230    56.27959
56332002361.74499    -0.00259    52.61733    -32.25419    -37.38267    -32.25419    -37.38267    -0.00259    52.61733
56463398115.37014    -0.00291    48.84258    -31.74510    -41.15742    -31.74510    -41.15742    -0.00291    48.84258
56595100352.75846    -0.00327    44.95278    -31.23344    -45.04722    -31.23344    -45.04722    -0.00327    44.95278
56727109788.79092    -0.00368    40.94576    -30.71944    -49.05424    -30.71944    -49.05424    -0.00368    40.94576
56859427140.01536    -0.00415    36.81988    -30.20335    -53.18012    -30.20335    -53.18012    -0.00415    36.81988
56992053124.65158    -0.00467    32.57407    -29.68539    -57.42593    -29.68539    -57.42593    -0.00467    32.57407
57124988462.59447    -0.00527    28.20793    -29.16579    -61.79207    -29.16579    -61.79207    -0.00527    28.20793
57258233875.41808    -0.00594    23.72173    -28.64472    -66.27827    -28.64472    -66.27827    -0.00594    23.72173
57391790086.37972    -0.00670    19.11656    -28.12232    -70.88344    -28.12232    -70.88344    -0.00670    19.11656
57525657820.42316    -0.00756    14.39428    -27.59861    -75.60572    -27.59861    -75.60572    -0.00756    14.39428
57659837804.18369    -0.00853    9.55759    -27.07351    -80.44241    -27.07351    -80.44241    -0.00853    9.55759
57794330765.99130    -0.00963    4.61001    -26.54678    -85.38999    -26.54678    -85.38999    -0.00963    4.61001
57929137435.87485    -0.01088    -0.44415    -26.01799    -90.44415    -26.01799    -90.44415    -0.01088    -0.44415
58064258545.56596    -0.01230    -5.59989    -25.48644    -95.59989    -25.48644    -95.59989    -0.01230    -5.59989
58199694828.50309    -0.01391    -10.85164    -24.95115    -100.85164    -24.95115    -100.85164    -0.01391    -10.85164
58335447019.83542    -0.01576    -16.19341    -24.41080    -106.19341    -24.41080    -106.19341    -0.01576    -16.19341
58471515856.42712    -0.01788    -21.61904    -23.86362    -111.61904    -23.86362    -111.61904    -0.01788    -21.61904
58607902076.86045    -0.02033    -27.12248    -23.30740    -117.12248    -23.30740    -117.12248    -0.02033    -27.12248
58744606421.44110    -0.02317    -32.69815    -22.73934    -122.69815    -22.73934    -122.69815    -0.02317    -32.69815
58881629632.20132    -0.02652    -38.34137    -22.15598    -128.34137    -22.15598    -128.34137    -0.02652    -38.34137
59018972452.90414    -0.03048    -44.04893    -21.55312    -134.04893    -21.55312    -134.04893    -0.03048    -44.04893
59156635629.04768    -0.03524    -49.81969    -20.92566    -139.81969    -20.92566    -139.81969    -0.03524    -49.81969
59294619907.86830    -0.04103    -55.65548    -20.26744    -145.65548    -20.26744    -145.65548    -0.04103    -55.65548
59432926038.34596    -0.04821    -61.56218    -19.57098    -151.56218    -19.57098    -151.56218    -0.04821    -61.56218
59571554771.20740    -0.05727    -67.55124    -18.82722    -157.55124    -18.82722    -157.55124    -0.05727    -67.55124
59710506858.93046    -0.06898    -73.64193    -18.02505    -163.64193    -18.02505    -163.64193    -0.06898    -73.64193
59849783055.74815    -0.08452    -79.86462    -17.15069    -169.86462    -17.15069    -169.86462    -0.08452    -79.86462
59989384117.65274    -0.10578    -86.26624    -16.18677    -176.26624    -16.18677    -176.26624    -0.10578    -86.26624
60129310802.40011    -0.13598    -92.91935    -15.11097    177.08065    -15.11097    177.08065    -0.13598    -92.91935
60269563869.51295    -0.18089    -99.93858    -13.89389    170.06142    -13.89389    170.06142    -0.18089    -99.93858
60410144080.28621    -0.25160    -107.51203    -12.49588    162.48797    -12.49588    162.48797    -0.25160    -107.51203
60551052197.79036    -0.37153    -115.96620    -10.86233    154.03380    -10.86233    154.03380    -0.37153    -115.96620
60692288986.87577    -0.59629    -125.91175    -8.91799    144.08825    -8.91799    144.08825    -0.59629    -125.91175
60833855214.17703    -1.08102    -138.59825    -6.56879    131.40175    -6.56879    131.40175    -1.08102    -138.59825
60975751648.11630    -2.36467    -156.78428    -3.76895    113.21572    -3.76895    113.21572    -2.36467    -156.78428
61117979058.90874    -7.01300    174.13809    -0.96329    84.13809    -0.96329    84.13809    -7.01300    174.13809
61260538218.56583    -17.15442    -46.50036    -0.08444    43.49964    -0.08444    43.49964    -17.15442    -46.50036
61403429900.89980    -4.61069    -81.02105    -1.84346    8.97895    -1.84346    8.97895    -4.61069    -81.02105
61546654881.52780    -2.15514    -103.16654    -4.07619    -13.16654    -4.07619    -13.16654    -2.15514    -103.16654
61690213937.87616    -1.31295    -118.61936    -5.83531    -28.61936    -5.83531    -28.61936    -1.31295    -118.61936
61834107849.18453    -0.95771    -131.17910    -7.03555    -41.17910    -7.03555    -41.17910    -0.95771    -131.17910
61978337396.51041    -0.80553    -142.72375    -7.71355    -52.72375    -7.71355    -52.72375    -0.80553    -142.72375
62122903362.73246    -0.77258    -154.40006    -7.87896    -64.40006    -7.87896    -64.40006    -0.77258    -154.40006
62267806532.55608    -0.85137    -167.23792    -7.49540    -77.23792    -7.49540    -77.23792    -0.85137    -167.23792
62413047692.51682    -1.10478    177.40174    -6.48576    -92.59826    -6.48576    -92.59826    -1.10478    177.40174
62558627630.98479    -1.75714    157.23710    -4.77876    -112.76290    -4.77876    -112.76290    -1.75714    157.23710
62704547138.16927    -3.55501    128.44035    -2.52636    -141.55965    -2.52636    -141.55965    -3.55501    128.44035
62850807006.12203    -8.76108    88.04766    -0.61987    178.04766    -0.61987    178.04766    -8.76108    88.04766
62997408028.74300    -22.35755    42.15170    -0.02531    132.15170    -0.02531    132.15170    -22.35755    42.15170
63144351001.78365    -22.74575    -3.93021    -0.02314    86.06979    -0.02314    86.06979    -22.74575    -3.93021
63291636722.85159    -7.93924    -55.37985    -0.76094    34.62015    -0.76094    34.62015    -7.93924    -55.37985
63439265991.41485    -2.37571    -106.06842    -3.75374    -16.06842    -3.75374    -16.06842    -2.37571    -106.06842
63587239608.80625    -0.66175    -146.72343    -8.49757    -56.72343    -8.49757    -56.72343    -0.66175    -146.72343
63735558378.22796    -0.07842    176.04019    -17.47253    -93.95981    -17.47253    -93.95981    -0.07842    176.04019
63884223104.75496    -0.16262    131.19853    -14.34719    41.19853    -14.34719    41.19853    -0.16262    131.19853
64033234595.34076    -2.09716    71.94463    -4.16799    -18.05537    -4.16799    -18.05537    -2.09716    71.94463
64182593658.82089    -5.35483    12.71528    -1.49610    -77.28472    -1.49610    -77.28472    -5.35483    12.71528
64332301105.91751    -6.07598    -37.94945    -1.23108    -127.94945    -1.23108    -127.94945    -6.07598    -37.94945
64482357749.24403    -4.88824    -87.90818    -1.70356    -177.90818    -1.70356    -177.90818    -4.88824    -87.90818
64632764403.30862    -1.70419    -164.10359    -4.88692    105.89641    -4.88692    105.89641    -1.70419    -164.10359
64783521884.51999    -1.21857    48.23530    -6.11438    138.23530    -6.11438    138.23530    -1.21857    48.23530
64934631011.19092    -0.52535    -22.56883    -9.43336    67.43117    -9.43336    67.43117    -0.52535    -22.56883
65086092603.54292    -0.12318    -59.47655    -15.53379    30.52345    -15.53379    30.52345    -0.12318    -59.47655
65237907483.71069    -0.03199    -81.68254    -21.34387    8.31746    -21.34387    8.31746    -0.03199    -81.68254
65390076475.74658    -0.00933    -97.06881    -26.68377    -7.06881    -26.68377    -7.06881    -0.00933    -97.06881
65542600405.62505    -0.00291    -108.82489    -31.74290    -18.82489    -31.74290    -18.82489    -0.00291    -108.82489
65695480101.24743    -0.00091    -118.41316    -36.77913    -28.41316    -36.77913    -28.41316    -0.00091    -118.41316
65848716392.44540    -0.00026    -126.59981    -42.18176    -36.59981    -42.18176    -36.59981    -0.00026    -126.59981
66002310110.98700    -0.00006    -133.83095    -48.82851    -43.83095    -48.82851    -43.83095    -0.00006    -133.83095
66156262090.58010    -0.00000    -140.38838    -60.81972    -50.38838    -60.81972    -50.38838    -0.00000    -140.38838
66310573166.87726    -0.00000    -146.46209    -60.43296    123.53791    -60.43296    123.53791    -0.00000    -146.46209
66465244177.48042    -0.00002    -152.18728    -52.71581    117.81272    -52.71581    117.81272    -0.00002    -152.18728
66620275961.94456    -0.00005    -157.66495    -49.40711    112.33505    -49.40711    112.33505    -0.00005    -157.66495
66775669361.78366    -0.00008    -162.97385    -47.32744    107.02615    -47.32744    107.02615    -0.00008    -162.97385
66931425220.47427    -0.00012    -168.17801    -45.76575    101.82199    -45.76575    101.82199    -0.00012    -168.17801
67087544383.46043    -0.00016    -173.33160    -44.45271    96.66840    -44.45271    96.66840    -0.00016    -173.33160
67244027698.15815    -0.00020    -178.48215    -43.26285    91.51785    -43.26285    91.51785    -0.00020    -178.48215
67400876013.96008    -0.00027    176.32709    -42.13166    86.32709    -42.13166    86.32709    -0.00027    176.32709
67558090182.24033    -0.00034    171.05554    -41.02454    81.05554    -41.02454    81.05554    -0.00034    171.05554
67715671056.35816    -0.00044    165.66411    -39.92300    75.66411    -39.92300    75.66411    -0.00044    165.66411
67873619491.66401    -0.00057    160.11429    -38.81777    70.11429    -38.81777    70.11429    -0.00057    160.11429
68031936345.50321    -0.00074    154.36763    -37.70508    64.36763    -37.70508    64.36763    -0.00074    154.36763
68190622477.22088    -0.00095    148.38542    -36.58466    58.38542    -36.58466    58.38542    -0.00095    148.38542
68349678748.16680    -0.00124    142.12866    -35.45861    52.12866    -35.45861    52.12866    -0.00124    142.12866
68509106021.69918    -0.00160    135.55846    -34.33081    45.55846    -34.33081    45.55846    -0.00160    135.55846
68668905163.19072    -0.00208    128.63684    -33.20668    38.63684    -33.20668    38.63684    -0.00208    128.63684
68829077040.03242    -0.00268    121.32809    -32.09311    31.32809    -32.09311    31.32809    -0.00268    121.32809
68989622521.63846    -0.00345    113.60082    -30.99848    23.60082    -30.99848    23.60082    -0.00345    113.60082
69150542479.45094    -0.00441    105.43074    -29.93269    15.43074    -29.93269    15.43074    -0.00441    105.43074
69311837786.94469    -0.00559    96.80412    -28.90708    6.80412    -28.90708    6.80412    -0.00559    96.80412
69473509319.63184    -0.00699    87.72187    -27.93424    -2.27813    -27.93424    -2.27813    -0.00699    87.72187
69635557955.06700    -0.00862    78.20358    -27.02751    -11.79642    -27.02751    -11.79642    -0.00862    78.20358
69797984572.85092    -0.01043    68.29098    -26.20027    -21.70902    -26.20027    -21.70902    -0.01043    68.29098
69960790054.63678    -0.01236    58.04980    -25.46489    -31.95020    -25.46489    -31.95020    -0.01236    58.04980
70123975284.13402    -0.01430    47.56891    -24.83156    -42.43109    -24.83156    -42.43109    -0.01430    47.56891
70287541147.11330    -0.01614    36.95643    -24.30713    -53.04357    -24.30713    -53.04357    -0.01614    36.95643
70451488531.41168    -0.01775    26.33251    -23.89415    -63.66749    -23.89415    -63.66749    -0.01775    26.33251
70615818326.93631    -0.01904    15.82010    -23.59046    -74.17990    -23.59046    -74.17990    -0.01904    15.82010
70780531425.67085    -0.01995    5.53515    -23.38928    -84.46485    -23.38928    -84.46485    -0.01995    5.53515
70945628721.67928    -0.02046    -4.42180    -23.27990    -94.42180    -23.27990    -94.42180    -0.02046    -4.42180
71111111111.11101    -0.02060    -13.97137    -23.24874    -103.97137    -23.24874    -103.97137    -0.02060    -13.97137
