! Touchstone file exported from HFSS 3D Layout Design 2026.1.0
!        File:           D:/Work/ADS/HFSS_VERDICT/hfss_sma_connector_cpw.aedt
!        Generated:      02:10:17 PM Aug  6, 2026
!        Design:         SINGLE_END_SMA_CPW_30MM
!        Project:        hfss_sma_connector_cpw
!
! Variables:
!        $sma_Base_D = 6.25mm
!        $sma_Base_L = 8mm
!        $sma_Feet_L = 4mm
!        $sma_Feet_W = 1mm
!        $sma_Front_L = 1.5mm
!        $sma_Front_W = 6.5mm
!        $sma_Hole_D = 1.25mm
!        $sma_PTFE_D = 4.2mm
!        $sma_Pin_D = 0.95mm
!        $sma_Pin_P = 1.7mm
!
# GHz S MA R 50.000000
! Terminal data exported
! Port[1] = Port1
! Port[2] = S1_1_Pin_T1
0.5                            0.0774180136089542 -131.976797469825 0.986951928618557 -41.774507785049 0.986951928618557 -41.774507785049 0.0777423179411102 -133.405198314052 
0.6                            0.0898805792830384 -140.374822110101 0.984301029588404 -50.0218786375566 0.984301029588406 -50.0218786375569 0.0901767930270288 -141.893798439763 
0.7                            0.10094827942043 -148.749223786714 0.98172128034314 -58.2443598198572 0.981721280343141 -58.2443598198575 0.101178944321806 -150.238088404559 
0.8                            0.110500659346305 -157.132517674096 0.979252199450839 -66.4454590472799 0.97925219945084 -66.4454590472802 0.110632377880491 -158.442280497011 
0.9                            0.118439540815856 -165.553258151589 0.976929883282939 -74.6281922415782 0.97692988328294 -74.6281922415784 0.118445477903673 -166.501428143725 
1                              0.124691050063348 -174.039912817173 0.974787746390791 -82.7955950027152 0.974787746390791 -82.7955950027153 0.124553147711553 -174.403488181721 
1.1                            0.129206901377851 177.376417472084 0.972853678813254 -90.9509527693074 0.972853678813254 -90.9509527693074 0.128917875097675 177.870282295855 
1.2                            0.131965381144071 168.659701733211 0.971146756869009 -99.0978295541006 0.971146756869008 -99.0978295541006 0.131530570376417 170.346152846992 
1.3                            0.132972600581824 159.766583750398 0.969674695499964 -107.239974737296 0.969674695499962 -107.239974737296 0.132411831384041 163.05979869611  
1.4                            0.132264551250445 150.643440135353 0.968432381496244 -115.381164989174 0.968432381496243 -115.381164989174 0.131614278141402 156.059239395545 
1.5                            0.129910498550598 141.222433801625 0.96740149599491 -123.525019179006 0.967401495994908 -123.525019179006 0.129226588319221 149.408978843364 
1.6                            0.126018363453653 131.416045776774 0.966551119859695 -131.674811294667 0.966551119859694 -131.674811294667 0.125379946374641 143.195552449258 
1.7                            0.120743020160249 121.109529869379 0.965839182961519 -139.833298376109 0.965839182961518 -139.833298376109 0.120257828129841 137.534567404234 
1.8                            0.114298909864192 110.150927747258 0.96521461169197 -148.002575424478 0.965214611691968 -148.002575424478 0.114110332467187 132.578694442206 
1.9                            0.106978973508708 98.3393140516118 0.964620025485447 -156.183965869819 0.964620025485445 -156.183965869819 0.107274356355025 128.52414178097  
2                              0.099182147020316 85.4154045707721 0.963994824832544 -164.377953605509 0.963994824832543 -164.377953605509 0.10019980149137 125.608296739055 
2.1                            0.0914496326232343 71.0680064432828 0.963278499757608 -172.584160285299 0.963278499757607 -172.584160285299 0.0934770683754601 124.081387333682 
2.2                            0.0845004401681682 54.9892094745699 0.962413972632493 179.198630783214 0.962413972632492 179.198630783214 0.08784746024399 124.122535900216 
2.3                            0.0792297908495528 37.0315039352033 0.961350778297572 170.97240535241  0.96135077829757 170.97240535241  0.0841541170930255 125.678610885991 
2.4                            0.076594017740632 17.4761464958247 0.960047884040094 162.73980743469  0.960047884040093 162.73980743469  0.0831813805909864 128.286860510513 
2.5                            0.0773260814653862 -2.7861382343662 0.958475967149847 154.5039935078   0.958475967149846 154.5039935078   0.0854012418936338 131.081782856396 
2.6                            0.081614711149888 -22.5183580347635 0.956619000999978 146.268460586065 0.956619000999978 146.268460586065 0.0907903036283849 133.119884891837 
2.7                            0.0890442480046912 -40.7498559843246 0.954475050761753 138.03685876938  0.954475050761753 138.03685876938  0.0988813460762925 133.77766397774  
2.8                            0.0988496748676757 -57.1150164394305 0.952056242127939 129.812799792828 0.952056242127938 129.812799792828 0.108987704535586 132.873536152822 
2.9                            0.110218230733548 -71.7172597595603 0.949387933104509 121.599673025504 0.949387933104508 121.599673025504 0.120410895648901 130.528802197128 
3                              0.122448284156347 -84.8542240609951 0.946507181111739 113.400479306566 0.946507181111738 113.400479306566 0.132543520438774 126.98623387838  
3.1                            0.134983110552617 -96.8422906917109 0.94346064710936 105.217691107868 0.943460647109359 105.217691107868 0.144892085601978 122.498864988409 
3.2                            0.147392377518518 -107.950185169888 0.940302109471239 97.0531450426205 0.940302109471238 97.0531450426205 0.157065466340049 117.285616746256 
3.3                            0.159343950019186 -118.388216045172 0.937089770609131 88.907970028843  0.937089770609128 88.907970028843  0.168755642768794 111.522302721595 
3.4                            0.170580162334154 -128.316689777406 0.933883530204562 80.7825517940236 0.933883530204559 80.7825517940236 0.179720494929135 105.34617641037  
3.5                            0.18090058646114 -137.857881783055 0.930742374551705 72.6765321442617 0.930742374551703 72.6765321442617 0.189770669275851 98.8638318497229 
3.6                            0.190150003550776 -147.106545689359 0.927721997780875 64.5888396936207 0.927721997780873 64.5888396936207 0.198760017747338 92.1587140349563 
3.7                            0.198209984803332 -156.137992071048 0.924872733754904 56.5177476273057 0.924872733754902 56.5177476273058 0.206578659348707 85.2972465221538 
3.8                            0.204992900035007 -165.014013709361 0.922237842520654 48.4609535296725 0.922237842520651 48.4609535296725 0.213147873752165 78.3335687456904 
3.9                            0.210437604789848 -173.787183128324 0.919852166161568 40.4156762482948 0.919852166161565 40.415676248295  0.218416297095617 71.3131504194249 
4                              0.214506368444312 177.496001404679 0.917741147804643 32.3787650517546 0.917741147804643 32.3787650517546 0.222357109548421 64.2755741317147 
4.1                            0.217182803610089 168.792755091172 0.915920194854001 24.3468168239741 0.915920194853999 24.3468168239743 0.224966059613424 57.256727370928  
4.2                            0.218470675351427 160.062165214453 0.91439436246462 16.3162975860384 0.914394362464619 16.3162975860385 0.226260270134178 50.2905831114574 
4.3                            0.218393536825196 151.2636811883   0.913158334205206 8.28366513820418 0.913158334205207 8.28366513820433 0.226277827870972 43.4106907017447 
4.4                            0.21699517594202 142.355807090465 0.91219668170582 0.245489994769811 0.912196681705821 0.245489994769859 0.225078181057587 36.6514468622684 
4.5                            0.214340877075644 133.29491655497  0.911484391611428 -7.80142799678655 0.91148439161143 -7.80142799678647 0.222743361305155 30.0491649190784 
4.6                            0.210519507017666 124.034159266344 0.910987654205003 -15.8599499082428 0.910987654205004 -15.8599499082427 0.219380005778395 23.6429012078266 
4.7                            0.205646422052258 114.522491758276 0.91066491169239 -23.9324974969426 0.910664911692391 -23.9324974969427 0.215122074271819 17.474921848517  
4.8                            0.199867149768781 104.703960955478 0.910468163791338 -32.0209652999431 0.910468163791339 -32.0209652999431 0.210134016811069 11.5905924187857 
4.9                            0.193361695702451 94.5175207181441 0.910344522880152 -40.1266480512144 0.910344522880152 -40.1266480512144 0.204613924516446 6.03734514724002 
5                              0.186349107557746 83.897894897956  0.910238000137581 -48.2501865182587 0.910238000137582 -48.2501865182587 0.198795858393811 0.86223999976098 
5.1                            0.179091514729246 72.7783228144819 0.9100914882559  -56.3915347819166 0.9100914882559  -56.3915347819166 0.192950080302848 -3.89245158402798 
5.2                            0.171896147042555 61.0963715536943 0.909848886763034 -64.5499516522525 0.909848886763034 -64.5499516522525 0.187379355026021 -8.19610988380049 
5.3                            0.165112781058221 48.8041331340461 0.909457294997972 -72.7240182639724 0.909457294997971 -72.7240182639724 0.182409057518248 -12.0390270232005 
5.4                            0.159122885374532 35.8834932875753 0.908869178355341 -80.9116829060617 0.908869178355338 -80.9116829060617 0.178368971173128 -15.4428493562853 
5.5                            0.154316272776536 22.3649595250772 0.908044398950427 -89.1103328431148 0.908044398950426 -89.1103328431147 0.175566088987563 -18.4692564266759 
5.6                            0.151052959494292 8.34445074650091 0.906951995593853 -97.3168913676165 0.906951995593852 -97.3168913676164 0.174250888691412 -21.2224712905283 
5.7                            0.149613770069952 -6.01170070115592 0.905571602324868 -105.527936722041 0.905571602324866 -105.527936722041 0.17458375721236 -23.8416362843772 
5.8                            0.15015191725053 -20.4827088712472 0.903894410720606 -113.739838019972 0.903894410720603 -113.739838019972 0.176611076921101 -26.4826095431856 
5.9                            0.152663353942687 -34.8302280982145 0.901923607934132 -121.948902056423 0.901923607934133 -121.948902056423 0.180259067554838 -29.2940592356303 
6                              0.156988956578221 -48.8427852772623 0.899674257219477 -130.151524083822 0.899674257219476 -130.151524083822 0.185347401915345 -32.3960601742138 
6.1                            0.162847284056559 -62.36887242726  0.897172626422531 -138.344335341069 0.897172626422531 -138.344335341069 0.191617344499759 -35.8678921452168 
6.2                            0.169883426851299 -75.3279554329488 0.894455007703362 -146.524340383535 0.89445500770336 -146.524340383535 0.19876522431963 -39.7467210509315 
6.3                            0.17771671938693 -87.7020355738854 0.891566104006323 -154.689038017713 0.891566104006325 -154.689038017713 0.20647297332577 -44.0342614329832 
6.4                            0.185976620732919 -99.5177375471285 0.888557081035663 -162.836520776396 0.888557081035664 -162.836520776395 0.214431217563943 -48.7068788128444 
6.5                            0.19432438849162 -110.827976645826 0.885483395967623 -170.965549221494 0.885483395967623 -170.965549221494 0.222354127440523 -53.7254966954253 
6.6                            0.202463212825463 -121.697801157793 0.88240251595262 -179.075598770269 0.88240251595262 -179.075598770269 0.22998742429974 -59.0434475932164 
6.7                            0.210140847163912 -132.195276314007 0.879371632353818 172.833121927925 0.879371632353817 172.833121927925 0.23711161949824 -64.611840933326 
6.8                            0.21714815530778 -142.386478967635 0.876445463371472 164.759680870609 0.876445463371472 164.759680870609 0.243542364550502 -70.3827787062504 
6.9                            0.223315865739375 -152.333269242991 0.873674221265903 156.702459674532 0.873674221265903 156.702459674532 0.249129291242479 -76.3109870706823 
7                              0.228510867668009 -162.092718185511 0.871101803542403 148.65921569677  0.871101803542403 148.65921569677  0.253754233600244 -82.3543987229425 
7.1                            0.232632752465001 -171.717422590485 0.868764252182666 140.627166725384 0.86876425218267 140.627166725385 0.257329359585665 -88.4740945127424 
7.2                            0.235610940679051 178.743761810824 0.866688512394266 132.603095129776 0.866688512394269 132.603095129776 0.259795505578182 -94.6338830591549 
7.3                            0.237402542345288 169.244831569309 0.864891512699985 124.58346790252  0.864891512699987 124.583467902521 0.261120870686134 -100.799696422993 
7.4                            0.237991000356398 159.741728942456 0.863379581232433 116.564568626514 0.863379581232436 116.564568626514 0.261300155004822 -106.938913452908 
7.5                            0.237385514364467 150.191488119411 0.862148208249843 108.542637068706 0.862148208249847 108.542637068706 0.260354185279787 -113.019685959242 
7.6                            0.23562120732135 140.551476568712 0.861182161414053 100.514011846058 0.861182161414056 100.514011846058 0.258330038359371 -119.010330669424 
7.7                            0.232759961128564 130.778773104534 0.860455957450643 92.4752714377341 0.860455957450643 92.4752714377341 0.255301627437566 -124.87885755494 
7.8                            0.228891799626887 120.829746100013 0.859934690501743 84.4233687264155 0.859934690501743 84.4233687264156 0.251370641973504 -130.592729504752 
7.9                            0.224136624372173 110.65993899567  0.859575212679919 76.3557542309377 0.859575212679919 76.3557542309377 0.246667616165376 -136.118986196739 
8                              0.218645997005534 100.224436502589 0.859327654812054 68.2704832364442 0.859327654812054 68.2704832364443 0.241352734834733 -141.424909950467 
8.1                            0.212604494439697 89.4789703871793 0.859137263967438 60.1663021509636 0.859137263967435 60.1663021509637 0.235615771600733 -146.479448863216 
8.2                            0.206229924326161 78.3821114008295 0.858946518337917 52.0427096624957 0.858946518337916 52.0427096624956 0.229674314925225 -151.255613752086 
8.3                            0.199771380458062 66.8989368964379 0.858697459439205 43.8999887122565 0.858697459439202 43.8999887122565 0.223769233016123 -155.733982146178 
8.4                            0.19350379446282 55.0064665247013 0.858334157674266 35.7392060277913 0.858334157674264 35.7392060277914 0.218156275547477 -159.907212696499 
8.5                            0.18771746062027 42.7007755938712 0.857805202640175 27.5621770548169 0.857805202640175 27.5621770548169 0.213092987410081 -163.785052462888 
8.6                            0.182701286219664 30.0048940430913 0.857066087963615 19.3713956281701 0.857066087963614 19.3713956281701 0.208820911267935 -167.398751275321 
8.7                            0.178719661797214 16.9754389171634 0.856081346359748 11.1699295989671 0.856081346359748 11.1699295989669 0.205544450324868 -170.803300121727 
8.8                            0.175985077987156 3.70492054725478 0.854826288221735 2.96128576962792 0.854826288221735 2.96128576962793 0.203409477330781 -174.075882640862 
8.9                            0.17463145267057 -9.68320184032765 0.853288209259211 -5.25075031873917 0.853288209259211 -5.25075031873943 0.202486073473823 -177.309737159561 
9                              0.174695066533989 -23.0475399289266 0.851466960165613 -13.4622922049993 0.851466960165615 -13.4622922049995 0.202759715562535 179.395798107585 
9.1                            0.176109196807314 -36.2471538342465 0.84937481189795 -21.6695388518513 0.849374811897952 -21.6695388518516 0.204133337950957 175.946674888685 
9.2                            0.178714517211654 -49.1597639111254 0.847035599163451 -29.8689595676315 0.847035599163454 -29.8689595676313 0.206439603733109 172.263937483681 
9.3                            0.182282038231423 -61.6943595267219 0.844483175592589 -38.0574674838799 0.844483175592588 -38.0574674838797 0.209459923432426 168.289684637654 
9.4                            0.186541843198339 -73.795675891229 0.841759259853348 -46.2325722759277 0.841759259853349 -46.2325722759275 0.212945575502563 163.988582560158 
9.5                            0.191210727599069 -85.4415218772448 0.838910786698641 -54.3925041736308 0.838910786698644 -54.3925041736303 0.216636953377662 159.345832131197 
9.6                            0.196014238529992 -96.635937563679 0.835986897017718 -62.536303086917 0.835986897017721 -62.5363030869162 0.220278720633958 154.36320085027  
9.7                            0.200701578582651 -107.401210668696 0.833035705753163 -70.6638685834198 0.833035705753167 -70.663868583419 0.22363047481769 149.054627341931 
9.8                            0.205053972458482 -117.770743489454 0.830100978385722 -78.7759682280456 0.830100978385727 -78.7759682280449 0.226473752898919 143.442379046718 
9.9                            0.208888057492328 -127.783611453191 0.827218830258867 -86.8742032114315 0.82721883025887 -86.874203211431 0.22861670975671 137.554175752584 
10                             0.212055971036639 -137.480874041935 0.824414544335031 -94.9609311375994 0.824414544335031 -94.9609311375994 0.229897720084601 131.421280754492 
