! Touchstone file exported from HFSS 3D Layout Design 2026.1.0
!        File:           D:/Work/SIM/ADS_AUTO_SIM/projects/RFSOC_RF/TX_Fillter.aedt
!        Generated:      03:07:58 AM Aug 31, 2026
!        Design:         TX_BAND1_MCFIL_R35_CNN039
!        Project:        TX_Fillter
!
# GHz S MA R 50.000000
! Terminal data exported
! Port[1] = Port1
! Port[2] = Port2
14                             0.972769798899491 -165.224415694456 0.00349776339832484 -177.628094718236 0.00349776339832484 -177.628094718235 0.976163223994436 -157.670965420122 
14.05                          0.972261695300964 -166.112946424   0.00356468056527589 -178.027009204429 0.00356468056527588 -178.027009204429 0.975752866364466 -158.496303286538 
14.1                           0.97173730442289 -167.007794691027 0.00363472441256719 -178.40534789019 0.00363472441256718 -178.40534789019 0.975330323694192 -159.326521303183 
14.15                          0.971195810077147 -167.909163074439 0.0037081395142466 -178.762627159112 0.0037081395142466 -178.762627159112 0.974895013268666 -160.161758515088 
14.2                           0.970636341071863 -168.817264964056 0.00378519447822543 -179.098395750214 0.00378519447822545 -179.098395750214 0.97444631438378 -161.002161218153 
14.25                          0.970057966569412 -169.732325282649 0.00386618460565802 -179.412242203121 0.00386618460565804 -179.412242203121 0.97398356522714 -161.847883429158 
14.3                           0.969459690971836 -170.654581266801 0.00395143486618891 -179.703803171677 0.00395143486618893 -179.703803171677 0.973506059448555 -162.69908739266 
14.35                          0.968840448277136 -171.584283312324 0.00404130322832272 -179.972772648371 0.00404130322832274 -179.972772648371 0.973013042383647 -163.555944128225 
14.4                           0.968199095842049 -172.521695890657 0.004136184389309 179.78108786866  0.00413618438930904 179.78108786866  0.972503706889154 -164.418634021876 
14.45                          0.967534407477927 -173.467098543353 0.00423651395482265 179.557938248437 0.00423651395482267 179.557938248436 0.971977188742746 -165.287347466014 
14.5                           0.966845065795853 -174.420786962659 0.00434277312549563 179.35784764038  0.00434277312549566 179.357847640379 0.971432561553544 -166.162285552593 
14.55                          0.966129653704976 -175.383074167098 0.00445549395518231 179.180781451158 0.00445549395518234 179.180781451157 0.970868831121851 -167.043660824846 
14.6                           0.965386644953909 -176.354291782051 0.00457526525492267 179.026587435487 0.00457526525492268 179.026587435486 0.970284929177644 -167.9316980935  
14.65                          0.96461439358848 -177.334791436585 0.00470273922715401 178.894980982911 0.00470273922715404 178.89498098291  0.969679706416938 -168.826635324088 
14.7                           0.963811122179835 -178.324946289121 0.00483863892712017 178.785529718526 0.00483863892712019 178.785529718525 0.96905192474298 -169.728724602771 
14.75                          0.962974908654184 -179.32515269617 0.00498376666301436 178.697637575181 0.00498376666301437 178.69763757518  0.968400248604892 -170.638233188978 
14.8                           0.96210367152884 179.664167959848 0.00513901346363174 178.630528536647 0.00513901346363177 178.630528536647 0.967723235309704 -171.55544466416 
14.85                          0.961195153327743 178.642567265601 0.00530536976276868 178.583230294072 0.00530536976276868 178.583230294072 0.967019324163871 -172.48066018715 
14.9                           0.960246901912489 177.609567574159 0.00548393747398061 178.554558099461 0.00548393747398062 178.554558099461 0.966286824277128 -173.414199867883 
14.95                          0.959256249420816 176.564659581444 0.00567594365844798 178.543099137159 0.00567594365844798 178.543099137159 0.965523900833883 -174.35640427275 
15                             0.958220288452064 175.50729965544  0.00588275602362888 178.547197764052 0.00588275602362888 178.547197764052 0.964728559604558 -175.307636076558 
15.05                          0.957135845076661 174.436906888221 0.00610590053234867 178.564941987737 0.00610590053234868 178.564941987737 0.963898629430214 -176.268281877986 
15.1                           0.955999448171906 173.35285983668  0.00634708145250836 178.594151555222 0.00634708145250837 178.594151555223 0.963031742367147 -177.238754197651 
15.15                          0.954807294496617 172.254492913068 0.00660820423851871 178.632368008973 0.00660820423851869 178.632368008973 0.962125311122139 -178.219493680404 
15.2                           0.953555208809314 171.141092380895 0.0068914017091134 178.676847028675 0.00689140170911338 178.676847028675 0.961176503341857 -179.210971526356 
15.25                          0.952238598204181 170.011891905418 0.0071990640750595 178.724553313361 0.00719906407505948 178.724553313361 0.960182212238676 179.78630782163  
15.3                           0.95085239968123 168.866067600508 0.00753387347774895 178.772158167829 0.00753387347774895 178.772158167829 0.959139022937068 178.771803702489 
15.35                          0.949391019775121 167.702732505255 0.00789884382972538 178.816039839645 0.00789884382972538 178.816039839645 0.958043173805407 177.744935937901 
15.4                           0.947848264833045 166.520930413813 0.0082973669057796 178.852286510347 0.00829736690577959 178.852286510347 0.956890511892766 176.705081169187 
15.45                          0.946217260245634 165.319628970728 0.0087332658243678 178.876701680296 0.00873326582436777 178.876701680296 0.9556764414126  175.65156878441  
15.5                           0.944490356583105 164.097711930994 0.00921085729121571 178.884811506689 0.0092108572912157 178.884811506689 0.954395863997248 174.583676383947 
15.55                          0.942659020155357 162.853970469274 0.00973502425931003 178.871873465253 0.00973502425931003 178.871873465253 0.953043109178748 173.500624726255 
15.6                           0.940713704978657 161.587093405805 0.0103113010035181 178.832885515995 0.0103113010035181 178.832885515995 0.951611853219882 172.401572088399 
15.65                          0.93864370246637 160.29565619747  0.0109459730281145 178.762594769539 0.0109459730281145 178.762594769539 0.950095024008157 171.28560796834  
15.7                           0.936436964332849 158.978108521289 0.0116461947393207 178.655504479891 0.0116461947393207 178.655504479891 0.948484689214007 170.151746048209 
15.75                          0.934079893164853 157.632760254322 0.0124201284447052 178.505878036389 0.0124201284447052 178.505878036389 0.946771924276173 168.998916330321 
15.8                           0.931557093818134 156.257765629217 0.0132771090143542 178.307738493981 0.0132771090143542 178.307738493981 0.944946655978201 167.825956351212 
15.85                          0.928851077167041 154.851105319452 0.0142278394888669 178.054862064978 0.0142278394888669 178.054862064978 0.942997476377122 166.631601374903 
15.9                           0.925941905681561 153.410566184596 0.0152846240876557 177.740763891209 0.0152846240876557 177.740763891209 0.940911420583643 165.414473466786 
15.95                          0.922806767713471 151.933718387223 0.0164616465073317 177.358674313402 0.0164616465073317 177.358674313402 0.938673700302986 164.173069357415 
16                             0.919419464095311 150.417889585152 0.0177753031626142 176.901503741241 0.0177753031626141 176.901503741241 0.936267383039612 162.905747025883 
16.05                          0.915749786509716 148.860135915204 0.0192446031779371 176.36179408671  0.019244603177937 176.36179408671  0.93367300433888 161.610710973467 
16.1                           0.911762761847156 147.257209533328 0.0208916495587876 175.731654537139 0.0208916495587875 175.731654537139 0.930868097253041 160.285996231949 
16.15                          0.907417730167738 145.605522586317 0.0227422191278373 175.002679194755 0.0227422191278372 175.002679194755 0.927826619223549 158.92945127647  
16.2                           0.902667215609203 143.901107703557 0.0248264625546962 174.165843780786 0.0248264625546961 174.165843780786 0.924518251597162 157.538720219503 
16.25                          0.897455539316265 142.139575479688 0.0271797501445116 173.211378184218 0.0271797501445115 173.211378184218 0.920907540875054 156.111224996343 
16.3                           0.891717110930932 140.316070077585 0.0298436938807271 172.128611130057 0.029843693880727 172.128611130057 0.916952843420334 154.644148784508 
16.35                          0.88537432028737 138.425225188208 0.0328673812365421 170.90578267295  0.032867381236542 170.90578267295  0.912605026760313 153.134422740511 
16.4                           0.878334934065285 136.46112441873  0.0363088607879171 169.529819652108 0.036308860787917 169.529819652108 0.907805871205516 151.578719459606 
16.45                          0.870488884641146 134.417273195217 0.0402369222894354 167.986068804861 0.0402369222894353 167.986068804861 0.902486106386131 149.973458634435 
16.5                           0.861704323638194 132.286594196682 0.0447332119897963 166.257982181711 0.0447332119897963 166.257982181711 0.896563011033675 148.314833619753 
16.55                          0.851822808073072 130.061466380511 0.049894712811289 164.32675029618  0.049894712811289 164.32675029618  0.889937506201203 146.598872633984 
16.6                           0.840653507361117 127.733840764498 0.0558365902460515 162.170880889499 0.0558365902460513 162.170880889499 0.882490692471532 144.821556095675 
16.65                          0.827966393361776 125.295487462348 0.0626953441876008 159.765726684912 0.0626953441876007 159.765726684911 0.874079840020556 142.979023495437 
16.7                           0.813484556355341 122.738463128507 0.0706320909140133 157.082976369415 0.0706320909140132 157.082976369415 0.864533972071402 141.067921172329 
16.75                          0.796876173281453 120.055944055806 0.079835590952666 154.090143008967 0.0798355909526659 154.090143008967 0.853649449276218 139.085968807165 
16.8                           0.777747407125054 117.243660200066 0.0905242828196644 150.750118897272 0.0905242828196643 150.750118897272 0.841186468269147 137.032859660261 
16.85                          0.75563891158535 114.302307722169 0.102946008110773 147.020923517612 0.102946008110773 147.020923517612 0.826868291805758 134.91165772633  
16.9                           0.730031066058767 111.241536362856 0.117373249993693 142.855861509427 0.117373249993693 142.855861509427 0.81038654484986 132.730906624388 
16.95                          0.700367102143419 108.08642683126  0.134090548946845 138.204437502257 0.134090548946845 138.204437502257 0.791418240543651 130.507692403463 
17                             0.666109337938558 104.887790134986 0.153369521385284 133.014537643642 0.153369521385284 133.014537643642 0.769663272034576 128.271831282906 
17.05                          0.626851456677625 101.738025800518 0.17542632825896 127.236537393188 0.17542632825896 127.236537393188 0.74491391910252 126.071019354376 
17.1                           0.582516377104851 98.7942179618389 0.200358198817173 120.830003661729 0.200358198817173 120.830003661729 0.717167249073047 123.975886667116 
17.15                          0.533666562264383 96.3081970180498 0.228062430281751 113.773277297209 0.228062430281751 113.773277297209 0.686780133450669 122.082067693634 
17.2                           0.481923698332859 94.6554730573865 0.258155539124301 106.075122752194 0.258155539124301 106.075122752194 0.654634891020772 120.50362457632  
17.25                          0.4304050809576  94.3321211104361 0.289929547630007 97.7856951011919 0.289929547630007 97.7856951011918 0.622227804917324 119.350066687221 
17.3                           0.383886561390763 95.840416244179  0.322393462520972 89.0019700116267 0.322393462520972 89.0019700116266 0.591540627831262 118.682777053655 
17.35                          0.348093442583432 99.3499787160932 0.354428517920125 79.8623519535425 0.354428517920125 79.8623519535425 0.564586629115998 118.462359124567 
17.4                           0.327507586085145 104.21929361792  0.385026911252589 70.5284089386777 0.385026911252589 70.5284089386777 0.542716795998592 118.521743164471 
17.45                          0.322501317204392 108.99710161483  0.413519464582726 61.1580407426994 0.413519464582727 61.1580407426993 0.526040200625423 118.601852827388 
17.5                           0.328696591423003 112.298552410038 0.439688891100402 51.8795577631087 0.439688891100402 51.8795577631086 0.513347743038847 118.442321445827 
17.55                          0.339578617193394 113.578884629508 0.463730380029698 42.7756509907627 0.463730380029698 42.7756509907627 0.502579483707112 117.868412846906 
17.6                           0.349430217317675 113.022569277627 0.486104069573238 33.8805369235483 0.486104069573239 33.8805369235482 0.4914907208166  116.82396836178  
17.65                          0.354451300166234 111.08704338907  0.507358996605484 25.1875093334661 0.507358996605485 25.187509333466  0.47815180803545 115.353971182113 
17.7                           0.352561053852389 108.228299905358 0.527987960239635 16.6615452934714 0.527987960239635 16.6615452934713 0.461167760675384 113.571330064184 
17.75                          0.342863670945215 104.829837223444 0.548334248317245 8.25244948230368 0.548334248317245 8.25244948230358 0.43970571817483 111.634643493775 
17.8                           0.325226037557097 101.226607022215 0.568545258482602 -0.0938545870208868 0.568545258482602 -0.0938545870209612 0.413461352263177 109.745732262441 
17.85                          0.300058291044188 97.7656614128609 0.588560811151466 -8.42655594712921 0.588560811151466 -8.42655594712926 0.382654523707572 108.166303004869 
17.9                           0.268281000465861 94.8960621653731 0.608127622702487 -16.7835707077717 0.608127622702487 -16.7835707077717 0.348098899616736 107.25124211394  
17.95                          0.231473757346171 93.3154534187589 0.626837141714649 -25.1872993180691 0.626837141714649 -25.187299318069 0.311365150114327 107.49289483136  
18                             0.19228596640659 94.2313801446383 0.644186352931432 -33.6425041025677 0.644186352931432 -33.6425041025676 0.275038701478191 109.549639213762 
18.05                          0.15536784937037 99.7351590399058 0.659658253618903 -42.1364828353163 0.659658253618903 -42.1364828353163 0.242993465975578 114.157317559992 
18.1                           0.128947592351352 112.410689786888 0.672811626541882 -50.6416688227064 0.672811626541883 -50.6416688227063 0.220285184289357 121.685193477867 
18.15                          0.123744954332993 130.829571503514 0.683362502223519 -59.1204338351502 0.68336250222352 -59.1204338351501 0.211713802844658 131.266637656883 
18.2                           0.142351095976088 146.246943386548 0.691237664724499 -67.5313375497667 0.6912376647245  -67.5313375497665 0.218876095599949 140.60420263311  
18.25                          0.175431375816813 153.982219288973 0.696586874311641 -75.8356354987557 0.696586874311642 -75.8356354987556 0.238766115143417 147.569152493877 
18.3                           0.21342636249365 155.899114406914 0.699753146170544 -84.0027900302066 0.699753146170546 -84.0027900302065 0.266077498830028 151.547492605104 
18.35                          0.25091062795174 154.412900409631 0.701213069150509 -92.0140877673958 0.701213069150511 -92.0140877673957 0.296019413306329 152.998550640597 
18.4                           0.285122458418959 150.973200753943 0.701505613782832 -99.8640716904097 0.701505613782833 -99.8640716904097 0.325277662877394 152.626530732049 
18.45                          0.314666970137132 146.357487390391 0.701166382608102 -107.560061437599 0.701166382608103 -107.560061437599 0.351837694908821 151.019044769096 
18.5                           0.338884432520694 140.980993838505 0.700677593161973 -115.120360428896 0.700677593161974 -115.120360428896 0.374587393604474 148.591963288068 
18.55                          0.35753882972071 135.064406628532 0.700436620213683 -122.571799205432 0.700436620213683 -122.571799205432 0.392996777814836 145.623868969563 
18.6                           0.370649050530602 128.718551381049 0.700740674971537 -129.947130425613 0.700740674971536 -129.947130425613 0.406902706882303 142.298509962031 
18.65                          0.378393655160841 121.988153364862 0.701782956528863 -137.282592386174 0.701782956528862 -137.282592386174 0.416373203080554 138.737108897299 
18.7                           0.381061119580579 114.875264748481 0.703655681422468 -144.615781904433 0.703655681422467 -144.615781904433 0.421626582103213 135.020065129312 
18.75                          0.37903206607323 107.352119419446 0.706356668128082 -151.983862726807 0.706356668128081 -151.983862726807 0.422987484500799 131.200627650749 
18.8                           0.372785485880057 99.368316701572  0.709797725719548 -159.422086010781 0.709797725719546 -159.422086010781 0.420866780680985 127.312690745592 
18.85                          0.362923007254248 90.8552221813632 0.713814430508248 -166.962601614485 0.713814430508247 -166.962601614484 0.415754912339033 123.373962214256 
18.9                           0.35020536785441 81.7299886329542 0.718177690463462 -174.633574259997 0.718177690463461 -174.633574259997 0.408219287359933 119.38504520189  
18.95                          0.335593417122306 71.9022110268495 0.722607641816598 177.541333189298 0.722607641816598 177.541333189298 0.398896776714852 115.324626655379 
19                             0.320281543505931 61.2877134368568 0.726789819774852 169.543008396501 0.726789819774851 169.543008396501 0.388473459533883 111.141108765778 
19.05                          0.305703781841696 49.8353853988679 0.730392245584113 161.356364412808 0.730392245584113 161.356364412808 0.377647297888129 106.74177957681  
19.1                           0.293483819955089 37.5711296259009 0.733080354324323 152.969187156062 0.733080354324322 152.969187156062 0.367077138385841 101.981930126644 
19.15                          0.285299568113822 24.6517111343919 0.734525127205863 144.370425477665 0.734525127205861 144.370425477665 0.357333567621492 96.6576801360082 
19.2                           0.282662273030053 11.3982483003187 0.734399198535699 135.548186377113 0.734399198535697 135.548186377113 0.348880400173127 90.5068069957195 
19.25                          0.286681021032697 -1.7366297544014 0.732356925969869 126.487937308367 0.732356925969865 126.487937308367 0.342122410684558 83.2212663082439 
19.3                           0.297945159616125 -14.2837793334784 0.727998116786524 117.171664957884 0.727998116786519 117.171664957883 0.337545798112164 74.4748187905656 
19.35                          0.316607615602852 -25.8999915879869 0.720821732598356 107.578941195398 0.72082173259835 107.578941195398 0.335944167173572 63.9717526520787 
19.4                           0.342591600687093 -36.4535577812612 0.710185592091682 97.6909125187969 0.710185592091677 97.6909125187967 0.338656521753874 51.5263149039437 
19.45                          0.375733006554423 -46.0190783593964 0.695299896208948 87.497983784446  0.695299896208942 87.497983784446  0.34764625640581 37.1729668841875 
19.5                           0.415722402988787 -54.8085844171116 0.675291726571022 77.0111121224296 0.675291726571018 77.0111121224296 0.365183648381269 21.2642359440362 
19.55                          0.46186268334901 -63.0810568238327 0.649372818231046 66.2748658002794 0.649372818231043 66.2748658002795 0.393032926370917 4.45878936547379 
19.6                           0.512800408285188 -71.0608092205921 0.61710683311634 55.3779231194494 0.617106833116338 55.3779231194494 0.431475602678989 -12.4562943901844 
19.65                          0.566444752013685 -78.8844708336683 0.578700600281091 44.4548695527135 0.578700600281091 44.4548695527133 0.478828043343151 -28.8036358334551 
19.7                           0.620208811756624 -86.5867592369477 0.535174789090172 33.6744571130067 0.535174789090173 33.6744571130064 0.531817444474775 -44.1440252202656 
19.75                          0.671513214713344 -94.1215816434955 0.488281184579307 23.2151957934878 0.488281184579308 23.2151957934873 0.586550948411273 -58.2613077474997 
19.8                           0.71831443215029 -101.402112273488 0.440161499730369 13.2363703965195 0.44016149973037 13.2363703965188 0.639519035196968 -71.0891511807263 
19.85                          0.759412569579767 -108.339833916267 0.392898788124778 3.85546550830003 0.392898788124777 3.8554655082991  0.688222970370504 -82.6488849529617 
19.9                           0.794454929868282 -114.869469975856 0.348159052067144 -4.8611173160109 0.348159052067142 -4.86111731601194 0.731324808277861 -93.0120695904194 
19.95                          0.823725906171526 -120.957516680943 0.30703129571706 -12.8944732154612 0.307031295717057 -12.8944732154623 0.768455082051247 -102.278321260226 
20                             0.84787399785373 -126.599306079739 0.270049958532665 -20.2620192308624 0.270049958532661 -20.2620192308634 0.799886528062504 -110.560246579694 
20.05                          0.867683124565709 -131.811066109948 0.237318583361748 -27.0044860461455 0.237318583361745 -27.0044860461464 0.826228549673207 -117.972563738901 
20.1                           0.883925426774404 -136.621566353668 0.208657042248752 -33.1747239175196 0.208657042248748 -33.1747239175204 0.848208300460587 -124.624769161899 
20.15                          0.897287018195632 -141.065472830565 0.183727664769687 -38.8296405447787 0.183727664769684 -38.8296405447793 0.866541437740855 -130.616903564951 
20.2                           0.908342739468964 -145.178854336871 0.162125739232536 -44.0251343115751 0.162125739232532 -44.0251343115754 0.881869617256218 -136.037707147243 
20.25                          0.917557794915565 -148.996509955933 0.143436674583458 -48.8133155607956 0.143436674583455 -48.8133155607957 0.894739148512625 -140.964371619629 
20.3                           0.925301251290245 -152.550589251563 0.127268045685889 -53.2412579146494 0.127268045685887 -53.2412579146494 0.905601484597338 -145.463215721626 
20.35                          0.931862903349105 -155.870033844168 0.113264942389522 -57.3506758403766 0.11326494238952 -57.3506758403764 0.914823436137963 -149.590803897655 
20.4                           0.937469411742829 -158.980496389983 0.101115191227432 -61.1781118369247 0.101115191227431 -61.1781118369243 0.922700437892468 -153.395206547501 
20.45                          0.942298129260023 -161.904511813547 0.0905489379919018 -64.7553707375645 0.090548937991901 -64.755370737564 0.929469611176238 -156.917232885322 
20.5                           0.946488289864231 -164.661783960782 0.0813354116753373 -68.1100469713449 0.0813354116753368 -68.1100469713443 0.935321277252955 -160.191553933278 
20.55                          0.950149780395109 -167.269509564296 0.0732785313990004 -71.2660602844495 0.0732785313990002 -71.2660602844488 0.940408550866063 -163.247684537853 
20.6                           0.953369896048099 -169.742697875312 0.0662122758327948 -74.2441575613992 0.0662122758327949 -74.2441575613983 0.944855088983526 -166.110821272794 
20.65                          0.956218495023905 -172.094465847066 0.0599962852215987 -77.0623626361758 0.0599962852215989 -77.0623626361751 0.948761240599533 -168.802546780239 
20.7                           0.958751916673131 -174.336300907468 0.0545119062475078 -79.7363692433586 0.0545119062475082 -79.7363692433578 0.952208881598491 -171.341416628228 
20.75                          0.961015959145977 -176.478289877935 0.0496587465592106 -82.2798790406137 0.0496587465592112 -82.279879040613 0.955265199374639 -173.743445929393 
20.8                           0.963048147406344 -178.529315845634 0.0453517313257856 -84.7048897314424 0.0453517313257864 -84.7048897314417 0.95798565240897 -176.022511997932 
20.85                          0.964879467544137 179.502773787514 0.0415186191326856 -87.0219394003533 0.0415186191326863 -87.0219394003528 0.960416287551271 -178.190687459681 
20.9                           0.966535699735373 177.611024429249 0.0380979212574503 -89.2403132104669 0.0380979212574512 -89.2403132104664 0.962595559410361 179.741483872432 
20.95                          0.968038448749045 175.789253022859 0.0350371665276442 -91.3682181533876 0.0350371665276451 -91.3682181533872 0.964555764230531 177.764758067133 
21                             0.969405945711099 174.031945113302 0.0322914577047812 -93.4129308829309 0.0322914577047822 -93.4129308829306 0.966324174977318 175.871000600863 
21.05                          0.970653676070437 172.334167388289 0.0298222714104449 -95.3809229655256 0.0298222714104457 -95.3809229655254 0.967923944287419 174.053027397419 
21.1                           0.971794874807216 170.691493233958 0.0275964602884544 -97.2779672182354 0.0275964602884553 -97.2779672182352 0.969374826453883 172.304471725643 
21.15                          0.972840919641032 169.099939221839 0.0255854225164739 -99.1092282135699 0.0255854225164747 -99.10922821357  0.970693757762728 170.619672358524 
21.2                           0.973801645389191 167.555910778107 0.0237644095571583 -100.879339518471 0.0237644095571591 -100.879339518472 0.97189532545401 168.993579259545 
21.25                          0.974685596985635 166.056155574107 0.0221119480452183 -102.592469801101 0.022111948045219 -102.592469801101 0.972992148689808 167.421673760523 
21.3                           0.975500234476707 164.597723420791 0.0206093559463979 -104.252379576077 0.0206093559463986 -104.252379576077 0.973995189657311 165.899900759224 
21.35                          0.976252100177884 163.177931653738 0.0192403366623166 -105.862470057467 0.0192403366623172 -105.862470057468 0.974914008920717 164.424610919904 
21.4                           0.976946955825961 161.794335164963 0.0179906376797041 -107.425825339819 0.0179906376797047 -107.425825339819 0.975756976059607 162.992511226876 
21.45                          0.977589895789588 160.444700378188 0.0168477627655524 -108.945248922317 0.0168477627655529 -108.945248922317 0.976531444266171 161.600622537545 
21.5                           0.978185441058314 159.126982580309 0.0158007286768694 -110.423295422204 0.0158007286768698 -110.423295422205 0.977243895747838 160.24624302101  
21.55                          0.978737617706898 157.839306117665 0.0148398589608531 -111.862298184511 0.0148398589608534 -111.862298184512 0.977900063366419 158.92691656266  
21.6                           0.979250022747325 156.579947044977 0.0139566087332017 -113.264393380524 0.013956608733202 -113.264393380525 0.978505032842757 157.640405373134 
21.65                          0.979725879676517 155.34731788034  0.0131434153932221 -114.631541092866 0.0131434153932223 -114.631541092867 0.979063328993858 156.384666168696 
21.7                           0.98016808555919 154.139954174024 0.0123935711092463 -115.965543806841 0.0123935711092465 -115.965543806841 0.979578988792142 155.157829395332 
21.75                          0.980579251120152 152.95650264392  0.0117011136233587 -117.26806266291 0.0117011136233589 -117.268062662911 0.980055623501768 153.95818105512  
21.8                           0.980961735034151 151.795710668025 0.0110607325104843 -118.540631771342 0.0110607325104844 -118.540631771342 0.980496471723016 152.784146764396 
21.85                          0.98131767337584 150.656416955718 0.0104676885077739 -119.784670845203 0.010467688507774 -119.784670845203 0.980904444837995 151.634277731805 
21.9                           0.981649005013742 149.537543245753 0.00991774392559821 -121.001496370413 0.00991774392559825 -121.001496370414 0.981282166080717 150.507238392764 
21.95                          0.981957493589819 148.438086900919 0.00940710247721571 -122.192331500152 0.00940710247721578 -122.192331500152 0.98163200423742 149.401795477141 
22                             0.982244746612272 147.3571142878   0.00893235713317947 -123.358314834505 0.00893235713317947 -123.358314834505 0.9819561028078  148.316808320473 
22.05                          0.982512232097608 146.293754845677 0.00849044482917936 -124.500508223967 0.00849044482917932 -124.500508223966 0.982256405315725 147.251220257034 
22.1                           0.982761293123836 145.247195761806 0.00807860704071254 -125.61990371654 0.00807860704071253 -125.619903716539 0.982534677342489 146.20405095659  
22.15                          0.982993160596512 144.216677181527 0.00769435539155145 -126.717429752175 0.00769435539155141 -126.717429752174 0.982792525761177 145.174389586362 
22.2                           0.983208964480198 143.201487891135 0.00733544159098982 -127.793956694639 0.00733544159098977 -127.793956694638 0.9830314155733  144.161388696404 
22.25                          0.983409743707617 142.200961419619 0.00699983110179598 -128.850301779239 0.00699983110179596 -128.850301779237 0.983252684685101 143.164258740641 
22.3                           0.983596454945675 141.214472512277 0.0066856800303644 -129.887233544813 0.00668568003036435 -129.887233544811 0.983457556908226 142.182263157755 
22.35                          0.98376998037006 140.241433935186 0.00639131480573513 -130.905475809818 0.00639131480573508 -130.905475809817 0.98364715342581 141.214713946258 
22.4                           0.983931134577401 139.281293574628 0.00611521427739965 -131.905711244881 0.00611521427739959 -131.905711244879 0.983822502928663 140.260967676714 
22.45                          0.984080670745008 138.333531799957 0.00585599391514262 -132.888584587769 0.00585599391514255 -132.888584587768 0.983984550595886 139.320421891494 
22.5                           0.98421928613234 137.397659062222 0.00561239183924406 -133.85470554117 0.00561239183924401 -133.854705541168 0.984134166068876 138.392511848749 
22.55                          0.984347627005037 136.473213704155 0.00538325644753905 -134.804651388775 0.00538325644753901 -134.804651388773 0.984272150546285 137.476707572756 
22.6                           0.984466293051129 135.559759959964 0.00516753543823572 -135.738969360967 0.00516753543823568 -135.738969360965 0.984399243109537 136.572511177462 
22.65                          0.984575841349555 134.656886125905 0.0049642660549543 -136.658178777705 0.00496426605495428 -136.658178777704 0.984516126373281 135.679454434081 
22.7                           0.984676789943052 133.764202884725 0.00477256640394257 -137.562772992931 0.00477256640394255 -137.56277299293 0.984623431542279 134.797096557138 
22.75                          0.984769621060681 132.881341768995 0.00459162771348797 -138.453221162022 0.00459162771348796 -138.45322116202 0.984721742945278 133.925022186341 
22.8                           0.984854784029342 132.007953749997 0.00442070742271977 -139.329969851281 0.00442070742271976 -139.329969851279 0.984811602107053 133.062839544328 
22.85                          0.984932697908693 131.143707940266 0.0042591230017185 -140.193444506299 0.00425912300171852 -140.193444506297 0.984893511411851 132.210178752614 
22.9                           0.985003753879556 130.288290399206 0.00410624641750158 -141.044050794049 0.00410624641750159 -141.044050794047 0.984967937404636 131.366690290083 
22.95                          0.985068317412194 129.441403032258 0.00396149917134257 -141.882175831895 0.00396149917134257 -141.882175831895 0.98503531377064 130.532043580101 
23                             0.985126730237695 128.602762575162 0.00382434784227182 -142.708189315199 0.00382434784227183 -142.708189315199 0.985096044028693 129.705925693871 
