! Touchstone file exported from HFSS 3D Layout Design 2026.1.0
!        File:           D:/Work/SIM/ADS_AUTO_SIM/projects/RFSOC_RF/TX_Fillter.aedt
!        Generated:      11:51:17 PM Aug 30, 2026
!        Design:         TX_BAND1_MCFIL_R11_CNN032
!        Project:        TX_Fillter
!
# GHz S MA R 50.000000
! Terminal data exported
! Port[1] = Port1
! Port[2] = Port2
14                             0.965978873671548 178.626824889109 0.00501943102571761 177.243959151006 0.00501943102571761 177.243959151006 0.968175103787911 -176.323009141124 
14.05                          0.965301110871769 177.625426223519 0.00513904906633633 176.85335463106  0.00513904906633633 176.85335463106  0.96754548006678 -177.278322815593 
14.1                           0.964600852983078 176.615315935415 0.0052650969719412 176.477732344992 0.00526509697194118 176.477732344992 0.966895028951738 -178.241558027601 
14.15                          0.963876979532265 175.596195159516 0.00539808382401046 176.116874517968 0.00539808382401045 176.116874517968 0.966222708689705 -179.212984218512 
14.2                           0.963128295760954 174.567749680183 0.00553856662333452 175.770484940494 0.00553856662333451 175.770484940494 0.96552740781457 179.807115306845 
14.25                          0.962353526458991 173.52964893887  0.00568715526447937 175.438181324299 0.00568715526447933 175.4381813243   0.964807939285941 178.8184424771   
14.3                           0.96155130917917 172.481544962804 0.00584451806499641 175.119487422828 0.00584451806499638 175.119487422828 0.964063034031161 177.820683478753 
14.35                          0.960720186760207 171.423071207402 0.00601138791667935 174.813824984367 0.00601138791667937 174.813824984367 0.96329133381893 176.813507701056 
14.4                           0.959858599074787 170.353841304121 0.00618856913544621 174.520505618585 0.00618856913544618 174.520505618586 0.962491383382968 175.796566593602 
14.45                          0.958964873908068 169.273447704507 0.00637694509720447 174.238722669693 0.00637694509720444 174.238722669693 0.961661621702606 174.769492427947 
14.5                           0.958037216858582 168.181460210146 0.00657748675961116 173.967543201014 0.00657748675961112 173.967543201015 0.960800372333896 173.731896953612 
14.55                          0.957073700138058 167.077424377076 0.00679126218429563 173.705900205687 0.00679126218429564 173.705900205687 0.959905832669284 172.68336993766  
14.6                           0.956072250128608 165.960859781834 0.00701944719125467 173.452585165714 0.00701944719125466 173.452585165714 0.958976061985856 171.623477575787 
14.65                          0.955030633534762 164.831258134865 0.0072633372972161 173.206241085826 0.0072633372972161 173.206241085826 0.958008968121022 170.551760761403 
14.7                           0.953946441943285 163.688081225254 0.00752436111334133 172.965356128612 0.00752436111334133 172.965356128612 0.957002292589822 169.467733197532 
14.75                          0.952817074574989 162.530758678873 0.00780409540533646 172.728257972297 0.00780409540533644 172.728257972297 0.955953593929007 168.370879334513 
14.8                           0.951639718979018 161.358685509782 0.00810428205162964 172.49310900155  0.00810428205162963 172.49310900155  0.954860229018949 167.260652114338 
14.85                          0.950411329380415 160.171219442301 0.00842684717364748 172.257902424103 0.00842684717364749 172.257902424104 0.953719332094168 166.136470500073 
14.9                           0.949128602344915 158.967677978291 0.00877392275745221 172.020459381336 0.00877392275745222 172.020459381336 0.952527791105646 164.997716766026 
14.95                          0.947787949369564 157.747335181026 0.00914787113935184 171.778427089044 0.00914787113935187 171.778427089045 0.951282221041687 163.843733521236 
15                             0.946385465942002 156.509418143355 0.00955131279108163 171.529278005626 0.00955131279108166 171.529278005627 0.949978933746942 162.67382043524  
15.05                          0.944916896533164 155.253103103751 0.00998715791457054 171.270309979228 0.00998715791457057 171.270309979228 0.948613903699199 161.487230631039 
15.1                           0.943377594894967 153.977511169116 0.0104586424443105 170.998647273982 0.0104586424443105 170.998647273982 0.947182729107948 160.283166705529 
15.15                          0.941762478923156 152.681703597903 0.0109693691595132 170.711242319461 0.0109693691595132 170.711242319461 0.945680587584005 159.060776332377 
15.2                           0.940065979211938 151.364676591052 0.0115233547316628 170.404877968387 0.0115233547316629 170.404877968387 0.944102185491729 157.819147396311 
15.25                          0.938281980266517 150.025355531449 0.0121250836794695 170.076169987076 0.0121250836794695 170.076169987076 0.942441699929181 156.557302600991 
15.3                           0.936403753146102 148.662588604892 0.0127795703770535 169.721569442857 0.0127795703770534 169.721569442857 0.940692712080811 155.274193484875 
15.35                          0.934423878076146 147.275139726976 0.0134924304678024 169.337364594257 0.0134924304678024 169.337364594257 0.938848130443836 153.968693770825 
15.4                           0.932334155285201 145.861680690703 0.0142699632821475 168.919681834528 0.0142699632821475 168.919681834528 0.936900102133698 152.639591965444 
15.45                          0.930125501977632 144.420782439089 0.0151192471501553 168.464485187847 0.0151192471501553 168.464485187847 0.934839910113615 151.285583113327 
15.5                           0.927787832934448 142.950905355559 0.0160482498484027 167.967573810681 0.0160482498484027 167.967573810681 0.93265785375299 149.905259599553 
15.55                          0.92530992172333 141.45038845272  0.0170659568357856 167.424576907812 0.0170659568357856 167.424576907812 0.930343109580607 148.497100880962 
15.6                           0.922679238874175 139.917437327509 0.018182520427145 166.830945432326 0.018182520427145 166.830945432325 0.927883568437399 147.059462013383 
15.65                          0.919881762611709 138.350110738318 0.0194094336411091 166.181939899447 0.0194094336411091 166.181939899447 0.925265644421247 145.590560828463 
15.7                           0.916901756799659 136.746305648625 0.0207597331552455 165.472613602918 0.0207597331552455 165.472613602918 0.922474050016652 144.088463601148 
15.75                          0.91372150960245 135.103740573516 0.0222482366245576 164.697790476343 0.0222482366245575 164.697790476343 0.919491530571308 142.551069038664 
15.8                           0.910321024963304 133.41993706299  0.0238918205857203 163.852036787144 0.0238918205857204 163.852036787143 0.916298549765975 140.976090416584 
15.85                          0.90667765727673 131.692199163323 0.0257097462944469 162.929625783724 0.0257097462944469 162.929625783724 0.912872915859825 139.361035691184 
15.9                           0.902765677535589 129.917590721345 0.0277240421365097 161.924494334049 0.0277240421365097 161.924494334049 0.90918933620576 137.703185436017 
15.95                          0.898555756689654 128.092910446349 0.0299599527116001 160.830190493776 0.0299599527116001 160.830190493776 0.90521888473524 135.99956849387  
16                             0.894014348896056 126.214664735432 0.0324464662878018 159.639810824284 0.0324464662878019 159.639810824284 0.900928363721292 134.246935317803 
16.05                          0.889102953717908 124.279038423436 0.035216933996652 158.345926148501 0.0352169339966521 158.345926148501 0.896279537059758 132.44172911912  
16.1                           0.883777232119683 122.28186387333  0.0383097957485014 156.940494294453 0.0383097957485015 156.940494294453 0.891228207509857 130.580055180117 
16.15                          0.877985946384076 120.21858922979  0.041769429143067 155.414758251097 0.0417694291430671 155.414758251097 0.885723104825475 128.65764907772  
16.2                           0.871669689067789 118.084247298588 0.0456471381890424 153.759128081475 0.0456471381890426 153.759128081475 0.879704545658561 126.669845180141 
16.25                          0.864759361361206 115.873427509279 0.0500022976832004 151.963044961429 0.0500022976832005 151.963044961429 0.873102819985843 124.611547744102 
16.3                           0.857174357805737 113.580254953462 0.0549036654057615 150.014825932207 0.0549036654057617 150.014825932207 0.86583625359032 122.477208439605 
16.35                          0.848820414293314 111.198382845002 0.0604308658873516 147.901488524575 0.0604308658873519 147.901488524575 0.857808893751974 120.260816443375 
16.4                           0.839587083291465 108.721008341751 0.0666760332730491 145.608555571884 0.0666760332730494 145.608555571884 0.848907769325939 117.955910795047 
16.45                          0.829344820681758 106.140927126924 0.0737455719324581 143.119842655054 0.0737455719324583 143.119842655053 0.838999693115396 115.55563013963  
16.5                           0.817941713257172 103.450650395211 0.081761944698514 140.417234284381 0.0817619446985142 140.417234284381 0.827927614706119 113.052823233425 
16.55                          0.805199962544297 100.642620257226 0.0908653194635711 137.480460965136 0.0908653194635714 137.480460965136 0.815506613767587 110.440256054531 
16.6                           0.790912397462755 97.7095779309479 0.101214780912466 134.286898914551 0.101214780912466 134.286898914551 0.801519776352981 107.710970006737 
16.65                          0.774839558497812 94.6451659001337 0.112988627399202 130.811428995628 0.112988627399202 130.811428995628 0.785714464956087 104.858873226747 
16.7                           0.756708341097658 91.4448834402345 0.12638300468149 127.026413317018 0.12638300468149 127.026413317018 0.767799942450088 101.879686794941 
16.75                          0.73621388458792 88.1075673197039 0.141607768149193 122.901878698244 0.141607768149192 122.901878698244 0.747448026530684 98.7724233764383 
16.8                           0.713027424217377 84.6376367639846 0.158878032714094 118.406036277391 0.158878032714094 118.406036277391 0.724299527019565 95.5416499504549 
16.85                          0.686814215230192 81.0484179111164 0.178399455322818 113.50631251323  0.178399455322818 113.50631251323  0.697980701920652 92.200876372282  
16.9                           0.657267242088213 77.3669253981174 0.20034512862762 108.171106709076 0.200345128627619 108.171106709076 0.668135745233935 88.7775019814223 
16.95                          0.624163692185748 73.6404686680454 0.224822494394338 102.372496602611 0.224822494394338 102.372496602611 0.634482885516425 85.3197980349782 
17                             0.58745081366414 69.9452373314358 0.251830604333757 96.0900375941359 0.251830604333757 96.0900375941362 0.596901800762937 81.9062976532785 
17.05                          0.547363485306602 66.396339971487  0.281212099780612 89.3155757054106 0.281212099780612 89.3155757054108 0.555556508035429 78.6574794906156 
17.1                           0.504564493487575 63.1571397630216 0.312610548827432 82.0585645655579 0.312610548827433 82.0585645655581 0.511047632572616 75.74830668411   
17.15                          0.460277591969358 60.4423810459109 0.345450509500528 74.3507747169044 0.345450509500529 74.3507747169046 0.464568452150618 73.4171399913089 
17.2                           0.416353716362373 58.5037944547798 0.37896027702717 66.2487286198859 0.378960277027171 66.2487286198861 0.418010496362348 71.9603652200418 
17.25                          0.375180108833939 57.5799088169959 0.412249599263132 57.8321167110053 0.412249599263133 57.8321167110054 0.373931095496171 71.6919047428368 
17.3                           0.339332221791403 57.7933343484246 0.44443440746669 49.1972753364127 0.444434407466691 49.1972753364128 0.335268019419757 72.8388389186548 
17.35                          0.310930162786687 59.013353370206  0.474775706472252 40.4465068960086 0.474775706472253 40.4465068960086 0.304703840066442 75.3677280588173 
17.4                           0.290866839570247 60.7802519358145 0.502786890890088 31.6758175296773 0.502786890890088 31.6758175296773 0.283753452676384 78.8347058445941 
17.45                          0.278354653579856 62.4187323646236 0.528274958873382 22.9644098295624 0.528274958873381 22.9644098295624 0.272032704890966 82.4568754635926 
17.5                           0.271197402324137 63.311054559682  0.551310509268169 14.3684616577408 0.551310509268167 14.3684616577407 0.267348418727861 85.4552520810951 
17.55                          0.266631750287587 63.1091534971837 0.572149277750594 5.91991078502841 0.572149277750592 5.9199107850284  0.266641325703723 87.3823347826514 
17.6                           0.262144266706718 61.748058203223  0.591138724342112 -2.37072120001687 0.59113872434211 -2.37072120001681 0.267044053033363 88.1746852951842 
17.65                          0.255882544616218 59.336461753438  0.608636602079337 -10.5092351722302 0.608636602079335 -10.5092351722301 0.26645018995125 88.0101448665545 
17.7                           0.246699227295174 56.046527990787  0.624954532733339 -18.512069875707 0.624954532733338 -18.512069875707 0.263595264414325 87.1580835656739 
17.75                          0.234024146910454 52.0502326741183 0.640327764939163 -26.4011531518021 0.640327764939163 -26.4011531518019 0.257910236356937 85.8975532514847 
17.8                           0.217706065245011 47.495045038192  0.654906056169993 -34.1998255536701 0.654906056169992 -34.19982555367  0.249339376257397 84.4909531036426 
17.85                          0.197881912492528 42.5007623495977 0.668759079880654 -41.9299553987099 0.668759079880654 -41.9299553987099 0.238197800850161 83.1850173142469 
17.9                           0.174883407815241 37.1652558219585 0.681890614392528 -49.6101447003709 0.681890614392529 -49.6101447003708 0.225079905528175 82.2198959137996 
17.95                          0.149173270688511 31.5740875670699 0.694257227595623 -57.2548449869184 0.694257227595624 -57.2548449869185 0.210806773869765 81.8346071331161 
18                             0.121300240860659 25.8151609975135 0.705788372635821 -64.8741924328806 0.705788372635822 -64.8741924328807 0.196393113518873 82.258382762372  
18.05                          0.0918644963171272 20.0109256537956 0.71640557989481 -72.4743856701662 0.716405579894812 -72.4743856701664 0.183007276117401 83.6749211810046 
18.1                           0.0614895290221953 14.4338824583138 0.726038923009849 -80.058444295525 0.726038923009849 -80.0584442955252 0.17188692145936 86.1486685582134 
18.15                          0.0308110325738705 10.2901415642997 0.734639373424551 -87.6271963408473 0.734639373424551 -87.6271963408476 0.16417006777487 89.5262330695108 
18.2                           0.00254588901303887 84.1778422128367 0.742186186061346 -95.1803528938506 0.742186186061345 -95.1803528938509 0.160642267117445 93.3800100797832 
18.25                          0.0296409053605325 167.30315906227  0.748689098242074 -102.717543781352 0.748689098242073 -102.717543781352 0.161502583814939 97.0882652051158 
18.3                           0.0581428316455172 162.886767157563 0.754185785565121 -110.239213281369 0.754185785565119 -110.23921328137 0.166316234028562 100.048231841363 
18.35                          0.0851480190797813 156.762506476536 0.758735564704786 -117.747308272061 0.758735564704784 -117.747308272062 0.174209866609664 101.870284763695 
18.4                           0.110386811718471 150.14118155437  0.762410649910653 -125.245728328854 0.762410649910651 -125.245728328855 0.184173689595757 102.42397192573  
18.45                          0.133716259946589 143.25732321862  0.765286314211499 -132.740541774814 0.765286314211498 -132.740541774814 0.195299690754576 101.763452452815 
18.5                           0.155101680687899 136.178377960174 0.767431113494871 -140.239998190035 0.767431113494871 -140.239998190035 0.206896640114749 100.028499647171 
18.55                          0.174610701780462 128.920705232487 0.768897989893177 -147.754383423803 0.768897989893178 -147.754383423803 0.21851322155877 97.3754685428381 
18.6                           0.192407519696393 121.479226584933 0.769716682184931 -155.295767402968 0.769716682184933 -155.295767402968 0.229917221394185 93.9432805877419 
18.65                          0.208746770173697 113.838220802023 0.769887519922806 -162.877689550538 0.769887519922809 -162.877689550538 0.241061654383018 89.8419731878095 
18.7                           0.223967113310597 105.976834987946 0.769376419383395 -170.514813749341 0.769376419383399 -170.514813749341 0.252051400356214 85.1523724036028 
18.75                          0.238484237598851 97.8730643603022 0.768110761932648 -178.222566706472 0.768110761932652 -178.222566706472 0.263114233384177 79.9302915969226 
18.8                           0.252782361769262 89.5074252183287 0.765975835220081 173.983248006989 0.765975835220085 173.983248006989 0.27457591831264 74.212232337629  
18.85                          0.267402650649934 80.8666291939013 0.762811672237764 166.086891634576 0.762811672237767 166.086891634576 0.286837471552321 68.0214307221634 
18.9                           0.282926408344286 71.9470630917659 0.758410458289111 158.073242902762 0.758410458289114 158.073242902762 0.300352118670792 61.3738466495717 
18.95                          0.299950684807596 62.7575393470419 0.752515218336864 149.928537543604 0.752515218336866 149.928537543604 0.315599288709908 54.2838591127735 
19                             0.31905431663939 53.3206503248427 0.744821248354771 141.641381362359 0.744821248354772 141.641381362359 0.333053081451885 46.7693487950149 
19.05                          0.340753689849983 43.672252745373  0.734982635252725 133.204114010073 0.734982635252725 133.204114010073 0.353143267627167 38.8557547123248 
19.1                           0.365449777841187 33.8591431583707 0.722626980566449 124.614556263179 0.722626980566448 124.614556263179 0.37620842285894 30.5787400835148 
19.15                          0.393371129753598 23.935649842922  0.707381623284557 115.878079639033 0.707381623284557 115.878079639033 0.40244356730471 21.9853350992968 
19.2                           0.424521024824535 13.9602702361202 0.688913534254797 107.009787824684 0.688913534254798 107.009787824685 0.431848593925673 13.1337356446453 
19.25                          0.458640155263636 3.99331748819207 0.666981922990544 98.0364135831246 0.666981922990546 98.036413583125  0.464187960839026 4.09213239453002 
19.3                           0.495197574518083 -5.90414990329031 0.641497349444615 88.9973719588929 0.641497349444617 88.9973719588934 0.498974778776507 -5.06311035519691 
19.35                          0.533420345088982 -15.6706462058224 0.612575047836546 79.944369942698  0.612575047836549 79.9443699426984 0.535491124626042 -14.2498536559188 
19.4                           0.572364863525207 -25.2447863676173 0.580566229406972 70.9391548738563 0.580566229406976 70.9391548738567 0.572849418078055 -23.3832957388184 
19.45                          0.611021054089559 -34.5668088478209 0.546052911601178 62.0494139585615 0.546052911601182 62.0494139585618 0.610087864503005 -32.3798782207391 
19.5                           0.648428834304764 -43.581242259907 0.509800849957206 53.343397129842  0.509800849957208 53.3433971298422 0.646280757442129 -41.1617356468525 
19.55                          0.683780672821531 -52.2401714762361 0.472678578169226 44.884282965615  0.472678578169228 44.8842829656151 0.680638173705799 -49.6610429391439 
19.6                           0.716488490440045 -60.5061935417998 0.435561922200479 36.7254119185185 0.435561922200479 36.7254119185186 0.712573230470038 -57.8234439660544 
19.65                          0.746205667709502 -68.3542581568016 0.399246777644741 28.907214789727  0.39924677764474 28.9072147897271 0.741726893773729 -65.6099278908709 
19.7                           0.772808992428459 -75.772020768167 0.364387365245521 21.4561253282554 0.364387365245518 21.4561253282556 0.767954025915383 -72.9969535385865 
19.75                          0.79635461474825 -82.7588220852502 0.33146664346537 14.3852420759053 0.331466643465366 14.3852420759055 0.791283621648176 -79.9750712844181 
19.8                           0.817024085269602 -89.3237274415412 0.300795692544183 7.69618763996742 0.300795692544179 7.69618763996783 0.811868512622968 -86.5465672976034 
19.85                          0.835073081746737 -95.4831473606667 0.272533241717282 1.38154670561819 0.272533241717277 1.38154670561878 0.829936766382278 -92.7227051388961 
19.9                           0.850789891656521 -101.258475463503 0.246715455336602 -4.57262514379088 0.246715455336597 -4.57262514379001 0.845751813626189 -98.5210274227218 
19.95                          0.864465812106071 -106.67402133329 0.223287998073038 -10.1845481570559 0.223287998073033 -10.1845481570549 0.859583636009735 -103.963004575686 
20                             0.87637650349081 -111.755362624354 0.202135324791015 -15.4748756393679 0.20213532479101 -15.4748756393665 0.871690294795292 -109.072154667578 
20.05                          0.88677193946474 -116.528130004968 0.183104788902908 -20.465292949631 0.183104788902904 -20.4652929496294 0.88230767508777 -113.872642802348 
20.1                           0.8958723736815  -121.017175721405 0.166025012547085 -25.1775180616301 0.166025012547081 -25.1775180616284 0.891645048157345 -118.388303933959 
20.15                          0.903868113228382 -125.246051096578 0.150719005149546 -29.6326325380287 0.150719005149543 -29.6326325380268 0.899884366646438 -122.64200731549 
20.2                           0.910921446184186 -129.236716067185 0.137012961628276 -33.8506663348389 0.137012961628274 -33.8506663348369 0.907181716220662 -126.655279196116 
20.25                          0.917169601338279 -133.00941332281 0.12474175178973 -37.8503675744578 0.124741751789728 -37.8503675744557 0.913669842203667 -130.448110768048 
20.3                           0.922728038692393 -136.582653138996 0.113752009713278 -41.6491011457241 0.113752009713277 -41.649101145722 0.919461066978169 -134.038892872637 
20.35                          0.927693668627483 -139.973268430417 0.103903561335488 -45.2628331696149 0.103903561335487 -45.2628331696129 0.924650199318461 -137.444433311733 
20.4                           0.932147794570332 -143.19651104696 0.0950697524213346 -48.7061699210358 0.095069752421334 -48.7061699210339 0.929317226386788 -140.680024884242 
20.45                          0.936158695227737 -146.266169383695 0.0871370856174262 -51.9924290560352 0.0871370856174258 -51.9924290560335 0.9335296970578  -143.759541957463 
20.5                           0.939783832092695 -149.194694115683 0.0800044528768904 -55.133728008347 0.0800044528768903 -55.1337280083456 0.937344773942709 -146.695550638402 
20.55                          0.943071704513479 -151.993323692252 0.0735821572755347 -58.1410795289026 0.0735821572755345 -58.1410795289013 0.940810968398141 -149.49942284076 
20.6                           0.946063391148493 -154.672204568585 0.0677908513814056 -61.0244879552352 0.0677908513814056 -61.0244879552342 0.943969590240275 -152.181448203473 
20.65                          0.948793821659836 -157.240503404634 0.0625604723453052 -63.7930422911503 0.0625604723453051 -63.7930422911496 0.946855950008186 -154.750940313684 
20.7                           0.951292821386671 -159.706509936067 0.0578292216831394 -66.4550038599799 0.0578292216831395 -66.4550038599796 0.949500351587421 -157.216335349412 
20.75                          0.953585967699841 -162.07773015681 0.0535426161870816 -69.0178874053475 0.0535426161870815 -69.0178874053474 0.951928909934967 -159.585282335522 
20.8                           0.955695291611565 -164.360970021038 0.0496526223614714 -71.4885352276327 0.0496526223614713 -71.488535227633 0.954164224345522 -161.864724884032 
20.85                          0.957639852990946 -166.562410196975 0.0461168778971363 -73.8731843886991 0.0461168778971361 -73.8731843886998 0.956225933157053 -164.060974697185 
20.9                           0.959436212906757 -168.687672570635 0.0428979983031568 -76.1775272809112 0.0428979983031566 -76.1775272809121 0.95813117151333 -166.179777340372 
20.95                          0.96109882238533 -170.741879262765 0.0399629637359414 -78.4067660007337 0.039962963735941 -78.4067660007349 0.959894950003066 -168.226370904687 
21                             0.962640343278487 -172.729704925635 0.0372825794933562 -80.5656610344094 0.0372825794933557 -80.5656610344109 0.961530468744249 -170.205538218301 
21.05                          0.964071913950954 -174.655423053589 0.0348310030267271 -82.6585747818698 0.0348310030267265 -82.6585747818715 0.963049378762704 -172.121653260319 
21.1                           0.965403370050216 -176.522946989218 0.0325853302968837 -84.6895104341934 0.0325853302968831 -84.6895104341953 0.964462000273263 -173.978722399278 
21.15                          0.966643428635631 -178.335866246131 0.0305252346179783 -86.6621466921175 0.0305252346179776 -86.6621466921195 0.965777505644195 -175.780421033097 
21.2                           0.96779984234109 179.902521293804 0.0286326516356664 -88.5798687765092 0.0286326516356657 -88.5798687765115 0.967004073344545 -177.530126155839 
21.25                          0.968879528957379 178.189180812309 0.0268915046729955 -90.4457961414836 0.0268915046729947 -90.445796141486 0.968149017978864 -179.230945324035 
21.3                           0.969888680787193 176.521315176857 0.0252874652850631 -92.2628072602314 0.0252874652850623 -92.2628072602339 0.969218900551566 179.114257555711 
21.35                          0.97083285729782 174.896342367054 0.0238077444546314 -94.0335618145053 0.0238077444546306 -94.0335618145077 0.970219622329161 177.502839243919 
21.4                           0.971717063932888 173.311875366712 0.0224409104144515 -95.7605205821478 0.0224409104144508 -95.7605205821502 0.971156505046001 175.932356660089 
21.45                          0.97254581941225 171.765704225279 0.0211767295877167 -97.4459632835422 0.021176729587716 -97.4459632835444 0.972034359697923 174.400548558583 
21.5                           0.973323213421476 170.255780029637 0.0200060275921241 -99.0920046175899 0.0200060275921234 -99.092004617592 0.972857545764019 172.905319133195 
21.55                          0.974052956248205 168.780200560033 0.0189205676558361 -100.700608690716 0.0189205676558354 -100.700608690718 0.973630022370224 171.44472332629  
21.6                           0.974738421644995 167.337197432489 0.0179129441478311 -102.273602018318 0.0179129441478305 -102.27360201832 0.974355392644053 170.016953645968 
21.65                          0.975382683973721 165.925124555043 0.0169764892345989 -103.812685256755 0.0169764892345984 -103.812685256757 0.975036942295097 168.620328318858 
21.7                           0.975988550504465 164.542447746854 0.0161051909442391 -105.319443805213 0.0161051909442387 -105.319443805214 0.975677673281162 167.253280627315 
21.75                          0.976558589593691 163.187735388072 0.0152936211522163 -106.795357400241 0.015293621152216 -106.795357400242 0.976280333277153 165.9143492983   
21.8                           0.97709515534563 161.859649984805 0.0145368722046126 -108.241808811277 0.0145368722046125 -108.241808811277 0.976847441546888 164.602169827358 
21.85                          0.977600409261864 160.55694054771  0.0138305010686817 -109.66009173275 0.0138305010686816 -109.66009173275 0.977381311721897 163.315466635203 
21.9                           0.978076339302813 159.278435695155 0.0131704800504564 -111.051417957203 0.0131704800504564 -111.051417957203 0.977884071912016 162.053045966708 
21.95                          0.978524776717943 158.023037402643 0.0125531532483355 -112.416923904099 0.0125531532483357 -112.416923904098 0.978357682507012 160.813789452821 
22                             0.978947410946116 156.789715329534 0.011975198022813 -113.757676570403 0.0119751980228133 -113.757676570402 0.978803951974026 159.596648265312 
22.05                          0.979345802841638 155.577501662307 0.0114335908583067 -115.074678961531 0.0114335908583071 -115.07467896153 0.979224550910308 158.400637802398 
22.1                           0.979721396443355 154.385486420653 0.0109255770755654 -116.368875054602 0.0109255770755659 -116.3688750546  0.979621024572812 157.224832850492 
22.15                          0.980075529472268 153.212813178953 0.0104486439242424 -117.641154340195 0.0104486439242431 -117.641154340193 0.979994804074446 156.068363173547 
22.2                           0.98040944271639 152.058675161092 0.0100004966465489 -118.892355983658 0.0100004966465497 -118.892355983655 0.9803472164101  154.930409486969 
22.25                          0.980724288439189 150.92231167131  0.0095790371558149 -120.123272642538 0.00957903715581583 -120.123272642535 0.980679493452959 153.810199777888 
22.3                           0.98102113792896 149.803004827972 0.00918234501949311 -121.334653972753 0.00918234501949411 -121.334653972749 0.980992780042604 152.707005937788 
22.35                          0.981300988290521 148.700076570777 0.00880866047564813 -122.527209852602 0.00880866047564924 -122.527209852598 0.981288141270143 151.620140677232 
22.4                           0.981564768567038 147.612885915146 0.00845636924616731 -123.701613350654 0.00845636924616848 -123.70161335065 0.981566569051846 150.548954695675 
22.45                          0.981813345268231 146.540826430349 0.00812398893954515 -124.858503460789 0.00812398893954642 -124.858503460785 0.981828988070976 149.492834082256 
22.5                           0.982047527371354 145.48332392044  0.00781015686178138 -125.998487625265 0.00781015686178263 -125.998487625261 0.982076261157413 148.451197925994 
22.55                          0.982268070852933 144.439834289252 0.00751361907623086 -127.122144064528 0.00751361907623214 -127.122144064525 0.982309194165989 147.423496116094 
22.6                           0.982475682801988 143.409841572656 0.00723322057263037 -128.23002393057 0.00723322057263161 -128.230023930566 0.982528540407024 146.409207315015 
22.65                          0.982671025159231 142.392856123019 0.00696789642239383 -129.322653298947 0.00696789642239505 -129.322653298944 0.982735004676058 145.407837088779 
22.7                           0.982854718121396 141.388412932315 0.00671666381196733 -130.400535013051 0.00671666381196846 -130.400535013048 0.982929246924252 144.41891618051  
22.75                          0.983027343245173 140.396070081696 0.00647861485885595 -131.464150392887 0.00647861485885698 -131.464150392885 0.983111885606055 143.441998914646 
22.8                           0.98318944628121 139.41540730655  0.00625291012613322 -132.513960819389 0.0062529101261341 -132.513960819387 0.983283500736529 142.476661720446 
22.85                          0.98334153976513 138.446024667143 0.00603877276103695 -133.550409204247 0.00603877276103768 -133.550409204245 0.983444636687077 141.522501764584 
22.9                           0.983484105389479 137.487541315875 0.00583548319182847 -134.573921354241 0.005835483191829 -134.57392135424 0.983595804745089 140.579135683548 
22.95                          0.983617596177833 136.539594353092 0.00564237432460893 -135.584907238211 0.00564237432460921 -135.584907238211 0.983737485460221 139.646198407506 
23                             0.983742438479979 135.601837764088 0.00545882718838183 -136.583762164023 0.00545882718838183 -136.583762164023 0.983870130797573 138.723342068025 
