! Touchstone file exported from HFSS 3D Layout Design 2026.1.0
!        File:           F:/1.Hardware/HFSS/SP8T/SP8T_HFSS.aedt
!        Generated:      11:45:58 PM Aug  6, 2026
!        Design:         RF_IN_cutout
!        Project:        SP8T_HFSS
!
! Variables:
!        BendModel = 0
!
# GHz S MA R 50.000000
! Terminal data exported
! Port[1] = Port1
! Port[2] = S1_1_Pin_T1
0.5                            0.0626233483001755 -100.340440638148 0.99207730492759 -19.473147711498 0.992077304927592 -19.473147711498 0.0628143278830661 -120.198881332866 
0.55                           0.062528278021327 -102.475818613253 0.991643469830189 -21.7498604632648 0.99164346983019 -21.7498604632648 0.0627633253353385 -123.043713528363 
0.6                            0.0628692802271433 -104.617592500243 0.99118104010353 -23.9977993330363 0.991181040103531 -23.9977993330363 0.0631429373857024 -125.806137250703 
0.65                           0.0635348701398687 -106.757099435741 0.990696428666416 -26.2233153086336 0.990696428666418 -26.2233153086336 0.063841403672719 -128.503547257334 
0.7                            0.0644450781348044 -108.887654732341 0.990194232068867 -28.4309902861486 0.990194232068869 -28.4309902861487 0.0647787970631028 -131.149474569888 
0.75                           0.065540883265965 -111.004425545636 0.989677773468696 -30.6242226875221 0.989677773468697 -30.6242226875221 0.0658964102498816 -133.754530631945 
0.8                            0.0667776139416675 -113.104127247415 0.989149455084221 -32.8055936387528 0.989149455084222 -32.8055936387528 0.0671501069472867 -136.327093304572 
0.85                           0.0681206821231917 -115.184688280489 0.988610998947902 -34.9771045523523 0.988610998947902 -34.9771045523524 0.0685060132518649 -138.873811686521 
0.9                            0.0695427412215814 -117.244946157881 0.98806361565202 -37.1403364350816 0.98806361565202 -37.1403364350816 0.0699376437114847 -141.399979681293 
0.95                           0.071021739527998 -119.284395755941 0.987508122341027 -39.2965599568145 0.987508122341027 -39.2965599568145 0.0714239359875946 -143.909812619365 
1                              0.072539550966166 -121.302991520541 0.986945021830715 -41.4468136565485 0.986945021830715 -41.4468136565485 0.072947877227659 -146.406650909349 
1.05                           0.0740809845678848 -123.300996936992 0.986374549310178 -43.5919610429126 0.986374549310178 -43.5919610429125 0.0744955253056902 -148.893107216899 
1.1                            0.0756330440201023 -125.278871775175 0.985796689182421 -45.7327334757339 0.985796689182421 -45.7327334757339 0.0760552995180799 -151.371167894708 
1.15                           0.0771843499938874 -127.237187029041 0.985211160858492 -47.8697633970593 0.985211160858492 -47.8697633970593 0.0776174594624226 -153.842254550549 
1.2                            0.078724661876113 -129.17655728271 0.984617367635751 -50.0036110676072 0.984617367635751 -50.0036110676072 0.079173719511907 -156.30724705987 
1.25                           0.0802444477376527 -131.097579105933 0.984014295770301 -52.1347870908882 0.984014295770302 -52.1347870908882 0.0807169667391864 -158.766464219126 
1.3                            0.0817344544325995 -133.0007604277  0.983400339165481 -54.2637724385915 0.983400339165482 -54.2637724385914 0.082241067764287 -161.219591523054 
1.35                           0.08318522398757 -134.886416844041 0.982773004369577 -56.3910372185729 0.982773004369578 -56.3910372185728 0.0837407708362834 -163.665535624258 
1.4                            0.0845864867703495 -136.754490466918 0.982128412235753 -58.5170587157067 0.982128412235754 -58.5170587157067 0.0852117437119642 -166.102169484809 
1.45                           0.0859263355858773 -138.604201434059 0.981460439636421 -60.642337469651 0.981460439636423 -60.6423374696509 0.086650857596252 -168.525908038726 
1.5                            0.0871900560054989 -140.43333893798 0.98075920407237 -62.7674050210939 0.980759204072372 -62.7674050210939 0.0880569853502639 -170.931020823004 
1.55                           0.0883585106820793 -142.236759395372 0.980008329157502 -64.8928015676507 0.980008329157503 -64.8928015676507 0.0894329600675771 -173.308564416666 
1.6                            0.0894063006893875 -144.003103654499 0.979179988538447 -67.0189551193613 0.979179988538448 -67.0189551193613 0.0907902634328642 -175.644920255088 
1.65                           0.0903016147789482 -145.707537874702 0.978226376749005 -69.145752873573 0.978226376749006 -69.145752873573 0.0921601882137666 -177.920703702962 
1.7                            0.0910168118638702 -147.296537008999 0.977068538351246 -71.2711973964114 0.977068538351246 -71.2711973964113 0.0936192576105917 179.885441888862 
1.75                           0.0915833524719239 -148.664669387837 0.975602497081921 -73.3877447395645 0.975602497081921 -73.3877447395645 0.0953352086425889 177.769638289699 
1.8                            0.0922636830760854 -149.674264971736 0.973822275626634 -75.4760916586333 0.973822275626635 -75.4760916586331 0.0975715373997902 175.607412690367 
1.85                           0.0936967841487155 -150.41378203752 0.972202002688149 -77.5131665351752 0.972202002688152 -77.5131665351751 0.100337450790588 173.048661509059 
1.9                            0.0961108511177974 -151.476441847373 0.97159138278063 -79.5227459950301 0.971591382780631 -79.5227459950302 0.102809259450396 169.896565230736 
1.95                           0.0985733895625175 -153.170181737105 0.971850449773092 -81.5663843016889 0.971850449773092 -81.566384301689 0.104295409213092 166.579601537508 
2                              0.100430015903882 -155.151866093502 0.972167363286505 -83.6544851018559 0.972167363286504 -83.6544851018558 0.105137197660306 163.480215905652 
2.05                           0.101753517954084 -157.1327198012  0.972208819156392 -85.7656156166166 0.972208819156392 -85.7656156166165 0.105796370798584 160.611508109614 
2.1                            0.102745273050421 -159.029781525308 0.971986686437808 -87.8849894910465 0.971986686437809 -87.8849894910465 0.106459253923125 157.885762533426 
2.15                           0.103528534240817 -160.839841937987 0.971571569218484 -90.0066686339287 0.971571569218485 -90.0066686339286 0.10716792385829 155.23880630823  
2.2                            0.104161300654037 -162.575135781891 0.971014715450227 -92.128786740762 0.971014715450228 -92.128786740762 0.107922970192088 152.635942841944 
2.25                           0.104666807457693 -164.245950651206 0.97034349320288 -94.2509463735695 0.970343493202881 -94.2509463735695 0.108719321418093 150.059915903903 
2.3                            0.105050900948402 -165.857338943856 0.969567915932661 -96.3731733837768 0.96956791593266 -96.3731733837769 0.109556295798496 147.50244653426  
2.35                           0.105310585732343 -167.408746086791 0.968685786643549 -98.4954848901034 0.968685786643549 -98.4954848901035 0.110440400899501 144.959494449086 
2.4                            0.105438725596383 -168.89366850432 0.967685745556179 -100.617646062826 0.967685745556178 -100.617646062826 0.111386608967407 142.428335561358 
2.45                           0.105427918919876 -170.298707867387 0.966549376371145 -102.73894237419 0.966549376371143 -102.73894237419 0.112419537696133 139.9051046785   
2.5                            0.105275736252897 -171.602063368493 0.965253907888278 -104.857890684167 0.965253907888276 -104.857890684167 0.113574368556335 137.381895638527 
2.55                           0.10499347385513 -172.772096649743 0.963777643731171 -106.97187080786 0.963777643731168 -106.97187080786 0.11489610948561 134.84279742446  
2.6                            0.10462042145553 -173.767805986827 0.962111142636075 -109.076759055478 0.962111142636073 -109.076759055478 0.116434113054566 132.258802549396 
2.65                           0.104243397944823 -174.545188606813 0.960277224263473 -111.166862798386 0.960277224263471 -111.166862798385 0.118226855138214 129.583046575282 
2.7                            0.104013456688643 -175.075348460319 0.958358709849523 -113.23579874403 0.958358709849522 -113.23579874403 0.120272550193633 126.75085456335  
2.75                           0.104136945196087 -175.376280612399 0.956519574891976 -115.279099539476 0.956519574891977 -115.279099539475 0.12249058524967 123.691977238007 
2.8                            0.104811409505234 -175.542233363326 0.954986880454947 -117.298355657864 0.954986880454949 -117.298355657864 0.124700453806145 120.358739957397 
2.85                           0.106114641957743 -175.732353240646 0.953967824865085 -119.304163879071 0.953967824865086 -119.304163879071 0.126658500944843 116.757447510636 
2.9                            0.107932154405692 -176.100205050664 0.953539185770216 -121.313905267565 0.953539185770215 -121.313905267565 0.128155613002859 112.954676367324 
2.95                           0.110008872114349 -176.715573544646 0.953604406360686 -123.344586682173 0.953604406360685 -123.344586682173 0.129106407256067 109.04524526223  
3                              0.112083844802447 -177.547719782739 0.953957587097511 -125.406688176388 0.953957587097509 -125.406688176388 0.129556717437694 105.106363774532 
3.05                           0.113989574421665 -178.506385039747 0.954384655513867 -127.503490463962 0.954384655513866 -127.503490463962 0.129620536143702 101.17127230308  
3.1                            0.115669155027785 -179.488001290823 0.954721838423978 -129.634403963713 0.954721838423976 -129.634403963713 0.129410055145316 97.2284625130903 
3.15                           0.117148538066513 179.602906088261 0.95485798731127 -131.798795229252 0.954857987311269 -131.798795229252 0.128995369384238 93.2312104201482 
3.2                            0.118510501588362 178.855033199061 0.954705271266544 -133.998781172859 0.954705271266544 -133.998781172859 0.128388666391233 89.1025802159215 
3.25                           0.119894966236004 178.364267683886 0.954154522037535 -136.241446290911 0.954154522037535 -136.241446290911 0.127531503251562 84.7277917638517 
3.3                            0.121545408761468 178.255319914235 0.95300500937124 -138.541775752204 0.95300500937124 -138.541775752204 0.126259270429935 79.9258113083198 
3.35                           0.123956321465354 178.709311027893 0.950812331570435 -140.928117851877 0.950812331570435 -140.928117851877 0.124194065523939 74.3786775336594 
3.4                            0.128315106929455 179.975869786987 0.94645766024729 -143.452281665636 0.946457660247289 -143.452281665636 0.120410857789467 67.4511906454387 
3.45                           0.137936579093133 -177.821904142301 0.936661700713306 -146.195542046848 0.936661700713306 -146.195542046848 0.112230005081466 57.6738663076493 
3.5                            0.162566506457962 -176.391028884578 0.910460228695617 -149.081285607734 0.910460228695622 -149.081285607735 0.0899269380025959 41.1893311264262 
3.55                           0.211277766736712 173.938542527649 0.852730660060968 -149.550184841063 0.852730660060967 -149.550184841064 0.020184203874775 21.6606124519716 
3.6                            0.204661365858916 152.931916873302 0.876396099504461 -146.551377676409 0.876396099504449 -146.551377676409 0.0826811369748242 127.720851253603 
3.65                           0.167933150744212 145.909733649621 0.922472349315592 -148.684656824032 0.922472349315591 -148.684656824031 0.118969229584998 102.672961881024 
3.7                            0.14899974722732 145.330098976894 0.939382588322919 -151.564099721845 0.939382588322921 -151.564099721844 0.128552419883283 89.5243370577239 
3.75                           0.139369103948692 145.691342070113 0.945872974135443 -154.233753380878 0.945872974135444 -154.233753380878 0.131615692720114 81.2045303596786 
3.8                            0.133467320607775 146.024567575952 0.948504391679317 -156.746487018715 0.948504391679315 -156.746487018716 0.132524639021109 75.0740375686758 
3.85                           0.128973146967019 146.403853146794 0.949084159153881 -159.180015289885 0.949084159153879 -159.180015289885 0.1323088146797  70.1909270920177 
3.9                            0.125047113078694 147.362952691478 0.947597098486665 -161.577529212117 0.947597098486663 -161.577529212116 0.131230245682501 66.3662859025517 
3.95                           0.123353244659238 149.886659056882 0.942698628025639 -163.883052964948 0.94269862802564 -163.883052964948 0.130321153419467 64.0368052911777 
4                              0.130253778414453 152.463641763887 0.935955261889752 -165.788825998108 0.935955261889752 -165.788825998108 0.134137197264819 62.7716741274355 
4.05                           0.13989456009593 150.364242060189 0.936630824567155 -167.456012323758 0.936630824567156 -167.456012323758 0.14145111049792 59.2028589227107 
4.1                            0.14270584334525 146.99679269141  0.940825388406708 -169.422172875323 0.940825388406711 -169.422172875323 0.145059982029529 54.4788736437344 
4.15                           0.142577724788528 144.47579406282  0.943614719451455 -171.547737142505 0.943614719451456 -171.547737142505 0.14638215103442 50.2010134297053 
4.2                            0.141965225281775 142.561164234042 0.945098184140491 -173.704133778296 0.945098184140492 -173.704133778296 0.147074051671388 46.3742111738662 
4.25                           0.141440793348924 140.953775521896 0.945838541381559 -175.857603577202 0.94583854138156 -175.857603577202 0.147643315131293 42.8325132163531 
4.3                            0.141091848215871 139.499425533214 0.946159139162152 -178.001834075295 0.946159139162152 -178.001834075295 0.148223636002222 39.4726053351394 
4.35                           0.140904688973756 138.1223258714   0.946228222523715 179.863140480488 0.946228222523715 179.863140480488 0.148847160706868 36.2368922494072 
4.4                            0.140850168086329 136.783468574006 0.946136780988678 177.736033440791 0.946136780988677 177.73603344079  0.149517878754536 33.0920951397861 
4.45                           0.140901762489011 135.461556653    0.945937042054537 175.615511175492 0.945937042054536 175.615511175492 0.150232056338478 30.0178685447621 
4.5                            0.14103829753634 134.144288631349 0.945660761881764 173.500446376083 0.945660761881762 173.500446376083 0.150984221912187 27.0010952674739 
4.55                           0.141243336232505 132.824184005379 0.945328261933329 171.389935000457 0.945328261933328 171.389935000457 0.151768921415221 24.0329269025151 
4.6                            0.141504078398163 131.496474633893 0.944953138056523 169.28326069254  0.944953138056521 169.28326069254  0.152581169123592 21.1071659329711 
4.65                           0.141810403586589 130.157985878058 0.944544846590897 167.179854468793 0.944544846590893 167.179854468793 0.153416493854203 18.2193333214845 
4.7                            0.142154146993052 128.806516702831 0.94411019395849 165.079260801839 0.944110193958489 165.07926080184  0.154270870472651 15.3661046362494 
4.75                           0.142528574217956 127.440483203419 0.943654231632979 162.981111312148 0.943654231632977 162.981111312148 0.155140630973896 12.5449542734747 
4.8                            0.142928004453635 126.058706973404 0.943180814049675 160.885104874894 0.943180814049672 160.885104874894 0.156022383939575 9.75392259067822 
4.85                           0.143347539846932 124.660285984338 0.942692957685556 158.790992648299 0.942692957685554 158.790992648299 0.156912949036697 6.99145863505187 
4.9                            0.143782869919427 123.244513945424 0.942193078562145 156.698566755833 0.942193078562142 156.698566755833 0.157809306040473 4.25631108006    
4.95                           0.144230129078742 121.810828938942 0.941683152937962 154.607651654179 0.941683152937961 154.607651654179 0.158708555903616 1.54745092070184 
5                              0.144685791906855 120.358780187776 0.941164827968896 152.518097475044 0.941164827968896 152.518097475044 0.159607891202622 -1.13598428075739 
5.05                           0.145146595548739 118.888006346592 0.940639498781647 150.429774824249 0.940639498781647 150.429774824249 0.160504573629679 -3.79473111174543 
5.1                            0.145609481722732 117.398221348318 0.940108362242696 148.342570664796 0.940108362242696 148.342570664796 0.16139591663309 -6.42943023355037 
5.15                           0.146071553099003 115.889205435504 0.939572453866006 146.256385015266 0.939572453866007 146.256385015266 0.162279271704257 -9.04064830719848 
5.2                            0.146530040392602 114.360800027107 0.939032671766564 144.171128273235 0.939032671766566 144.171128273235 0.163152017145063 -11.6288937386275 
5.25                           0.14698227776782 112.812905783251 0.938489789736923 142.086719037071 0.938489789736924 142.086719037071 0.164011548459822 -14.194627347211 
5.3                            0.147425685311848 111.245483800192 0.937944460022661 140.003082361057 0.937944460022662 140.003082361057 0.164855269885367 -16.7382684697777 
5.35                           0.147857758742965 109.658560408339 0.937397204939571 137.920148456109 0.937397204939574 137.920148456109 0.165680587176957 -19.2601964290165 
5.4                            0.148276068727777 108.052236628913 0.936848394948757 135.83785197233  0.936848394948759 135.83785197233  0.166484902982288 -21.7607466149029 
5.45                           0.148678276248461 106.426703953329 0.936298209240982 133.756132228404 0.936298209240984 133.756132228403 0.167265618782468 -24.240199555982 
5.5                            0.149062178439745 104.782268442316 0.935746574027803 131.674935197302 0.935746574027806 131.674935197302 0.16802015324967 -26.6987602912574 
5.55                           0.149425814971867 103.119383975292 0.935193076503486 129.594218913695 0.935193076503489 129.594218913695 0.1687459997385  -29.1365245209401 
5.6                            0.149767693805682 101.438688831959 0.934636867921245 127.513965497191 0.934636867921246 127.513965497191 0.16944087263553 -31.5534294269139 
5.65                           0.150087237493135 99.7410163743725 0.934076621989179 125.434205149763 0.934076621989178 125.434205149763 0.170103043009622 -33.9491977129588 
5.7                            0.150385566366969 98.0272846618977 0.933510757695584 123.355058153599 0.933510757695582 123.355058153599 0.170732031825213 -36.3233231965004 
5.75                           0.150666514157719 96.2980326683125 0.932938421672375 121.276790140442 0.932938421672373 121.276790140442 0.171329799144905 -38.6752545180292 
5.8                            0.150936745896223 94.5522759809717 0.932361930098632 119.199828405941 0.932361930098631 119.199828405941 0.171901968719371 -41.0051098160377 
5.85                           0.151201884936825 92.7859975390015 0.931790217153383 117.124595884483 0.931790217153385 117.124595884482 0.172456696231789 -43.3151315634737 
5.9                            0.15145720171163 90.9927362101066 0.931238772011038 115.051065891765 0.93123877201104 115.051065891765 0.172997473519937 -45.6106553133176 
5.95                           0.151683359546357 89.1685607295922 0.93072054239602 112.978438518171 0.930720542396022 112.978438518171 0.173513875694589 -47.8976818769878 
6                              0.151859229394551 87.3160853262737 0.930235385941764 110.905587401537 0.930235385941763 110.905587401536 0.173985220017547 -50.1781636043872 
6.05                           0.151976094583815 85.4413831237215 0.929772531067982 108.831838598063 0.92977253106798 108.831838598063 0.174395581079562 -52.4494611145683 
6.1                            0.152036116443663 83.5491437857249 0.929320896691025 106.757133625881 0.929320896691021 106.757133625881 0.174740045373584 -54.7079726582952 
6.15                           0.152044408284062 81.6415025514846 0.928874263495736 104.681704645989 0.928874263495731 104.681704645988 0.175020064002665 -56.9515279645378 
6.2                            0.152004835774723 79.7190240817424 0.928430612061353 102.605800026273 0.928430612061348 102.605800026273 0.175238273838984 -59.1794494335813 
6.25                           0.151919374293835 77.7816701462523 0.927990097731469 100.529590490876 0.927990097731465 100.529590490875 0.175396423892205 -61.3919002796148 
6.3                            0.151788624346454 75.8292815342294 0.927553675787572 98.4531687553568 0.927553675787568 98.4531687553568 0.175495135109566 -63.5893927886437 
6.35                           0.151612376731895 73.8617500458055 0.927122454471663 96.3765722591639 0.927122454471658 96.3765722591638 0.175534189089731 -65.7725438368413 
6.4                            0.151389992363695 71.8790578742684 0.926697453758443 94.2998037018242 0.926697453758438 94.2998037018243 0.175512837906495 -67.9419764362016 
6.45                           0.151120622911958 69.8812720413443 0.926279541221772 92.2228449111465 0.926279541221771 92.2228449111465 0.175430024627299 -70.0982877105706 
6.5                            0.150803331804421 67.8685279895853 0.925869433449819 90.1456653147271 0.925869433449817 90.1456653147271 0.175284521989827 -72.2420431025873 
6.55                           0.150437158837318 65.8410135515695 0.925467716656056 88.0682269197175 0.925467716656056 88.0682269197175 0.175075015685965 -74.3737795343226 
6.6                            0.150021153993988 63.7989560999633 0.925074869361616 85.990487205728  0.925074869361614 85.9904872057281 0.174800153594792 -76.4940107728033 
6.65                           0.149554394605388 61.7426129569987 0.92469128181358 83.912400807527  0.924691281813579 83.912400807527  0.174458574787865 -78.6032326264076 
6.7                            0.149035993479271 59.672264443505  0.924317271169453 81.8339205023244 0.924317271169453 81.8339205023244 0.174048926623097 -80.7019273019806 
6.75                           0.148465102100468 57.5882089016567 0.923953092899222 79.7549977973954 0.923953092899222 79.7549977973952 0.173569874805158 -82.7905668674449 
6.8                            0.147840911122432 55.4907591505601 0.923598949181893 77.675583287203  0.923598949181891 77.675583287203  0.173020109261042 -84.8696159549284 
6.85                           0.14716264936432 53.3802399748369 0.923254995029593 75.5956268771185 0.923254995029593 75.5956268771185 0.172398347504143 -86.9395338732433 
6.9                            0.146429581986548 51.2569863621208 0.922921342732112 73.5150779298827 0.922921342732112 73.5150779298827 0.171703336480866 -89.0007762809811 
6.95                           0.145641008223571 49.1213422910935 0.922598065072068 71.4338853675407 0.922598065072066 71.4338853675408 0.170933853498703 -91.0537965419766 
7                              0.144796258891264 46.973659932571  0.92228519764307 69.3519977480796 0.92228519764307 69.3519977480796 0.170088706602621 -93.0990468569947 
7.05                           0.143894693796918 44.8142991687181 0.921982740513156 67.2693633281361 0.921982740513156 67.2693633281361 0.169166734628524 -95.1369792429402 
7.1                            0.142935699130185 42.6436273651849 0.921690659409463 65.1859301185089 0.921690659409463 65.1859301185089 0.168166807079456 -97.168046413866 
7.15                           0.141918684885529 40.4620193518593 0.921408886551932 63.1016459364668 0.921408886551933 63.1016459364668 0.16708782391946 -99.1927026057269 
7.2                            0.140843082351253 38.2698575828548 0.921137321229349 61.0164584571914 0.921137321229349 61.0164584571914 0.165928715348746 -101.211404378181 
7.25                           0.139708341691638 36.0675324572761 0.920875830186021 58.930315265709  0.920875830186022 58.930315265709  0.164688441604259 -103.224611420916 
7.3                            0.138513929644037 33.8554427905534 0.92062424786955 56.8431639100613 0.920624247869552 56.8431639100613 0.16336599281744 -105.232787388302 
7.35                           0.137259327350238 31.6339964326677 0.920382376577111 54.754951956109  0.920382376577113 54.754951956109  0.16196038895317 -107.236400784188 
7.4                            0.135944028340119 29.4036110350373 0.920149986528247 52.6656270441421 0.920149986528246 52.6656270441421 0.160470679848869 -109.235925918031 
7.45                           0.134567536684881 27.1647149726955 0.919926815885274 50.5751369473427 0.919926815885275 50.5751369473427 0.158895945369568 -111.231843954044 
7.5                            0.133129365336768 24.9177484330161 0.919712570737313 48.4834296320755 0.919712570737313 48.4834296320755 0.157235295692737 -113.22464407669 
7.55                           0.131629034671889 22.6631646869422 0.919506925060152 46.3904533199358 0.919506925060153 46.3904533199359 0.155487871735386 -115.214824798415 
7.6                            0.130066071252494 20.4014315637079 0.919309520661471 44.2961565514699 0.919309520661471 44.2961565514699 0.153652845735215 -117.20289543933 
7.65                           0.128440006824737 18.1330331556739 0.919119967118705 42.20048825147   0.919119967118705 42.20048825147   0.15172942199718 -119.189377813442 
7.7                            0.126750377567627 15.8584717864054 0.918937841715399 40.1033977957514 0.9189378417154  40.1033977957515 0.149716837816708 -121.174808162526 
7.75                           0.124996723608411 13.5782702828132 0.918762689380632 38.0048350793173 0.918762689380632 38.0048350793174 0.147614364590826 -123.159739386862 
7.8                            0.123178588819196 11.2929746014467 0.918594022635273 35.9047505858272 0.918594022635274 35.9047505858273 0.145421309128728 -125.144743632384 
7.85                           0.121295520909118 9.00315687032081 0.91843132154811 33.8030954582915 0.91843132154811 33.8030954582915 0.143137015173682 -127.130415306871 
7.9                            0.119347071825903 6.70941892159111 0.918274033704425 31.6998215709198 0.918274033704427 31.6998215709199 0.140760865148797 -129.117374614281 
7.95                           0.11733279848031 4.41239640770893 0.918121574189244 29.5948816020627 0.918121574189245 29.5948816020628 0.138292282139997 -131.106271717313 
8                              0.115252263806671 2.1127636154014  0.917973325587157 27.4882291081866 0.917973325587158 27.4882291081868 0.135730732130732 -133.097791665029 
8.05                           0.113105038172822 -0.188760880760394 0.917828638000496 25.379818598838  0.917828638000497 25.3798185988379 0.133075726504508 -135.092660256686 
8.1                            0.110890701153073 -2.49140754856438 0.917686829087464 23.2696056125485 0.917686829087466 23.2696056125483 0.130326824833493 -137.091651057283 
8.15                           0.108608843678879 -4.79434799080814 0.917547184121766 21.1575467936447 0.917547184121767 21.1575467936445 0.127483637974383 -139.095593837989 
8.2                            0.106259070583612 -7.09668552139475 0.917408956075227 19.0435999699302 0.917408956075229 19.0435999699303 0.124545831496765 -141.105384790272 
8.25                           0.103841003560767 -9.39744387085616 0.917271365724905 16.9277242312076 0.917271365724906 16.9277242312076 0.121513129474774 -143.121998962488 
8.3                            0.101354284559354 -11.6955535689261 0.917133601786153 14.8098800086161 0.917133601786155 14.8098800086162 0.11838531868053 -145.146505501013 
8.35                           0.0987985796469451 -13.9898354217319 0.916994821073209 12.6900291547619 0.91699482107321 12.6900291547619 0.115162253228574 -147.180086457502 
8.4                            0.0961735833805207 -16.278980327666 0.91685414868885 10.568135024615  0.91685414868885 10.5681350246149 0.111843859735522 -149.224060167951 
8.45                           0.0934790237392875 -18.5615244423028 0.916710678244747 8.44416255716085 0.916710678244749 8.44416255716095 0.108430143080312 -151.279910544896 
8.5                            0.0907146676936969 -20.8358183847878 0.916563472114262 6.31807835777936 0.916563472114264 6.3180783577793  0.104921192880478 -153.349324090986 
8.55                           0.0878803275135754 -23.0999887408207 0.916411561719406 4.18985078133622 0.916411561719407 4.18985078133631 0.101317190843005 -155.434237099873 
8.6                            0.0849758679593639 -25.3518895089066 0.91625394785387 2.05945001596929 0.916253947853869 2.0594500159691  0.097618419210801 -157.536896449531 
8.65                           0.0820012145596438 -27.5890402793106 0.91608960104405 -0.0731518324582784 0.916089601044051 -0.0731518324581844 0.0938252706174942 -159.659938753967 
8.7                            0.0789563632640065 -29.8085467110753 0.915917461950115 -2.20798065524671 0.915917461950115 -2.2079806552469 0.0899382597995669 -161.806494642841 
8.75                           0.0758413918863001 -32.006997098986 0.915736441809221 -4.34506025512975 0.915736441809222 -4.34506025512984 0.0859580378207253 -163.980327939972 
8.8                            0.0726564739404161 -34.1803262121249 0.9155454229231  -6.48441225994066 0.915545422923099 -6.48441225994073 0.0818854097798654 -166.186024094152 
8.85                           0.0694018957530188 -36.3236336774885 0.915343259192329 -8.62605603571025 0.915343259192329 -8.62605603571047 0.077721357470155 -168.429249359217 
8.9                            0.0660780781707428 -38.4309382203478 0.915128776699617 -10.7700085992332 0.915128776699617 -10.7700085992335 0.0734670692521456 -170.717113615018 
8.95                           0.0626856048573892 -40.4948397905204 0.914900774344625 -12.9162845301369 0.914900774344621 -12.9162845301372 0.069123980711401 -173.058688365316 
9                              0.0592252602619227 -42.5060468223508 0.914658024532777 -15.0648958825026 0.914658024532776 -15.064895882503 0.0646938318824421 -175.465762832721 
9.05                           0.0556980821194694 -44.4527017473182 0.91439927392073 -17.2158520960891 0.914399273920729 -17.2158520960895 0.0601787506825957 -177.953975605282 
9.1                            0.0521054363551487 -46.3193973932664 0.914123244221052 -19.3691599072164 0.914123244221052 -19.3691599072168 0.0555813791944495 179.455442492191 
9.15                           0.0484491275024658 -48.0857068671611 0.913828633068887 -21.5248232593761 0.913828633068884 -21.5248232593766 0.0509050726478807 176.732894390693 
9.2                            0.0447315672173507 -49.72392414816  0.913514114953227 -23.6828432136447 0.913514114953225 -23.6828432136452 0.046154227142238 173.835829677879 
9.25                           0.0409560412859175 -51.1954794428815 0.913178342215605 -25.8432178589815 0.913178342215605 -25.8432178589819 0.0413348470651266 170.700811874374 
9.3                            0.0371271506417885 -52.4450406346328 0.912819946118849 -28.0059422225071 0.912819946118848 -28.0059422225075 0.0364555861878509 167.229051927375 
9.35                           0.0332515749182485 -53.3903898260381 0.912437537988652 -30.1710081798655 0.912437537988647 -30.1710081798661 0.0315297945679412 163.25829511606  
9.4                            0.0293394684686578 -53.9041818399163 0.9120297104306  -32.3384043657886 0.912029710430595 -32.3384043657891 0.0265798975124242 158.503841239627 
9.45                           0.025407181810687 -53.7791804739673 0.911595038625255 -34.5081160849869 0.91159503862525 -34.5081160849875 0.021647802354059 152.422964002379 
9.5                            0.0214829865181179 -52.6577144906939 0.91113208170378 -36.6801252235141 0.911132081703778 -36.6801252235147 0.0168231001282854 143.869824357165 
9.55                           0.0176202438206692 -49.8791049891205 0.910639384206529 -38.8544101607544 0.910639384206526 -38.8544101607551 0.0123320132138509 130.153239768076 
9.6                            0.0139307870854477 -44.1369314362261 0.910115477626809 -41.0309456822057 0.910115477626807 -41.0309456822062 0.00884088127678501 105.11661541466  
9.65                           0.0106754887539198 -32.7968394459408 0.909558882041914 -43.2097028932388 0.909558882041911 -43.2097028932394 0.0079705856296243 65.325754432145  
9.7                            0.00847454710671543 -11.8545368593923 0.908968107833267 -45.3906491340359 0.908968107833261 -45.3906491340364 0.0105051088420448 31.868059692944  
9.75                           0.00832140614518959 16.765186283398  0.90834165749731 -47.5737478959179 0.908341657497309 -47.5737478959184 0.0148562661426841 13.4044093353123 
9.8                            0.0103847762616177 39.5822221336901 0.907678027548494 -49.7589587392959 0.907678027548492 -49.7589587392963 0.0199131603883576 2.69437141511798 
9.85                           0.0137539286910618 52.3143196959273 0.906975710515332 -51.9462372134892 0.90697571051533 -51.9462372134894 0.0252914144494347 -4.48029620197469 
9.9                            0.0177410836174933 58.8162983061086 0.906233197030255 -54.1355347786761 0.906233197030257 -54.1355347786764 0.0308505816714608 -9.86916068129211 
9.95                           0.0220464121939457 62.0290564187966 0.905448978013553 -56.3267987302562 0.905448978013557 -56.3267987302562 0.0365291575912909 -14.2551583621438 
10                             0.0265422205826333 63.4297601057152 0.904621546951161 -58.5199721259172 0.904621546951162 -58.5199721259172 0.0422953791419312 -18.0289869358364 
