! Touchstone file exported from HFSS 3D Layout Design 2026.1.0
!        File:           D:/Work/SIM/ADS_AUTO_SIM/projects/RFSOC_RF/TX_Fillter.aedt
!        Generated:      12:22:12 AM Aug 31, 2026
!        Design:         TX_BAND1_MCFIL_R13_CNN037
!        Project:        TX_Fillter
!
# GHz S MA R 50.000000
! Terminal data exported
! Port[1] = Port1
! Port[2] = Port2
14                             0.969315293947882 -176.375768491633 0.00443914547465267 177.550565815225 0.00443914547465267 177.550565815225 0.970095222034142 -170.797122601659 
14.05                          0.968742401555283 -177.298123065358 0.0045316584229943 177.110160895871 0.00453165842299428 177.110160895872 0.969528932907326 -171.728581105372 
14.1                           0.968151782834282 -178.227500260997 0.00462859496790208 176.685658088843 0.00462859496790208 176.685658088843 0.968945059898205 -172.667158416023 
14.15                          0.967542613909008 -179.164128697654 0.00473028444233401 176.277157409052 0.004730284442334 176.277157409052 0.968342776920182 -173.613076279755 
14.2                           0.966914020039179 179.891751971673 0.0048370861840067 175.884712146584 0.00483708618400672 175.884712146585 0.967721206016452 -174.566567373091 
14.25                          0.966265071693523 178.939890393188 0.00494939258411677 175.508322542919 0.00494939258411678 175.508322542919 0.967079413283469 -175.527875979402 
14.3                           0.965594780257381 177.980022796009 0.0050676324668585 175.147929013339 0.00506763246685853 175.147929013338 0.966416404408028 -176.497258716516 
14.35                          0.964902093334395 177.011872222122 0.00519227483770053 174.80340492871  0.00519227483770052 174.803404928709 0.965731119774905 -177.474985320089 
14.4                           0.964185889597031 176.035147697748 0.0053238330431237 174.474548980048 0.0053238330431237 174.474548980048 0.965022429096444 -178.461339487866 
14.45                          0.963444973134925 175.049543340799 0.00546286938995008 174.161077160994 0.00546286938995009 174.161077160993 0.964289125509135 -179.456619790496 
14.5                           0.962678067243346 174.054737398525 0.00561000027862563 173.862614416286 0.00561000027862563 173.862614416286 0.963529919074945 179.538859344822 
14.55                          0.96188380758639 173.05039120883  0.00576590191200333 173.578686018441 0.00576590191200335 173.57868601844  0.962743429616812 178.524766570875 
14.6                           0.961060734660756 172.036148078022 0.00593131664947902 173.308708749691 0.005931316649479 173.308708749691 0.961928178807996 177.500752469435 
14.65                          0.960207285475736 171.011632066969 0.0061070600859626 173.051981981494 0.00610706008596263 173.051981981493 0.961082581423892 176.466448304067 
14.7                           0.95932178435333 169.976446676753 0.00629402894637077 172.80767875891  0.00629402894637078 172.80767875891  0.960204935651961 175.421464667179 
14.75                          0.958402432738789 168.930173423872 0.00649320989938845 172.574837011207 0.00649320989938843 172.574837011207 0.959293412340452 174.36539001056  
14.8                           0.957447297896082 167.872370293965 0.00670568940951714 172.352351022274 0.00670568940951714 172.352351022274 0.958346043049219 173.297789047469 
14.85                          0.956454300344431 166.802570061706 0.00693266476431429 172.138963303942 0.00693266476431428 172.138963303942 0.957360706745594 172.21820101286  
14.9                           0.955421199870607 165.720278463096 0.00717545643471648 171.933257020852 0.00717545643471646 171.933257020852 0.956335114964629 171.126137766745 
14.95                          0.954345579926673 164.624972204768 0.00743552195100711 171.733649116239 0.0074355219510071 171.733649116239 0.955266795225255 170.021081723878 
15                             0.953224830193488 163.516096793052 0.00771447150601405 171.538384282558 0.00771447150601409 171.538384282558 0.954153072461382 168.902483590839 
15.05                          0.952056127055869 162.393064163487 0.00801408553131107 171.345529908473 0.00801408553131107 171.345529908473 0.952991048188643 167.769759889278 
15.1                           0.950836411694716 161.255250089102 0.00833633453249863 171.152972113425 0.00833633453249864 171.152972113425 0.951777577082371 166.622290241374 
15.15                          0.949562365453531 160.101991343126 0.00868340151718322 170.958412952267 0.00868340151718321 170.958412952267 0.950509240589003 165.459414390527 
15.2                           0.948230382080116 158.932582588772 0.00905770740539182 170.759368835158 0.00905770740539181 170.759368835158 0.949182317129816 164.280428926831 
15.25                          0.946836536376968 157.7462729653   0.00946193987844046 170.553170162152 0.00946193987844046 170.553170162152 0.947792748380739 163.084583682921 
15.3                           0.945376548713964 156.542262335736 0.00989908620060797 170.336962118499 0.00989908620060801 170.336962118499 0.946336101022374 161.871077761292 
15.35                          0.943845744761499 155.319697157218 0.0103724706406017 170.107706516639 0.0103724706406017 170.107706516639 0.944807523247326 160.639055149068 
15.4                           0.942239009688184 154.077665930055 0.0108857972294361 169.86218450592  0.0108857972294361 169.86218450592  0.943201695183727 159.387599870395 
15.45                          0.940550735930436 152.815194176012 0.0114431987212  169.596999902961 0.0114431987212  169.596999902961 0.94151277223985 158.115730619999 
15.5                           0.938774763476847 151.531238890179 0.0120492927771282 169.308582826681 0.0120492927771282 169.308582826681 0.939734320189268 156.822394814034 
15.55                          0.936904311412027 150.22468240385  0.0127092465760469 168.993193254319 0.0127092465760469 168.993193254319 0.937859240592096 155.506461985876 
15.6                           0.934931899225155 148.89432558824  0.013428851271166 168.646924050436 0.0134288512711661 168.646924050436 0.935879684876854 154.166716445112 
15.65                          0.932849256098402 147.538880320529 0.0142146079709546 168.265702961547 0.0142146079709545 168.265702961547 0.933786955078593 152.801849107448 
15.7                           0.930647216038281 146.156961124785 0.015073827228296 167.845293015824 0.0150738272282959 167.845293015824 0.93157138882893 151.410448391699 
15.75                          0.928315596284651 144.747075890892 0.0160147443865351 167.381290720519 0.0160147443865351 167.381290720519 0.929222225706068 149.990990067458 
15.8                           0.925843055910074 143.307615565079 0.0170466535641742 166.869121409077 0.0170466535641741 166.869121409078 0.926727451457382 148.541825923719 
15.85                          0.923216930885166 141.836842696492 0.0181800635742711 166.304031053749 0.018180063574271 166.304031053749 0.924073615878738 147.061171115065 
15.9                           0.920423041107203 140.332878716459 0.0194268796839703 165.681073825831 0.0194268796839703 165.681073825831 0.921245619242531 145.547090028734 
15.95                          0.917445463937985 138.793689821983 0.0208006158392477 164.995094651313 0.0208006158392476 164.995094651313 0.91822646107299 143.997480504278 
16                             0.914266267634701 137.217071334856 0.0223166428254866 164.240705971212 0.0223166428254865 164.240705971212 0.914996943727245 142.410056229581 
16.05                          0.910865196639781 135.600630416036 0.023992478820521 163.412257869387 0.0239924788205209 163.412257869387 0.911535321600002 140.782327135937 
16.1                           0.907219298971146 133.941767036631 0.0258481299340087 162.503800672605 0.0258481299340086 162.503800672605 0.907816884765761 139.111577625731 
16.15                          0.903302483867268 132.237653150052 0.0279064896175767 161.509039055082 0.0279064896175766 161.509039055082 0.903813463434897 137.394842496661 
16.2                           0.899084995335431 130.485210086304 0.0301938072595433 160.421276591531 0.0301938072595431 160.421276591532 0.899492836654624 135.628880488311 
16.25                          0.894532784279288 128.681084316984 0.0327402378015787 159.233349600305 0.0327402378015786 159.233349600305 0.894818025163874 133.810145488232 
16.3                           0.889606758421915 126.821621945171 0.0355804857363122 157.937549007681 0.0355804857363121 157.937549007681 0.889746444166377 131.934755623076 
16.35                          0.884261885331414 124.90284259845  0.0387545581822774 156.525528859218 0.0387545581822772 156.525528859218 0.884228887028906 129.998460767678 
16.4                           0.878446119652629 122.920413906369 0.0423086425627032 154.988200029494 0.0423086425627031 154.988200029494 0.878208305668568 127.996609494878 
16.45                          0.87209912152364 120.869628516761 0.0462961241881002 153.315607680995 0.0462961241881001 153.315607680995 0.871618348013481 125.924117258026 
16.5                           0.865150729870921 118.74538678461  0.0507787568520255 151.496791168606 0.0507787568520255 151.496791168607 0.864381608159509 123.775438793054 
16.55                          0.8575191532704  116.542190055924 0.0558279939298789 149.519625494487 0.0558279939298788 149.519625494487 0.856407542169076 121.544549569802 
16.6                           0.849108844919911 114.254152169366 0.0615264761044456 147.370644273196 0.0615264761044456 147.370644273196 0.847590004558213 119.22494394818  
16.65                          0.839808041490824 111.875040855139 0.0679696511380948 145.034845754468 0.0679696511380949 145.034845754469 0.837804372142687 116.809662007672 
16.7                           0.829485975823099 109.398366771056 0.075267465638786 142.495486205482 0.0752674656387859 142.495486205482 0.826904251185453 114.291363570235 
16.75                          0.817989833130104 106.817546901358 0.0835460105657354 139.733869520251 0.0835460105657354 139.733869520251 0.81471782421632 111.662477833936 
16.8                           0.805141629611889 104.126182223615 0.0929489101418081 136.729149224497 0.0929489101418082 136.729149224498 0.801044006288248 108.915471877901 
16.85                          0.790735381923052 101.318508571768 0.103638103350689 133.458170336646 0.103638103350689 133.458170336646 0.785648780710535 106.043303331259 
16.9                           0.774535250569116 98.3901064077209 0.115793461702668 129.89539539779  0.115793461702668 129.89539539779  0.768262421550905 103.040154710862 
16.95                          0.75627583947458 95.3389914673838 0.129610402817383 126.012983044003 0.129610402817383 126.012983044003 0.748578852670596 99.902592973914  
17                             0.735666583885873 92.1672541343921 0.145294298642657 121.781119787388 0.145294298642657 121.781119787388 0.726259220960578 96.6313613866644 
17.05                          0.712403202744579 88.8834664444587 0.163050084102356 117.168744976296 0.163050084102356 117.168744976296 0.700942939628812 93.2340937480594 
17.1                           0.686190475492758 85.5061162751977 0.183065180073968 112.144848623073 0.183065180073968 112.144848623073 0.672270963680378 89.7293389745646 
17.15                          0.656781824157193 82.0683196382976 0.205483942331324 106.680544922392 0.205483942331324 106.680544922392 0.639927637840006 86.1523770776886 
17.2                           0.624041542041085 78.6239209424476 0.230372833826361 100.752097473536 0.230372833826361 100.752097473536 0.603708377129396 82.5633411469121 
17.25                          0.588033438063147 75.2546596983812 0.257678048029392 94.344943492314  0.257678048029392 94.344943492314  0.563619228698338 79.0580071937246 
17.3                           0.549132761895831 72.0770958546533 0.287181858790768 87.4584757326428 0.287181858790768 87.4584757326428 0.520008750150871 75.7809959963332 
17.35                          0.508144050665665 69.2460832465938 0.318470015612364 80.1108723201675 0.318470015612364 80.1108723201675 0.473720161442375 72.9394451732159 
17.4                           0.46638558652605 66.9485047830166 0.350927448820115 72.3427130556307 0.350927448820115 72.3427130556307 0.426231147150458 70.8111925344528 
17.45                          0.425676791473456 65.3774016505098 0.383778536200624 64.2177687755966 0.383778536200624 64.2177687755967 0.379720975085812 69.7329775394716 
17.5                           0.388153249259739 64.6762769741307 0.416176654323383 55.8196075087198 0.416176654323384 55.8196075087198 0.336971587703642 70.03999849141   
17.55                          0.355863062462452 64.8555827813189 0.447326934522804 47.2437732292384 0.447326934522805 47.2437732292384 0.300978463092473 71.9202037660503 
17.6                           0.330201839724456 65.7170880514883 0.476606658589048 38.5869579794385 0.476606658589049 38.5869579794385 0.27417693980795 75.1946785910221 
17.65                          0.311411820545897 66.8564302754866 0.503643966138781 29.9359221053856 0.503643966138782 29.9359221053855 0.257447800007304 79.1895585931694 
17.7                           0.298458480310552 67.7843338483749 0.528332648490174 21.3590510994798 0.528332648490175 21.3590510994798 0.249549950779532 82.946246243302  
17.75                          0.289406824085966 68.0997229521168 0.550788050731073 12.902277197503  0.550788050731074 12.902277197503  0.247608956870599 85.6867693553138 
17.8                           0.282059300706638 67.5934241670821 0.571269166125424 4.58940853864253 0.571269166125424 4.58940853864248 0.24832365030795 87.0945792384276 
17.85                          0.274488204237351 66.2405419640224 0.590095854063196 -3.57435848223398 0.590095854063197 -3.57435848223398 0.248948746008648 87.243460635215  
17.9                           0.265288823484871 64.1339877214009 0.607581403243597 -11.5973881488762 0.607581403243598 -11.5973881488762 0.247646036245596 86.3944638426142 
17.95                          0.253602834933616 61.4204945469756 0.623988542494987 -19.4964004380655 0.623988542494987 -19.4964004380655 0.243411037953058 84.8509843300841 
18                             0.239031829545591 58.2635452581369 0.639508023185754 -27.2919639670181 0.639508023185755 -27.2919639670181 0.235866993512911 82.8995566621883 
18.05                          0.221528201649948 54.8317742017216 0.654254714471553 -35.005048467239 0.654254714471554 -35.0050484672389 0.225075538153656 80.801971257828  
18.1                           0.201302844106874 51.3057542751037 0.668275450711797 -42.6546770778295 0.668275450711798 -42.6546770778294 0.211404368757781 78.8094844294583 
18.15                          0.178760267190082 47.900581864776  0.681563757737323 -50.2565590569924 0.681563757737324 -50.2565590569923 0.195448976750097 77.184968179063  
18.2                           0.154462094083964 44.9107550297506 0.694077771220316 -57.8225283254708 0.694077771220318 -57.8225283254707 0.177996294132613 76.2269712498952 
18.25                          0.129124337417757 42.800552848364  0.705758604988288 -65.3606078652245 0.70575860498829 -65.3606078652244 0.160019597260298 76.2893494086554 
18.3                           0.103675951710726 42.4013726236624 0.716547077326822 -72.8755301689732 0.716547077326824 -72.8755301689731 0.142693133236257 77.7788926249926 
18.35                          0.0794730228017214 45.3622675412211 0.726397208285746 -80.3695553408951 0.726397208285748 -80.3695553408951 0.127398021513654 81.0860579417979 
18.4                           0.0589428698995792 54.9927419389458 0.735285416942641 -87.8434396469723 0.735285416942642 -87.8434396469723 0.115641463677654 86.3756576785409 
18.45                          0.0468613674809026 75.3835169883929 0.743214941939674 -95.2974222942148 0.743214941939674 -95.2974222942149 0.108755697144821 93.2408314304715 
18.5                           0.0484208792315742 100.462523187165 0.750215643325938 -102.73212076203 0.750215643325938 -102.73212076203 0.107360172506157 100.540864353349 
18.55                          0.060848564531368 116.153856100703 0.756339913033706 -110.149255659357 0.756339913033705 -110.149255659357 0.1109817172734  106.867846859097 
18.6                           0.0774892351004345 122.153373581006 0.761655813376239 -117.552161719784 0.761655813376237 -117.552161719784 0.118304650489407 111.303730347407 
18.65                          0.094715836841711 122.778123896772 0.766238712740425 -124.946076870868 0.766238712740423 -124.946076870868 0.127817495622491 113.651320725614 
18.7                           0.111077715111022 120.540191030537 0.770162598725978 -132.338231017362 0.770162598725976 -132.338231017362 0.138278183591511 114.147940361767 
18.75                          0.126024514794902 116.638721001615 0.773491981723818 -139.737776679871 0.773491981723817 -139.737776679871 0.148846708252042 113.14945851403  
18.8                           0.13941298082772 111.663496573495 0.776274942242302 -147.155613716025 0.7762749422423  -147.155613716025 0.159043056808771 110.97443905615  
18.85                          0.151328118839575 105.920623392047 0.778537503262365 -154.604160769982 0.778537503262364 -154.604160769982 0.168665952044658 107.861253414392 
18.9                           0.162010869248833 99.5755293297258 0.780279180640992 -162.097118591259 0.780279180640991 -162.097118591259 0.17772300313088 103.970858173988 
18.95                          0.171824384305219 92.7203766678457 0.781469310513428 -169.649256688811 0.781469310513428 -169.649256688811 0.186380575931704 99.4016516763691 
19                             0.181235102368812 85.4094331255941 0.782043587863629 -177.276236073959 0.782043587863629 -177.276236073959 0.19492975146343 94.2050965944814 
19.05                          0.19079862639079 77.6800465851186 0.7819001902538  175.005542536143 0.7819001902538  175.005542536143 0.203763385191158 88.3998760450187 
19.1                           0.201144905109609 69.566327613763  0.780894935691776 167.179103812484 0.780894935691777 167.179103812484 0.213360016466173 81.9850890762987 
19.15                          0.212958782504712 61.1079172514613 0.778835190237271 159.227147617546 0.778835190237271 159.227147617546 0.224270647501522 74.9531986337872 
19.2                           0.22695283417408 52.3540595740872 0.775472783877673 151.132490355811 0.775472783877672 151.132490355811 0.237103741783994 67.3026267219918 
19.25                          0.243830368505899 43.3627441800893 0.770497111191535 142.878837765655 0.770497111191532 142.878837765655 0.252502600985124 59.0487483840056 
19.3                           0.264237671371707 34.1956285564879 0.763530951783523 134.45204862668  0.76353095178352 134.45204862668  0.271108649422696 50.2312220460762 
19.35                          0.288705864150187 24.9110571167756 0.754133269474048 125.842035111164 0.754133269474044 125.842035111164 0.293505525691199 40.9158079354045 
19.4                           0.317584312054295 15.5584809388283 0.741814936710962 117.045369042707 0.741814936710957 117.045369042707 0.320143301963628 31.1903671930864 
19.45                          0.350970317813189 6.17696410602173 0.726074025895169 108.068491380929 0.726074025895164 108.068491380928 0.351249466248939 21.1569525365018 
19.5                           0.388644942894957 -3.20156651950379 0.706455435138514 98.9311392290009 0.70645543513851 98.9311392290009 0.386741952612365 10.9233502648918 
19.55                          0.430031615240214 -12.5459141225803 0.682633485584048 89.6692502992251 0.682633485584045 89.669250299225  0.426166902378827 0.596993394558162 
19.6                           0.474198906560411 -21.8189253365528 0.654505445176344 80.3363141250801 0.654505445176342 80.33631412508   0.468686504406807 -9.71787225463101 
19.65                          0.519925370158776 -30.9733339864238 0.622271883587261 71.0021359114122 0.622271883587262 71.0021359114121 0.513136034605554 -19.9210353649304 
19.7                           0.565828548686556 -39.9517859712644 0.586473602456542 61.7484623346712 0.586473602456544 61.748462334671  0.558151631615756 -29.9173110368353 
19.75                          0.61053589701185 -48.6910233964143 0.547962287713506 52.661862881821  0.54796228771351 52.6618628818206 0.602345299048377 -39.6190982724095 
19.8                           0.652855077555848 -57.1286888848688 0.507803816979919 43.8252903365778 0.507803816979924 43.8252903365772 0.644483086629432 -48.9504136459478 
19.85                          0.691898610714746 -65.2104463432301 0.467139179327669 35.3102979540265 0.467139179327673 35.3102979540256 0.683619635208387 -57.8511033935878 
19.9                           0.727136182737494 -72.8953553322037 0.427042996352966 27.1716279097674 0.42704299635297 27.1716279097662 0.719160401130176 -66.2796927494417 
19.95                          0.758375814465012 -80.1584176417488 0.388415548827801 19.4449705362294 0.388415548827803 19.4449705362278 0.750851040423049 -74.2139665382907 
20                             0.785696627833349 -86.9903395212499 0.351926042462867 12.1476564012211 0.351926042462868 12.1476564012194 0.778715710386455 -81.6493095207419 
20.05                          0.809362637623081 -93.3953076731638 0.318004894107926 5.28136467941657 0.318004894107926 5.2813646794147  0.80297361837664 -88.5955109011036 
20.1                           0.829741148793212 -99.3877985774752 0.286870495989939 -1.1642350563244 0.286870495989937 -1.16423505632639 0.823957941869043 -95.0729427115578 
20.15                          0.847238509719668 -104.989269895577 0.258573141396449 -7.20778417886337 0.258573141396446 -7.20778417886536 0.842050665393042 -101.108862928711 
20.2                           0.862256442855489 -110.225257765614 0.233042277235893 -12.8730104308277 0.23304227723589 -12.8730104308296 0.857637291615884 -106.734289974312 
20.25                          0.875166474052784 -115.123101851788 0.210128746782882 -18.1861956616301 0.210128746782879 -18.1861956616319 0.871079477086945 -111.981613773141 
20.3                           0.886297809542523 -119.710315318021 0.189638469780829 -23.1743447120285 0.189638469780826 -23.1743447120302 0.882701249841377 -116.882920761085 
20.35                          0.895934019283948 -124.013510951488 0.171357127626155 -27.8639570313148 0.171357127626152 -27.8639570313164 0.892784305059072 -121.46891707579 
20.4                           0.904314836435349 -128.057758926503 0.155067004323213 -32.2802672991657 0.15506700432321 -32.280267299167 0.901568718701623 -125.768307593514 
20.45                          0.911640508920508 -131.866255278467 0.140557674046479 -36.4468260692277 0.140557674046476 -36.4468260692289 0.90925648949937 -129.80749840089 
20.5                           0.918077094482193 -135.460200584221 0.127632197765724 -40.3853132531552 0.127632197765722 -40.3853132531562 0.916016253068429 -133.610515000018 
20.55                          0.923761783062727 -138.858812576358 0.116110221647109 -44.1155028144754 0.116110221647107 -44.1155028144761 0.921988201159035 -137.199055609182 
20.6                           0.928807783767978 -142.07941829885 0.10582904341278 -47.6553200736529 0.105829043412779 -47.6553200736533 0.927288697963771 -140.592622640802 
20.65                          0.933308587618005 -145.137588843867 0.0966434154966118 -51.0209514125159 0.0966434154966108 -51.0209514125163 0.932014367820519 -143.808694043272 
20.7                           0.937341570264133 -148.047292609443 0.0884246151503112 -54.2269798306513 0.0884246151503107 -54.2269798306515 0.936245590124823 -146.862909824397 
20.75                          0.940970976224292 -150.821052096677 0.0810591335041886 -57.2865294850841 0.0810591335041884 -57.2865294850842 0.940049421976574 -149.769258596484 
20.8                           0.944250359217988 -153.470095417434 0.0744472088762204 -60.2114089601596 0.0744472088762207 -60.2114089601596 0.94348200796605 -152.540255393377 
20.85                          0.947224561848564 -156.004497720354 0.0685013426395347 -63.0122474057918 0.0685013426395352 -63.0122474057917 0.94659054961656 -155.187106186794 
20.9                           0.949931314244403 -158.433310310436 0.0631448779527525 -65.6986205187443 0.0631448779527534 -65.6986205187442 0.949414906638287 -157.719857163808 
20.95                          0.952402522250696 -160.764676814045 0.0583106839959323 -68.2791651215082 0.0583106839959333 -68.279165121508 0.951988895484523 -160.147528426378 
21                             0.95466530511373 -163.005936665959 0.0539399645816054 -70.7616821711036 0.0539399645816066 -70.7616821711034 0.954341341720467 -162.478232695122 
21.05                          0.956742832212389 -165.163716700747 0.0499811955079318 -73.1532286506755 0.0499811955079331 -73.1532286506754 0.956496933493286 -164.719280087301 
21.1                           0.958654999107698 -167.244011873471 0.0463891865842664 -75.4601991255119 0.0463891865842678 -75.4601991255118 0.958476914913358 -166.877270256804 
21.15                          0.960418975276577 -169.25225621719 0.043124259712299 -77.6883978919583 0.0431242597123004 -77.6883978919582 0.960299650801698 -168.958173238888 
21.2                           0.96204964936171 -171.19338513344 0.0401515322963951 -79.8431026844957 0.0401515322963966 -79.8431026844956 0.961981088095359 -170.967400303613 
21.25                          0.963559992469271 -173.07189004907 0.0374402946307157 -81.929120879284 0.0374402946307172 -81.9291208792842 0.963535134149332 -172.909866033065 
21.3                           0.964961355799546 -174.891866384768 0.0349634701503565 -83.9508390711233 0.0349634701503578 -83.9508390711234 0.964973968088217 -174.790042725523 
21.35                          0.966263715519728 -176.657055683279 0.0326971481455407 -85.9122668233004 0.032697148145542 -85.9122668233005 0.966308298088265 -176.612008111044 
21.4                           0.967475875117937 -178.370882648108 0.0306201794759894 -87.8170753072423 0.0306201794759906 -87.8170753072426 0.967547574863662 -178.37948724678 
21.45                          0.96860563337112 179.96351224858  0.0287138268373317 -89.668631467695 0.0287138268373328 -89.6686314676953 0.968700169561536 179.904110648175 
21.5                           0.969659924399821 178.34324401437  0.0269614621351708 -91.4700282728544 0.0269614621351719 -91.4700282728549 0.969773522629995 178.235659757218 
21.55                          0.970644934975181 176.765657742413 0.0253483044668874 -93.2241115391644 0.0253483044668884 -93.2241115391646 0.970774268923976 176.612289056595 
21.6                           0.97156620321229 175.228306142401 0.0238611930727376 -94.9335037579905 0.0238611930727384 -94.933503757991 0.971708343283286 175.031357035701 
21.65                          0.972428701969431 173.728929622863 0.022488390387529 -96.600625296049 0.0224883903875296 -96.6006252960495 0.972581069999185 173.490429318725 
21.7                           0.973236909628046 172.265438601595 0.0212194110022242 -98.2277132928802 0.0212194110022247 -98.2277132928807 0.973397238935096 171.987258817577 
21.75                          0.973994870416577 170.835897764925 0.0200448729361549 -99.8168385363138 0.0200448729361553 -99.8168385363139 0.974161170548056 170.519768096457 
21.8                           0.974706246034178 169.438512034239 0.018956368132585 -101.369920560039 0.0189563681325852 -101.36992056004 0.974876771642654 169.086033671928 
21.85                          0.97537436000526 168.071614030771 0.0179463495314746 -102.888741175533 0.0179463495314747 -102.888741175533 0.975547583356379 167.684272009676 
21.9                           0.976002235935521 166.733652857535 0.0170080324519536 -104.374956622977 0.0170080324519536 -104.374956622977 0.97617682260763 166.312827011256 
21.95                          0.976592630630906 165.423184041334 0.016135308341217 -105.830108502019 0.0161353083412168 -105.830108502019 0.976767418021545 164.970158811619 
22                             0.977148062872221 164.138860498385 0.0153226692237053 -107.255633622577 0.015322669223705 -107.255633622576 0.977322041173765 163.654833731905 
22.05                          0.977670838501609 162.879424404813 0.0145651414211011 -108.65287289815 0.0145651414211007 -108.652872898149 0.977843133850021 162.365515252286 
22.1                           0.978163072366121 161.643699868567 0.0138582273156902 -110.023079388692 0.0138582273156896 -110.02307938869 0.978332931903406 161.100955887108 
22.15                          0.978626707573222 160.430586312409 0.013197854102051 -111.367425586792 0.0131978541020504 -111.36742558679 0.978793486196203 159.859989859647 
22.2                           0.979063532439035 159.239052488983 0.0125803286192288 -112.68701002941 0.0125803286192281 -112.687010029408 0.979226681035157 158.641526486741 
22.25                          0.97947519544937 158.068131058766 0.0120022974812671 -113.982863307382 0.0120022974812664 -113.98286330738 0.979634250444768 157.444544194766 
22.3                           0.979863218503447 156.916913670138 0.0114607118314214 -115.255953536257 0.0114607118314206 -115.255953536253 0.980017792569963 156.268085098069 
22.35                          0.980229008668815 155.78454648819  0.0109527961372974 -116.50719134447 0.0109527961372965 -116.507191344466 0.980378782455383 155.111250079402 
22.4                           0.98057386864151 154.670226125199 0.0104760205228625 -117.737434428293 0.0104760205228617 -117.737434428289 0.980718583411719 153.973194319099 
22.45                          0.980899006076861 153.573195931287 0.010028076200749 -118.947491717241 0.0100280762007482 -118.947491717236 0.981038457148789 152.853123226101 
22.5                           0.981205541932344 152.492742608553 0.00960685362616618 -120.138127188644 0.00960685362616536 -120.138127188639 0.981339572829302 151.750288729395 
22.55                          0.981494517943804 151.428193116202 0.00921042304349476 -121.310063365663 0.00921042304349398 -121.310063365657 0.981623015175537 150.663985893222 
22.6                           0.98176690333941 150.378911837842 0.00883701713944179 -122.463984529226 0.00883701713944104 -122.46398452922 0.9818897917429  149.593549823602 
22.65                          0.982023600881428 149.344297985351 0.0084850155535102 -123.600539670951 0.00848501555350951 -123.600539670945 0.982140839458816 148.538352837357 
22.7                           0.982265452313782 148.323783216527 0.00815293102835245 -124.720345211167 0.00815293102835184 -124.720345211161 0.982377030512272 147.497801868019 
22.75                          0.982493243283072 147.316829446212 0.00783939701005694 -125.823987503522 0.0078393970100564 -125.823987503517 0.982599177668115 146.47133608584  
22.8                           0.982707707791957 146.322926832747 0.00754315653218912 -126.912025145371 0.00754315653218869 -126.912025145366 0.982808039070678 145.458424711544 
22.85                          0.982909532236296 145.341591923549 0.00726305223800123 -127.984991111047 0.00726305223800089 -127.984991111042 0.983004322593072 144.458565005692 
22.9                           0.983099359071022 144.372365945292 0.00699801741308726 -129.043394723392 0.00699801741308703 -129.043394723389 0.98318868978148 143.471280417394 
22.95                          0.983277790144182 143.414813225662 0.0067470679162758 -130.087723477221 0.00674706791627569 -130.08772347722 0.98336175943774 142.496118877829 
23                             0.983445389733816 142.468519734979 0.00650929491005044 -131.118444727046 0.00650929491005048 -131.118444727046 0.983524110878242 141.53265122552  
