! Touchstone file exported from HFSS 3D Layout Design 2026.1.0
!        File:           D:/Work/SIM/ADS_AUTO_SIM/projects/RFSOC_RF/TX_Fillter.aedt
!        Generated:      09:09:25 PM Aug 30, 2026
!        Design:         TX_B1_R1_CNN001_ALUMINA_BB
!        Project:        TX_Fillter
!
# GHz S MA R 50.000000
! Terminal data exported
! Port[1] = Port1
! Port[2] = Port2
14                             0.96684930140501 178.180803619937 0.00562035354860619 137.286701266286 0.00562035354860619 137.286701266286 0.967302718100526 77.2731131386059 
14.05                          0.966241035530377 177.198402490518 0.00571476059292053 136.730836680341 0.00571476059292055 136.730836680341 0.967039094528378 76.3594902921088 
14.1                           0.965615054967844 176.208329671038 0.00581322931348451 136.184858137599 0.00581322931348453 136.184858137599 0.966771748140373 75.446167599778  
14.15                          0.96497060387527 175.210355242418 0.00591601043359538 135.648653019466 0.00591601043359539 135.648653019466 0.966500552636267 74.5331016151824 
14.2                           0.964306883841593 174.204239065767 0.0060233727974153 135.122081229322 0.00602337279741533 135.122081229322 0.966225372370933 73.6202475945601 
14.25                          0.96362305090556 173.189730215346 0.00613560484697225 134.604973213301 0.00613560484697227 134.604973213301 0.965946061768615 72.7075594337646 
14.3                           0.962918212323314 172.166566373036 0.00625301623213452 134.097127919368 0.00625301623213456 134.097127919368 0.965662464684467 71.7949896002652 
14.35                          0.962191423059972 171.134473181175 0.00637593956690381 133.598310701961 0.00637593956690385 133.598310701961 0.965374413707839 70.8824890597853 
14.4                           0.961441681977526 170.093163550325 0.00650473234689969 133.108251180727 0.00650473234689973 133.108251180727 0.965081729401132 69.97000719712   
14.45                          0.960667927688155 169.042336918189 0.00663977904464118 132.626641063022 0.00663977904464122 132.626641063021 0.964784219467271 69.0574917306295 
14.5                           0.959869034038436 167.981678455528 0.00678149340119144 132.153131941009 0.00678149340119149 132.153131941009 0.964481677838036 68.1448886198555 
14.55                          0.95904380518583 166.910858214525 0.00693032093495955 131.687333075271 0.00693032093495959 131.687333075271 0.964173883674466 67.2321419656498 
14.6                           0.958190970224164 165.829530214572 0.00708674169098392 131.228809177716 0.00708674169098395 131.228809177716 0.963860600269497 66.3191939021451 
14.65                          0.957309177309499 164.737331459935 0.0072512732569037 130.777078207374 0.00725127325690376 130.777078207374 0.963541573841695 65.4059844798257 
14.7                           0.956396987231783 163.633880883196 0.00742447407510954 130.331609193111 0.00742447407510959 130.331609193111 0.963216532207503 64.492451538882  
14.75                          0.955452866370749 162.518778207714 0.00760694708431335 129.891820097555 0.00760694708431339 129.891820097555 0.962885183317777 63.5785305719428 
14.8                           0.954475178966692 161.391602721614 0.00779934372806261 129.457075736323 0.00779934372806264 129.457075736323 0.962547213642439 62.6641545751889 
14.85                          0.953462178627678 160.251911955038 0.00800236837262789 129.026685766093 0.00800236837262793 129.026685766092 0.962202286384887 61.7492538867386 
14.9                           0.952411998984464 159.099240251434 0.00821678318231109 128.599902753951 0.00821678318231115 128.599902753951 0.961850039505277 60.8337560110807 
14.95                          0.951322643392431 157.933097222665 0.00844341350666782 128.175920338863 0.00844341350666786 128.175920338863 0.961490083528803 59.9175854281956 
15                             0.950191973566182 156.752966076554 0.00868315384154157 127.753871493829 0.00868315384154161 127.753871493829 0.961121999111734 59.000663385855  
15.05                          0.949017697016608 155.55830180416  0.00893697443432418 127.332826894412 0.00893697443432421 127.332826894412 0.960745334333978 58.0829076734267 
15.1                           0.947797353141918 154.34852921261  0.0092059286136628 126.911793395699 0.00920592861366285 126.911793395699 0.960359601682325 57.1642323753194 
15.15                          0.946528297802923 153.123040787631 0.00949116093514305 126.48971261538  0.00949116093514308 126.489712615381 0.959964274683165 56.2445476020015 
15.2                           0.945207686188211 151.881194368017 0.00979391624753445 126.065459615508 0.00979391624753449 126.065459615508 0.959558784137156 55.3237591962877 
15.25                          0.943832453746121 150.62231061209  0.0101155497992811 125.637841669566 0.0101155497992811 125.637841669566 0.959142513900954 54.4017684123321 
15.3                           0.942399294926977 149.345670233763 0.0104575385223995 125.205597094771 0.0104575385223995 125.205597094771 0.958714796152454 53.4784715644751 
15.35                          0.940904639439808 148.050510982968 0.0108214936512134 124.767394122032 0.0108214936512134 124.767394122032 0.958274906065778 52.5537596427678 
15.4                           0.939344625681872 146.736024342014 0.0112091748568906 124.321829767731 0.0112091748568907 124.321829767731 0.957822055810235 51.6275178916407 
15.45                          0.9377150709453  145.401351905736 0.0116225061061181 123.867428662493 0.0116225061061181 123.867428662493 0.957355387773187 50.6996253477844 
15.5                           0.936011437941555 144.045581409077 0.0120635934841341 123.402641782357 0.0120635934841341 123.402641782357 0.956873966889915 49.7699543328721 
15.55                          0.93422879710925 142.667742360876 0.0125347452595314 122.925845017325 0.0125347452595314 122.925845017325 0.956376771943441 48.8383698962717 
15.6                           0.932361784081928 141.266801237073 0.0130384945117056 122.435337501081 0.0130384945117055 122.435337501081 0.955862685673345 47.9047292023675 
15.65                          0.930404551586726 139.841656180083 0.0135776246926811 121.929339613726 0.0135776246926811 121.929339613727 0.955330483503985 46.968880856547  
15.7                           0.928350714919156 138.391131143702 0.014155198554663 121.405990556664 0.014155198554663 121.405990556664 0.95477882066824 46.0306641632929 
15.75                          0.926193289989198 136.913969414325 0.0147745909446263 120.86334538505  0.0147745909446263 120.86334538505  0.954206217461693 45.089908309189  
15.8                           0.923924622754354 135.408826429375 0.0154395260495029 120.299371368487 0.015439526049503 120.299371368487 0.95361104231257 44.1464314629862 
15.85                          0.92153630864001 133.87426180241  0.0161541197723136 119.711943534497 0.0161541197723136 119.711943534497 0.952991492292839 43.2000397842292 
15.9                           0.919019100288385 132.308730451127 0.0169229280336321 119.098839231532 0.0169229280336321 119.098839231532 0.952345570623351 42.2505263313361 
15.95                          0.916362801665056 130.710572709175 0.0177510019272505 118.457731528366 0.0177510019272505 118.457731528366 0.951671060637934 41.2976698595161 
16                             0.9135561461744  129.078003285013 0.0186439508176028 117.786181244173 0.0186439508176028 117.786181244173 0.950965495564291 40.341233498585  
16.05                          0.910586655977722 127.409098910579 0.0196080146538165 117.081627377658 0.0196080146538165 117.081627377658 0.950226123349102 39.3809633007186 
16.1                           0.907440479151882 125.70178449899  0.0206501469963218 116.341375673532 0.0206501469963217 116.341375673532 0.949449865595298 38.416586648641  
16.15                          0.904102200649501 123.953817603425 0.0217781105126458 115.562585029304 0.0217781105126458 115.562585029305 0.948633269484424 37.4478105159526 
16.2                           0.900554622196137 122.162770938392 0.0230005870060254 114.742251403699 0.0230005870060253 114.742251403699 0.947772451317778 36.4743195736095 
16.25                          0.89677850525098 120.326012689449 0.0243273044010992 113.877188838502 0.0243273044010992 113.877188838502 0.946863030016547 35.4957741405346 
16.3                           0.892752269922904 118.440684297949 0.0257691835330022 112.964007146831 0.0257691835330022 112.964007146831 0.945900048560529 34.511807982707  
16.35                          0.888451641221628 116.503675363674 0.0273385080773696 111.999085750812 0.0273385080773696 111.999085750813 0.944877880902241 33.5220259749758 
16.4                           0.883849232171083 114.51159526089  0.0290491215258561 110.97854306859  0.0290491215258562 110.978543068591 0.943790121349634 32.5260016548173 
16.45                          0.878914051043746 112.4607410139   0.0309166557589017 109.898200752436 0.0309166557589017 109.898200752436 0.942629452744954 31.5232747195945 
16.5                           0.873610917202128 110.347060929514 0.0329587964934562 108.75354196467  0.0329587964934562 108.753541964671 0.941387488954891 30.5133485518074 
16.55                          0.867899766655711 108.166113441142 0.0351955916771469 107.539662744615 0.0351955916771469 107.539662744616 0.940054586201584 29.4956879050125 
16.6                           0.861734824348956 105.913020591448 0.0376498097336325 106.251215367439 0.0376498097336325 106.251215367439 0.93861961657945 28.4697169532225 
16.65                          0.855063615279497 103.582415582572 0.0403473553793508 104.882342425942 0.0403473553793509 104.882342425943 0.937069695698712 27.4348180082923 
16.7                           0.847825780717407 101.168383879239 0.0433177514244969 103.426600183885 0.043317751424497 103.426600183885 0.935389854768318 26.3903313568536 
16.75                          0.839951659027377 98.6643975002877 0.0465946953586729 101.876869565056 0.046594695358673 101.876869565056 0.933562645607283 25.335556880568  
16.8                           0.831360582986494 96.0632424422062 0.0502166992989973 100.225252976717 0.0502166992989974 100.225252976717 0.931567665148825 24.269758429125  
16.85                          0.821958837396221 93.356939746756  0.054227820546333 98.4629550561387 0.054227820546333 98.4629550561388 0.929380984191569 23.1921723547425 
16.9                           0.811637213034725 90.5366617187611 0.0586784867525694 96.5801454381905 0.0586784867525694 96.5801454381906 0.926974463888268 22.1020222466157 
16.95                          0.800268087252972 87.5926464849121 0.0636264132833099 94.5658018758831 0.0636264132833099 94.5658018758831 0.924314943552056 20.9985428025635 
17                             0.787701960912194 84.5141168882465 0.0691375987993857 92.4075326760955 0.0691375987993859 92.4075326760956 0.921363286247941 19.8810170499514 
17.05                          0.77376339149377 81.2892143302217 0.0752873653747279 90.0913787136124 0.0752873653747279 90.0913787136124 0.91807327682859 18.748832918557  
17.1                           0.75824629279036 77.9049657371065 0.0821613771337374 87.6015976866633 0.0821613771337374 87.6015976866634 0.914390384796258 17.6015676452533 
17.15                          0.740908638947069 74.3473142094515 0.0898565199363701 84.9204374316362 0.0898565199363702 84.9204374316363 0.910250438566998 16.4391118367369 
17.2                           0.721466741484763 70.6012642361088 0.0984814450862046 82.0279119954629 0.0984814450862047 82.027911995463  0.905578319403266 15.2618493652755 
17.25                          0.699589504566883 66.6512259330805 0.10815646088058 78.9016051528365 0.10815646088058 78.9016051528366 0.900286889219251 14.0709145574557 
17.3                           0.674893470131141 62.4816988904852 0.119012284328092 75.5165429872173 0.119012284328092 75.5165429872173 0.894276540432624 12.8685537644045 
17.35                          0.646940131447915 58.0785317316795 0.131186932092899 71.8452021885663 0.131186932092899 71.8452021885663 0.887436027970409 11.6586226016441 
17.4                           0.615238037759379 53.4311606306903 0.144819739806885 67.8577557643587 0.144819739806885 67.8577557643588 0.879645641977224 10.4472487757361 
17.45                          0.579253757945941 48.536534807044  0.160041195413791 63.5227030473407 0.160041195413791 63.5227030473407 0.870784308374319 9.24367504478948 
17.5                           0.538437899849178 43.4060265202449 0.176957077796184 58.808081328039  0.176957077796185 58.808081328039  0.860742786513065 8.0612523154254  
17.55                          0.492275060944083 38.0778576952154 0.195625567840884 53.6834964675713 0.195625567840884 53.6834964675713 0.849445505247469 6.91845577883674 
17.6                           0.440369708083658 32.6404309591212 0.216026995403295 48.1232049623991 0.216026995403295 48.1232049623991 0.836883133502303 5.83962025850496 
17.65                          0.382584212109571 27.2793649900882 0.238028294759785 42.1103706197835 0.238028294759785 42.1103706197834 0.823155648881134 4.85482532494914 
17.7                           0.319256610174511 22.3829047113725 0.261348477724957 35.6423286343874 0.261348477724957 35.6423286343874 0.808520134131155 3.9980687676679  
17.75                          0.251577311952055 18.8147081088823 0.285536954823995 28.7361686040247 0.285536954823995 28.7361686040247 0.793428361688214 3.30276886361479 
17.8                           0.18247217242023 18.7539575148065 0.309980773432196 21.4332685766232 0.309980773432196 21.4332685766232 0.778529267950917 2.79415207156071 
17.85                          0.11984525549773 28.5873663816961 0.333954994316213 13.8008789251726 0.333954994316213 13.8008789251726 0.764609098911929 2.47962454505405 
17.9                           0.088904202013316 61.0804274528528 0.356718092686944 5.92898259114454 0.356718092686944 5.92898259114456 0.75245876648102 2.34053618629098 
17.95                          0.117712830817874 93.0892116023203 0.377633198568123 -2.07815234923174 0.377633198568123 -2.0781523492317 0.742696146614011 2.33020723191739 
18                             0.174881464584148 102.097808024779 0.396277721596203 -10.1143056411045 0.396277721596203 -10.1143056411045 0.735609972325008 2.38141594948081 
18.05                          0.23498132064606 100.918179190879 0.412503332052204 -18.0843380380965 0.412503332052204 -18.0843380380964 0.731095800931239 2.42153542732835 
18.1                           0.290325813681418 95.8552817614269 0.426429189410261 -25.9144013748411 0.426429189410261 -25.9144013748411 0.728709543043521 2.38876914275415 
18.15                          0.338248720988184 89.060577742162  0.438380206262863 -33.5571334574015 0.438380206262863 -33.5571334574014 0.727802566690806 2.24271931515535 
18.2                           0.3778325321688  81.3821924668156 0.448800155156984 -40.9917149048456 0.448800155156985 -40.9917149048456 0.727671993192586 1.96672575043507 
18.25                          0.408998159911372 73.1915469240998 0.458169009059934 -48.2202406776159 0.458169009059934 -48.2202406776158 0.727674062874572 1.56396795687527 
18.3                           0.43210577943249 64.6518833119967 0.466941580470803 -55.2623645282637 0.466941580470803 -55.2623645282637 0.727283049901179 1.0511001485417  
18.35                          0.447724384007642 55.8218465813973 0.475511063680937 -62.1498252296799 0.475511063680937 -62.1498252296799 0.726105063174727 0.452375606029122 
18.4                           0.456491473667046 46.7011773410039 0.484192738518427 -68.9217870924505 0.484192738518428 -68.9217870924505 0.723865783779619 -0.204414940017019 
18.45                          0.459033816148438 37.2524125459446 0.493220376015241 -75.6213238015151 0.493220376015241 -75.6213238015151 0.720389024691072 -0.89008032510714 
18.5                           0.455931444622306 27.410928841789  0.502748599086963 -82.2929937502601 0.502748599086963 -82.2929937502601 0.715576933083735 -1.57467122019841 
18.55                          0.44771247065253 17.0882907356193 0.512856379327674 -88.981278877037 0.512856379327674 -88.981278877037 0.709397374379385 -2.22715406615846 
18.6                           0.434871371146251 6.17092572160077 0.523548734306695 -95.7296122902491 0.523548734306695 -95.7296122902491 0.701880851518236 -2.81457032045749 
18.65                          0.417908680964393 -5.48521343183156 0.534755114727786 -102.579733589255 0.534755114727786 -102.579733589255 0.693127842479692 -3.30106482737233 
18.7                           0.397395573879692 -18.063925759127 0.546323992296185 -109.571140891368 0.546323992296185 -109.571140891368 0.683326816201776 -3.64718332184419 
18.75                          0.374072765819939 -31.8015390948406 0.558014018287843 -116.740434671754 0.558014018287843 -116.740434671754 0.672782485847616 -3.80997688042225 
18.8                           0.348998513098159 -46.9999871097181 0.56948310368352 -124.120367071125 0.56948310368352 -124.120367071125 0.661952090092013 -3.74471120124354 
18.85                          0.3237589452659  -64.0278522754896 0.580278123848073 -131.738430473848 0.580278123848073 -131.738430473848 0.65148354947749 -3.40928702132713 
18.9                           0.300722980304032 -83.2743963826817 0.589829790200691 -139.614861239115 0.589829790200691 -139.614861239115 0.642242310132397 -2.77258195909888 
18.95                          0.283209522028749 -104.987326195204 0.597459352801787 -147.760028254621 0.597459352801787 -147.760028254621 0.63530409597162 -1.82726537071609 
19                             0.27520039721255 -128.947194407199 0.602405395471735 -156.171352853989 0.602405395471734 -156.171352853989 0.631883188738263 -0.605437489359909 
19.05                          0.280160224980801 -154.177506756653 0.603878447926504 -164.830178434465 0.603878447926503 -164.830178434465 0.633171077352987 0.808498255558022 
19.1                           0.299345520748588 -179.189879791551 0.601146356344073 -173.699330872739 0.601146356344073 -173.699330872739 0.640091571304424 2.27696753527249 
19.15                          0.331141274309209 157.243936390434 0.59364308167346 177.277648957431 0.59364308167346 177.277648957431 0.653034729991438 3.62812554790401 
19.2                           0.372069632345491 135.631471911027 0.581079794018307 168.17466928803  0.581079794018306 168.17466928803  0.671679334852011 4.69243961751629 
19.25                          0.41825485704187 115.931457297235 0.563526438754361 159.078225199295 0.56352643875436 159.078225199295 0.695000640126245 5.34218185182939 
19.3                           0.466306985376049 97.8968767142987 0.541433193236786 150.079998102014 0.541433193236785 150.079998102014 0.721475689466345 5.51563636094442 
19.35                          0.513626679648114 81.2746167679523 0.515578395159393 141.268347335778 0.515578395159392 141.268347335778 0.749401170205799 5.21783752669543 
19.4                           0.558427347812395 65.8667733761668 0.486955827167077 132.720584280562 0.486955827167077 132.720584280562 0.777200234431937 4.50332876551268 
19.45                          0.599643347344175 51.5303157788327 0.45663513719592 124.49761625943  0.45663513719592 124.49761625943  0.803628354705749 3.4526856062612  
19.5                           0.636788919359394 38.1608716111591 0.425633466462416 116.641665742249 0.425633466462416 116.641665742249 0.827852716155548 2.15222031319862 
19.55                          0.669800814933596 25.6776120130907 0.394824540287701 109.176805711847 0.394824540287701 109.176805711848 0.849430215568264 0.680811775058198 
19.6                           0.698889738817911 14.0130819538565 0.364893265179546 102.111434635382 0.364893265179546 102.111434635382 0.868228813012889 -0.896375999125223 
19.65                          0.724417656480668 3.10741496854599 0.336329279952759 95.4416706993556 0.336329279952759 95.4416706993557 0.884332376935396 -2.52930726970245 
19.7                           0.746807874212245 -7.09454382741658 0.309446220742639 89.1548403707944 0.30944622074264 89.1548403707944 0.897954361713281 -4.18176692490645 
19.75                          0.766486410960661 -16.6444727737155 0.284413497482194 83.2325571662915 0.284413497482195 83.2325571662916 0.90937124428155 -5.82892144713178 
19.8                           0.78384856148567 -25.5910021560289 0.261290819946001 77.6531765873848 0.261290819946002 77.6531765873848 0.918877033696947 -7.4546980410266 
19.85                          0.799243327568136 -33.9798101829482 0.240059751631899 72.3936086661887 0.2400597516319  72.3936086661886 0.926755471092994 -9.04944484821348 
19.9                           0.812969201968377 -41.8536233415922 0.220649778256319 67.4305713014193 0.22064977825632 67.4305713014192 0.93326518809838 -10.6080347443853 
19.95                          0.825276375895936 -49.2522230922286 0.202958410900855 62.7414028325147 0.202958410900855 62.7414028325146 0.938633462620874 -12.1284181575084 
20                             0.836372040932872 -56.2124924555907 0.18686589531905 58.3045501156004 0.186865895319051 58.3045501156003 0.943055197720794 -13.6105632377527 
20.05                          0.846426742848019 -62.7685054128416 0.172245502249417 54.0998298416871 0.172245502249417 54.099829841687  0.946694774516268 -15.0557033414741 
20.1                           0.855580653382235 -68.9516506822387 0.158970417292152 50.1085383192242 0.158970417292152 50.108538319224  0.949689266513452 -16.4658161576463 
20.15                          0.863949210836829 -74.7907789266089 0.146918127676316 46.3134643401692 0.146918127676316 46.313464340169  0.952152106573273 -17.8432715434225 
20.2                           0.87162792739488 -80.3123634564945 0.135973029054098 42.6988431466919 0.135973029054098 42.6988431466917 0.954176700507095 -19.1905992240374 
20.25                          0.878696350009999 -85.5406665517546 0.126027803924906 39.2502770819735 0.126027803924906 39.2502770819733 0.955839734242564 -20.510340021349 
20.3                           0.885221252831183 -90.4979056052799 0.116983976984218 35.9546396315879 0.116983976984218 35.9546396315877 0.957204071912832 -21.8049543317012 
20.35                          0.891259173809682 -95.204415048039 0.108751937055885 32.7999734361363 0.108751937055884 32.7999734361361 0.958321226453148 -23.0767692216075 
20.4                           0.896858412613977 -99.6788013825243 0.101250628044765 29.7753887375267 0.101250628044765 29.7753887375265 0.959233427745598 -24.3279511287122 
20.45                          0.90206059698785 -103.938089673334 0.0944070475832477 26.8709660127917 0.0944070475832476 26.8709660127915 0.959975332754186 -25.5604951905189 
20.5                           0.906901909108965 -107.997860587007 0.0881556464655484 24.0776648044091 0.0881556464655484 24.0776648044089 0.960575427970424 -26.776225075141 
20.55                          0.911414047026184 -111.872377603396 0.0824376899407662 21.3872396564299 0.082437689940766 21.3872396564297 0.961057173243686 -27.9767991803389 
20.6                           0.91562498110172 -115.574704391352 0.0772006197619076 18.7921633911518 0.0772006197619074 18.7921633911516 0.96143993145619 -29.1637204457842 
20.65                          0.919559552423589 -119.116812593881 0.0723974407406664 16.2855575624336 0.0723974407406663 16.2855575624335 0.961739722638302 -30.3383479701913 
20.7                           0.923239949538378 -122.509680433592 0.0679861453553627 13.861129699624  0.0679861453553625 13.8611296996239 0.961969835139413 -31.5019092701562 
20.75                          0.926686091401742 -125.763382651627 0.06392918319972 11.5131168450521 0.0639291831997198 11.5131168450521 0.962141320930285 -32.655512453788 
20.8                           0.92991593784184 -128.887172349861 0.0601929776744158 9.23623484547118 0.0601929776744156 9.23623484547114 0.962263397245466 -33.8001578744676 
20.85                          0.932945743742782 -131.889555330094 0.0567474895595663 7.02563285628632 0.0567474895595661 7.02563285628629 0.962343772633389 -34.9367490236006 
20.9                           0.935790269270401 -134.778357524823 0.0535658254396079 4.87685253932976 0.0535658254396077 4.87685253932978 0.962388912031966 -36.0661025474317 
20.95                          0.938462955515615 -137.560786099393 0.0506238880185248 2.78579146929611 0.0506238880185246 2.78579146929613 0.96240425265372 -37.1889573535498 
21                             0.940976072704268 -140.24348478015 0.0479000649124216 0.748670303914025 0.0479000649124215 0.748670303914126 0.962394380159336 -38.3059828225317 
21.05                          0.943340846444248 -142.832583931599 0.0453749523664484 -1.23799668565453 0.0453749523664482 -1.23799668565451 0.962363172735552 -39.417786169491 
21.1                           0.945567566216891 -145.333745870435 0.0430311103974747 -3.177428087247  0.0430311103974745 -3.17742808724692 0.962313919194558 -40.5249190160958 
21.15                          0.947665679367471 -147.752205867707 0.0408528460341635 -5.07259914786458 0.0408528460341634 -5.07259914786445 0.962249416009681 -41.6278832406433 
21.2                           0.949643873130764 -150.092809253698 0.0388260215599168 -6.92626319126912 0.0388260215599167 -6.92626319126904 0.962172047239167 -42.7271361752586 
21.25                          0.95151014668367 -152.360045004412 0.0369378849272963 -8.74097091070704 0.0369378849272962 -8.74097091070694 0.962083850519319 -43.8230952173649 
21.3                           0.953271874803437 -154.558076154473 0.0351769197830051 -10.5190877656363 0.035176919783005 -10.5190877656362 0.961986571691586 -44.9161419186905 
21.35                          0.954935864394335 -156.690767349133 0.033532712806685 -12.262809685576 0.0335327128066849 -12.2628096855758 0.961881710134667 -46.0066256101921 
21.4                           0.956508404903167 -158.761709818241 0.0319958363166695 -13.9741772612656 0.0319958363166694 -13.9741772612654 0.961770556477197 -47.0948666159724 
21.45                          0.957995313456455 -160.774244027418 0.0305577443270894 -15.6550885829798 0.0305577443270893 -15.6550885829796 0.961654224049382 -48.1811591039458 
21.5                           0.959401975405989 -162.731480236463 0.029210680451527 -17.3073108678414 0.029210680451527 -17.3073108678413 0.961533675177136 -49.2657736158914 
21.55                          0.960733380854599 -164.636317171937 0.0279475962384285 -18.9324910020501 0.0279475962384284 -18.93249100205  0.961409743217239 -50.3489593147479 
21.6                           0.961994157642916 -166.491459000002 0.026762078693366 -20.532165109883 0.026762078693366 -20.5321651098829 0.961283151066767 -51.4309459826194 
21.65                          0.963188601204963 -168.299430766646 0.0256482858941843 -22.1077672489022 0.0256482858941843 -22.1077672489021 0.961154526746546 -52.5119457990003 
21.7                           0.964320701641455 -170.06259245539 0.0246008897385686 -23.660637319832 0.0246008897385685 -23.660637319832 0.961024416550375 -53.5921549251725 
21.75                          0.965394168311553 -171.783151797213 0.0236150249812203 -25.1920282698795 0.0236150249812202 -25.1920282698793 0.960893296164141 -54.6717549175778 
21.8                           0.966412452204078 -173.463175953628 0.0226862438212496 -26.7031126597055 0.0226862438212496 -26.7031126597055 0.96076158008773 -55.7509139901757 
21.85                          0.967378766316149 -175.104602181477 0.0218104753911176 -28.1949886566844 0.0218104753911175 -28.1949886566844 0.960629629634629 -56.8297881433432 
21.9                           0.968296104239381 -176.709247576909 0.0209839895779471 -29.6686855103792 0.020983989577947 -29.6686855103792 0.96049775973678 -57.9085221747166 
21.95                          0.969167257130259 -178.278817986087 0.0202033646775871 -31.1251685602363 0.0202033646775871 -31.1251685602363 0.960366244743466 -58.987250585486 
22                             0.969994829221128 -179.814916161244 0.0194654584426638 -32.5653438202318 0.0194654584426638 -32.5653438202318 0.96023532337123 -60.0660983940017 
22.05                          0.970781252010933 178.680950767211 0.0187673821390577 -33.9900621805442 0.0187673821390576 -33.9900621805442 0.960105202935718 -61.1451818671094 
22.1                           0.971528797259799 177.207364438993 0.0181064772717707 -35.4001232621773 0.0181064772717706 -35.4001232621774 0.959976062974816 -62.2246091783673 
22.15                          0.972239588898458 175.762988975438 0.017480294681823 -36.7962789567815 0.0174802946818229 -36.7962789567816 0.959848058354647 -63.3044810011987 
22.2                           0.97291561395206 174.346565202735 0.0168865757514038 -38.1792366806391 0.0168865757514037 -38.1792366806392 0.959721321935325 -64.3848910440739 
22.25                          0.97355873256778 172.956905340468 0.016323235485633 -39.5496623688685 0.0163232354856329 -39.5496623688685 0.959595966861145 -65.4659265339703 
22.3                           0.97417068722672 171.592888113687 0.0157883472665527 -40.9081832332962 0.0157883472665527 -40.9081832332964 0.959472088529748 -66.5476686536324 
22.35                          0.974753111212685 170.253454250744 0.0152801290988417 -42.2553903051303 0.0152801290988416 -42.2553903051305 0.959349766286366 -67.6301929375035 
22.4                           0.975307536403345 168.937602332848 0.0147969311876833 -43.5918407814916 0.0147969311876832 -43.5918407814917 0.95922906488218 -68.7135696306473 
22.45                          0.975835400443037 167.644384964555 0.0143372247075791 -44.9180601930127 0.014337224707579 -44.9180601930128 0.959110035729949 -69.7978640144786 
22.5                           0.976338053350804 166.372905237346 0.0138995916370249 -46.234544408051 0.0138995916370248 -46.2345444080511 0.958992717985117 -70.8831367026952 
22.55                          0.97681676361226 165.122313461125 0.0134827155481349 -47.5417614875801 0.0134827155481349 -47.5417614875802 0.958877139476412 -71.9694439104233 
22.6                           0.97727272379933 163.891804140803 0.0130853732527613 -48.8401534034918 0.0130853732527612 -48.8401534034919 0.958763317506554 -73.0568376992548 
22.65                          0.97770705575786 162.680613177301 0.0127064272176267 -50.1301376318443 0.0127064272176267 -50.1301376318445 0.958651259540593 -74.1453662005658 
22.7                           0.978120815399428 161.488015274195 0.012344818670656 -51.4121086315202 0.0123448186706559 -51.4121086315204 0.958540963797078 -75.2350738192433 
22.75                          0.978514997130375 160.313321532989 0.011999561329216 -52.6864392177892 0.0119995613292159 -52.6864392177893 0.95843241975498 -76.3260014197243 
22.8                           0.978890537948139 159.155877221521 0.0116697356885054 -53.9534818394039 0.0116697356885053 -53.953481839404 0.958325608587644 -77.4181864960497 
22.85                          0.97924832123223 158.015059701424 0.0113544838149839 -55.2135697670732 0.0113544838149838 -55.2135697670733 0.958220503533428 -78.5116633274577 
22.9                           0.97958918025481 156.890276501842 0.0110530045956189 -56.4670182004482 0.0110530045956189 -56.4670182004482 0.958117070211454 -79.6064631208838 
22.95                          0.979913901433589 155.780963527718 0.0107645493989377 -57.714125300121 0.0107645493989378 -57.714125300121 0.958015266889747 -80.702614141601 
23                             0.980223227347813 154.686583392014 0.0104884181084926 -58.9551731505617 0.0104884181084926 -58.9551731505617 0.957915044712136 -81.8001418331024 
