! Touchstone file exported from HFSS 3D Layout Design 2026.1.0
!        File:           D:/Work/ADS/SIMADS_EM_PAR/HFSS_VERDICT/hfss_sma_connector_cpw.aedt
!        Generated:      10:24:03 PM Aug  5, 2026
!        Design:         SINGLE_END_SMA_CPW_30MM
!        Project:        hfss_sma_connector_cpw
!
! Variables:
!        $sma_Base_D = 6.25mm
!        $sma_Base_L = 8mm
!        $sma_Feet_L = 4mm
!        $sma_Feet_W = 1mm
!        $sma_Front_L = 1.5mm
!        $sma_Front_W = 6.5mm
!        $sma_Hole_D = 1.25mm
!        $sma_PTFE_D = 4.2mm
!        $sma_Pin_D = 0.95mm
!        $sma_Pin_P = 1.7mm
!
# GHz S MA R 50.000000
! Terminal data exported
! Port[1] = Port1
! Port[2] = S1_1_Pin_T1
0.5                            0.0735781970592643 -134.627211415826 0.987267507322501 -42.079090721304 0.9872675073225  -42.079090721304 0.0740112975062095 -131.482426668328 
0.6                            0.0854383958573312 -143.547179332591 0.984748681142779 -50.3893420103159 0.984748681142778 -50.389342010316 0.0859169881355299 -139.581808516793 
0.7                            0.0959878566937265 -152.431427869889 0.982297232025282 -58.6777893024551 0.982297232025281 -58.6777893024551 0.0964214965480739 -147.570144603977 
0.8                            0.105118771538658 -161.311536065249 0.97994188485132 -66.9470775652215 0.97994188485132 -66.9470775652215 0.105417068913047 -155.437721340951 
0.9                            0.112744544616415 -170.214226737269 0.97771531533588 -75.1995693465391 0.977715315335879 -75.1995693465391 0.112834815566005 -163.174143283646 
1                              0.118802076920909 -179.165064253577 0.975649735864451 -83.4378487180845 0.975649735864451 -83.4378487180845 0.118640641970683 -170.766481401003 
1.1                            0.123253331483703 171.80890583664  0.973771839390951 -91.6648570705438 0.97377183939095 -91.6648570705438 0.12282936730411 -178.197440172581 
1.2                            0.126086292516552 162.677013846525 0.972099056382124 -99.8838331937971 0.972099056382123 -99.883833193797 0.125419267473929 174.555949824068 
1.3                            0.12731573972214 153.402916072314 0.970637432211671 -108.098162543182 0.970637432211671 -108.098162543182 0.126449885267126 167.523544836156 
1.4                            0.126984296390384 143.942295236235 0.969380938553342 -116.311195258411 0.969380938553342 -116.311195258411 0.125983904273013 160.744115682615 
1.5                            0.125164188477277 134.239988938615 0.96831192324555 -124.52606646883 0.96831192324555 -124.52606646883 0.124111766691382 154.268601802304 
1.6                            0.121960164829324 124.226226255906 0.967402410886069 -132.745537712369 0.967402410886068 -132.745537712368 0.120957766440023 148.164354837106 
1.7                            0.117514118012398 113.811684204636 0.966616003324036 -140.971869714427 0.966616003324035 -140.971869714427 0.116687480997318 142.519875726397 
1.8                            0.112012122400183 102.881257934784 0.965910167548982 -149.206731513045 0.965910167548982 -149.206731513045 0.111517061445878 137.449251709018 
1.9                            0.105694820466163 91.2870741223968 0.965238730417883 -157.451147508378 0.965238730417883 -157.451147508378 0.105724772322248 133.094453849423 
2                              0.0988720964380522 78.8430642376431 0.964554424404184 -165.705481664725 0.964554424404184 -165.705481664725 0.0996641894379325 129.621185691357 
2.1                            0.0919420017314777 65.3277146064273 0.96381134801481 -173.96945636184 0.96381134801481 -173.96945636184 0.0937758086737642 127.199658823048 
2.2                            0.0854099777486574 50.5100533218075 0.962967221608053 177.757797958464 0.962967221608053 177.757797958464 0.0885879944775038 125.957158181689 
2.3                            0.079894126988   34.2243387387784 0.961985336960775 169.477667282095 0.961985336960774 169.477667282096 0.0846892128984641 125.893154308555 
2.4                            0.0760848028815501 16.512203555444  0.960836119279062 161.191958407461 0.960836119279061 161.191958407461 0.082649422752529 126.777916807413 
2.5                            0.0746200068406402 -2.21681890147132 0.959498244457836 152.902789532243 0.959498244457836 152.902789532243 0.0828902415997393 128.112909087359 
2.6                            0.0758890233693691 -21.1746681282457 0.957959281952114 144.612473572475 0.957959281952114 144.612473572475 0.0855589600694782 129.241763482644 
2.7                            0.0798841815697997 -39.4646013528467 0.95621586305896 136.323400605026 0.95621586305896 136.323400605026 0.0904936926014899 129.5771225716   
2.8                            0.0862313109143409 -56.4487977823949 0.954273403285503 128.037925315125 0.954273403285504 128.037925315125 0.0973059402951387 128.774743194787 
2.9                            0.0943653026674369 -71.8960304258611 0.952145433030685 119.758264483406 0.952145433030685 119.758264483406 0.105513449694318 126.750141022386 
3                              0.103704338213817 -85.879883087815 0.949852610536784 111.486408435296 0.949852610536784 111.486408435296 0.114644732113626 123.590869672192 
3.1                            0.113742158083993 -98.6123326324787 0.947421503226309 103.224049103572 0.947421503226308 103.224049103572 0.124290063825284 119.459779206311 
3.2                            0.124070949891575 -110.330958699236 0.94488322743176 94.9725260419049 0.94488322743176 94.9725260419048 0.134113372157172 114.53278176441  
3.3                            0.134371858592511 -121.24902117535 0.942272032545743 86.732790490248  0.942272032545741 86.7327904902479 0.143845661459988 108.970132164392 
3.4                            0.144397032959595 -131.542170175555 0.939623905085939 78.5053865308876 0.939623905085939 78.5053865308875 0.15327306433996 102.907729859008 
3.5                            0.153952836765009 -141.350517044887 0.936975253009596 70.2904475571847 0.936975253009594 70.2904475571846 0.162225320514685 96.4576201454017 
3.6                            0.162886630872914 -150.785261844224 0.934361712993019 62.0877057430341 0.934361712993016 62.0877057430341 0.170566504318196 89.7117281361024 
3.7                            0.171076974401182 -159.935566725748 0.931817105391432 53.8965119557763 0.931817105391429 53.8965119557763 0.178188155892752 82.7461303334679 
3.8                            0.178426508246636 -168.874345355773 0.929372544968231 45.7158635786864 0.92937254496823 45.7158635786864 0.185004424469942 75.6248543210557 
3.9                            0.184856836767312 -177.662789001363 0.927055701541663 37.5444379624309 0.927055701541662 37.5444379624309 0.190948733911764 68.402949144978  
4                              0.190304912376844 173.646183482063 0.924890194295166 29.3806296576675 0.924890194295165 29.3806296576676 0.195971539055924 61.1288654930477 
4.1                            0.194720602353291 165.005293572007 0.922895097091933 21.2225901369581 0.922895097091932 21.2225901369582 0.200038847163667 53.8462807796931 
4.2                            0.198065247707908 156.370855481786 0.921084529879035 13.0682693344364 0.921084529879035 13.0682693344366 0.203131294656701 46.5955184011454 
4.3                            0.200311115578209 147.701125686744 0.919467313106365 4.91545895575516 0.919467313106366 4.91545895575545 0.205243681423436 39.4146933174923 
4.4                            0.201441710474668 138.954905436422 0.918046667817494 -3.23816192371973 0.918046667817495 -3.23816192371964 0.20638496456808 32.3406872658792 
4.5                            0.201452955086855 130.090287444646 0.916819953353879 -11.3949780131963 0.91681995335388 -11.3949780131961 0.206578791855245 25.4100222452731 
4.6                            0.200355284025094 121.063467662631 0.915778446931696 -19.5573845055412 0.915778446931698 -19.5573845055411 0.205864702749668 18.659660271808  
4.7                            0.198176715970599 111.827573099879 0.914907183906435 -27.727728127938 0.914907183906436 -27.7277281279379 0.204300131353923 12.1277074177544 
4.8                            0.194966979046446 102.331496737038 0.914184893132851 -35.9082416936609 0.914184893132853 -35.9082416936609 0.201963298071857 5.85393542164418 
4.9                            0.190802751955132 92.5187960822297 0.913584076718685 -44.1009720260337 0.913584076718687 -44.1009720260336 0.198956958526643 -0.120051384190768 
5                              0.1857940286264  82.3268271712172 0.913071295306727 -52.3077022457001 0.913071295306728 -52.3077022457   0.195412765884093 -5.75128564569081 
5.1                            0.180091473566533 71.686486409237  0.912607725881364 -60.5298709005792 0.912607725881364 -60.5298709005792 0.19149566818804 -10.9969501452633 
5.2                            0.173894327679572 60.5232607417458 0.912150055748387 -68.7684921736246 0.912150055748383 -68.7684921736247 0.187407284541252 -15.8174455576685 
5.3                            0.167457816250131 48.7607617388513 0.911651760758747 -77.0240832410785 0.911651760758745 -77.0240832410785 0.183386603015118 -20.1815145311748 
5.4                            0.161097930496298 36.3284490401799 0.911064786040923 -85.2966065017029 0.911064786040921 -85.2966065017028 0.17970574937872 -24.0736340808906 
5.5                            0.155189816449565 23.1754389635978 0.910341603497542 -93.5854355203296 0.91034160349754 -93.5854355203295 0.17665832556095 -27.5031093905892 
5.6                            0.150154180431453 9.29121338666203 0.90943756510355 -101.889353780556 0.909437565103547 -101.889353780556 0.174538493366508 -30.5129588750406 
5.7                            0.146425573566855 -5.26962289877777 0.908313411078329 -110.206594445674 0.908313411078326 -110.206594445674 0.173611197688784 -33.1851777564255 
5.8                            0.144399948314331 -20.3678234795208 0.906937736848651 -118.534927178347 0.906937736848648 -118.534927178347 0.174077673544485 -35.6384402205576 
5.9                            0.144368639896597 -35.7797601870898 0.905289183452929 -126.871794825555 0.905289183452927 -126.871794825555 0.176044218254633 -38.0161016454025 
6                              0.146458500411712 -51.2278257451348 0.903358102536966 -135.214498910644 0.903358102536965 -135.214498910644 0.17950342622899 -40.4665255062407 
6.1                            0.150602469466819 -66.4344389951625 0.901147464661999 -143.560429169467 0.901147464661997 -143.560429169467 0.184333748441664 -43.121901284332 
6.2                            0.156553117624152 -81.175851354995 0.898672825914826 -151.907329826144 0.898672825914824 -151.907329826144 0.190316600827674 -46.082612649543 
6.3                            0.163930758023319 -95.3121542411657 0.895961230786389 -160.253595027979 0.895961230786386 -160.253595027979 0.197164300556153 -49.4110985331543 
6.4                            0.172284191328182 -108.787145711868 0.893048986845557 -168.598588950287 0.893048986845556 -168.598588950287 0.204550121834399 -53.1345912670143 
6.5                            0.181143760067587 -121.608323190008 0.889978266433168 -176.942993668279 0.889978266433167 -176.942993668279 0.212133718394496 -57.2532157144187 
6.6                            0.190057058767405 -133.821423961847 0.886792426597159 174.710798602777 0.886792426597157 174.710798602777 0.219578698594877 -61.7496427778685 
6.7                            0.19860756461297 -145.488735287493 0.883529718913451 166.358210507362 0.883529718913449 166.358210507362 0.2265620165105  -66.5977867792603 
6.8                            0.206421058288346 -156.673810979293 0.880214551519832 157.991848781512 0.880214551519832 157.991848781512 0.232776140298931 -71.7695667135254 
6.9                            0.213165097427261 -167.431227293294 0.876844376662825 149.600588514897 0.87684437666282 149.600588514897 0.237924727795455 -77.2398121558394 
7                              0.218545978997002 -177.798314741199 0.873367922142984 141.168149703314 0.873367922142984 141.168149703314 0.241710960052493 -82.9898931846429 
7.1                            0.222308618765132 172.215350173954 0.869645137164247 132.670789048934 0.869645137164246 132.670789048934 0.243814397655534 -89.0106951802867 
7.2                            0.224253074932157 162.647497777606 0.865366291481951 124.073505739699 0.865366291481949 124.073505739699 0.243845701860817 -95.3049987479874 
7.3                            0.224315880962868 153.624917305596 0.859874333052504 115.324034707362 0.859874333052504 115.324034707361 0.241255252814044 -101.886866081523 
7.4                            0.222898902375213 145.44977070506  0.851744334498575 106.345219806673 0.851744334498574 106.345219806673 0.235147432003967 -108.765198443127 
7.5                            0.222133883847543 138.712383305187 0.837733635596652 97.0376448704685 0.837733635596653 97.0376448704685 0.223944462531598 -115.852871253636 
7.6                            0.230080801272789 133.871210591835 0.810289795166287 87.3770566898944 0.810289795166287 87.3770566898945 0.205201914131187 -122.55181527485 
7.7                            0.266187527742643 127.648374988764 0.754899147928208 78.0708780682116 0.75489914792821 78.0708780682116 0.178784006640313 -126.370007150138 
7.8                            0.328271364730219 109.385210933503 0.672680425711316 72.6309832417455 0.672680425711325 72.6309832417465 0.160072676529633 -123.715825072589 
7.9                            0.310901310053717 77.5851993721265 0.64753623912195 74.1336195709788 0.647536239121949 74.1336195709764 0.160126539658771 -120.603070076183 
8                              0.199899152564607 60.9265888565154 0.729683963253087 71.2712131516653 0.7296839632531  71.2712131516631 0.175492468370445 -120.306493054171 
8.1                            0.158595020279892 64.2930854953499 0.790858084270864 62.4309877309763 0.790858084270854 62.4309877309759 0.185872974261926 -127.168251599227 
8.2                            0.153430946829049 62.7623073679476 0.823229476288005 52.9739122574939 0.823229476288036 52.9739122574922 0.184298661494499 -134.49872949417 
8.3                            0.149850463283829 56.1957861147601 0.842380346154364 43.5660394099383 0.842380346154351 43.5660394099333 0.177141238412525 -141.267225225642 
8.4                            0.143271323842865 47.5360621672481 0.852578472803547 34.2384572769267 0.852578472803493 34.2384572769254 0.166963566450446 -147.547105634446 
8.5                            0.134143845180598 37.8962303188944 0.856394351118743 25.156220001393  0.856394351118744 25.156220001393  0.154781099954394 -153.459009073799 
8.6                            0.123150820744605 27.6941165577692 0.858293703636595 16.3217910846502 0.858293703636595 16.3217910846477 0.140930326944318 -159.085693888796 
8.7                            0.110747399347856 17.2502759883147 0.860102125426624 7.55428023512393 0.860102125426596 7.55428023512154 0.12531555006456 -164.442095206518 
8.8                            0.0974281011502868 7.24016518336906 0.861104966051232 -1.28271813799539 0.861104966051207 -1.28271813799589 0.10742379136565 -169.359368631721 
8.9                            0.0848794895360695 -0.701298411368737 0.859351803345652 -10.2574123171003 0.85935180334566 -10.2574123171007 0.0862926418455599 -172.967829312635 
9                              0.0789566537690853 -5.16179490196083 0.851253765452506 -19.3330828812218 0.85125376545253 -19.3330828812247 0.0613094212373439 -171.005484869123 
9.1                            0.0861736206165579 -13.0247634763738 0.832405678528475 -28.1093692545209 0.832405678528459 -28.1093692545255 0.0420483255489936 -143.865806241563 
9.2                            0.0963726822826847 -31.5474850376495 0.808669929223751 -35.6270870870209 0.808669929223722 -35.6270870870219 0.0661002572638339 -111.4677941922  
9.3                            0.0990728557909395 -54.8846646824117 0.802525564048997 -42.040569301669 0.80252556404902 -42.0405693016701 0.106350276866406 -119.335540283267 
9.4                            0.0964955135748822 -78.28164869489  0.814859781619587 -49.0296546869482 0.814859781619595 -49.0296546869514 0.12505532716958 -135.431869149032 
9.5                            0.0918724309702963 -100.371767982977 0.830152962745114 -56.9311865856448 0.830152962745104 -56.9311865856468 0.125825598856888 -148.783353629269 
9.6                            0.086408591106492 -120.496338076554 0.842230172953637 -65.3287297101572 0.842230172953631 -65.3287297101575 0.119648097773904 -159.173446456067 
9.7                            0.0805097421255138 -138.077088084848 0.850661785522366 -73.9522160506043 0.850661785522378 -73.9522160506039 0.111043122790165 -168.053282956156 
9.8                            0.0745288212183469 -152.719833518624 0.85602710720287 -82.6880839403743 0.856027107202896 -82.6880839403739 0.100767771507566 -176.398452149288 
9.9                            0.0688870647092365 -164.314886443857 0.85876801272373 -91.4905343283787 0.858768012723751 -91.4905343283787 0.0886360067363414 175.612050995824 
10                             0.0639746366230696 -173.026775651419 0.859089230633632 -100.338335670666 0.859089230633633 -100.338335670666 0.0750963822903518 168.46823643562  
