! Touchstone file exported from HFSS 3D Layout Design 2026.1.0
!        File:           D:/Work/SIM/ADS_AUTO_SIM/projects/RFSOC_RF/TX_Fillter.aedt
!        Generated:      08:23:25 AM Aug 31, 2026
!        Design:         TX_BAND1_MCFIL_R76_CNN025
!        Project:        TX_Fillter
!
# GHz S MA R 50.000000
! Terminal data exported
! Port[1] = Port1
! Port[2] = Port2
14                             0.972890808282422 -164.858833798739 0.00378236988962694 -175.928803621917 0.00378236988962694 -175.928803621917 0.973884503266531 -161.343301152081 
14.05                          0.972387507468455 -165.756601827832 0.00386010788331029 -176.290111376437 0.00386010788331027 -176.290111376437 0.97340199197036 -162.20339857532 
14.1                           0.971868312196529 -166.660580836343 0.00394170354573039 -176.630794203564 0.00394170354573032 -176.630794203563 0.972904172644391 -163.06931070095 
14.15                          0.971332432360965 -167.570962249988 0.0040274669269447 -176.950520179724 0.00402746692694464 -176.950520179723 0.972390279834585 -163.941217990109 
14.2                           0.970779024676259 -168.487947693769 0.00411773870546528 -177.249009981124 0.00411773870546522 -177.249009981121 0.97185949622158 -164.819310488669 
14.25                          0.970207188175603 -169.411749669746 0.0042128935505403 -177.526045780809 0.00421289355054024 -177.526045780808 0.971310948195745 -165.703788468228 
14.3                           0.969615959247974 -170.342592289656 0.00431334387827276 -177.781480946864 0.00431334387827266 -177.781480946861 0.970743700975034 -166.594863119523 
14.35                          0.96900430615798 -171.280712067692 0.00441954405015646 -178.015250538506 0.0044195440501564 -178.015250538504 0.970156753209901 -167.492757303438 
14.4                           0.968371122984861 -172.226358779402 0.00453199506910317 -178.22738257867 0.0045319950691031 -178.227382578667 0.969549031011733 -168.397706365332 
14.45                          0.967715222907958 -173.179796393305 0.00465124983554065 -178.418010059835 0.00465124983554057 -178.418010059833 0.968919381332152 -169.309959019106 
14.5                           0.967035330755499 -174.141304082631 0.00477791903488271 -178.587383614681 0.00477791903488262 -178.587383614679 0.96826656460995 -170.229778308175 
14.55                          0.966330074721279 -175.111177325432 0.00491267773784187 -178.735884754688 0.0049126777378418 -178.735884754686 0.967589246590115 -171.157442651365 
14.6                           0.965597977139539 -176.089729102337 0.00505627280697354 -178.864039548624 0.00505627280697348 -178.864039548622 0.966885989204979 -172.093246982727 
14.65                          0.964837444191636 -177.077291202321 0.00520953121686157 -178.972532579851 0.00520953121686154 -178.972532579849 0.966155240390688 -173.03750399537 
14.7                           0.964046754398472 -178.07421564815 0.00537336941191868 -179.062220987644 0.00537336941191866 -179.062220987642 0.965395322692366 -173.990545500673 
14.75                          0.96322404572959 -179.080876254628 0.00554880384541166 -179.134148364996 0.00554880384541162 -179.134148364995 0.964604420488044 -174.952723915662 
14.8                           0.962367301132635 179.902329665592 0.00573696286667854 -179.189558255619 0.00573696286667851 -179.189558255617 0.963780565633914 -175.924413892983 
14.85                          0.961474332254696 178.874979431936 0.00593910015136248 -179.229906968522 0.00593910015136243 -179.22990696852 0.962921621300887 -176.906014109767 
14.9                           0.960542761088879 177.836622942758 0.00615660990279298 -179.256875412391 0.00615660990279296 -179.25687541239 0.962025263733792 -177.89794923383 
14.95                          0.959569999234064 176.786780417778 0.00639104409254033 -179.272379646866 0.0063910440925403 -179.272379646865 0.961088961618483 -178.900672088082 
15                             0.958553224401632 175.724939911964 0.00664413205603081 -179.278579856783 0.00664413205603079 -179.278579856783 0.960109952687212 -179.914666036864 
15.05                          0.957489353738125 174.650554573455 0.00691780281660429 -179.277887481047 0.00691780281660426 -179.277887481047 0.959085217126756 179.059552378909 
15.1                           0.956375013455007 173.563039614409 0.00721421058052628 -179.272970272422 0.00721421058052626 -179.272970272422 0.958011447274696 178.021430527146 
15.15                          0.955206504162958 172.461768959388 0.00753576392867511 -179.266755129446 0.00753576392867511 -179.266755129446 0.956885012993943 176.970376455718 
15.2                           0.953979761194958 171.346071531031 0.00788515933085949 -179.262428627412 0.00788515933085946 -179.262428627412 0.955701922000266 175.905755309593 
15.25                          0.952690309065123 170.215227127152 0.00826541972959528 -179.263435280943 0.00826541972959526 -179.263435280943 0.954457774277748 174.826885348725 
15.3                           0.951333209043384 169.068461837055 0.00867993908609133 -179.273473693988 0.00867993908609129 -179.273473693988 0.953147709546773 173.733033515038 
15.35                          0.949902998622292 167.904942937576 0.00913253395759356 -179.29649089045 0.00913253395759352 -179.29649089045 0.951766346541125 172.623410489609 
15.4                           0.948393621402776 166.723773201137 0.00962750338881535 -179.336675265474 0.00962750338881525 -179.336675265475 0.950307712595752 171.497165172894 
15.45                          0.946798345618978 165.523984538791 0.0101696986592373 -179.398448748177 0.0101696986592373 -179.398448748177 0.948765161733047 170.35337851152  
15.5                           0.945109669144102 164.304530890876 0.0107646047429008 -179.486458915584 0.0107646047429007 -179.486458915584 0.947131279048198 169.191056584697 
15.55                          0.943319208351165 163.064280266395 0.0114184357207527 -179.605571939478 0.0114184357207526 -179.605571939478 0.945397768714397 168.009122851778 
15.6                           0.94141756762132 161.802005819795 0.0121382468535705 -179.760867378477 0.0121382468535704 -179.760867378477 0.94355532233229 166.806409449836 
15.65                          0.939394185568227 160.51637584066  0.0129320665957784 -179.957635944615 0.0129320665957783 -179.957635944615 0.94159346360418 165.581647416841 
15.7                           0.937237153141786 159.205942518504 0.0138090525315814 179.798618523038 0.0138090525315813 179.798618523038 0.939500364382621 164.333455702366 
15.75                          0.934932997639797 157.869129332363 0.0147796760749722 179.502171552911 0.0147796760749722 179.502171552911 0.937262625974773 163.060328814957 
15.8                           0.932466425229761 156.504216904875 0.01585594183124 179.147063591595 0.0158559418312399 179.147063591595 0.934865018113445 161.760622944792 
15.85                          0.929820012786123 155.109327155808 0.0170516488142589 178.727077107799 0.0170516488142588 178.727077107799 0.932290166150964 160.432540394949 
15.9                           0.926973837580957 153.682405594926 0.0183827023040989 178.235703640751 0.0183827023040989 178.235703640751 0.929518174688074 159.074112158813 
15.95                          0.923905030502893 152.221201615977 0.0198674870747556 177.66609904922  0.0198674870747556 177.66609904922  0.926526172885476 157.683178502124 
16                             0.920587234865091 150.723246703555 0.0215273150900642 177.011025038166 0.0215273150900641 177.011025038166 0.923287762956714 156.257367457155 
16.05                          0.916989948310697 149.185830560745 0.0233869636269124 176.262774800782 0.0233869636269124 176.262774800782 0.919772348608995 154.794071231598 
16.1                           0.913077719615862 147.605975335945 0.025475323199386 175.413080299528 0.025475323199386 175.413080299528 0.915944314249986 153.290420704183 
16.15                          0.908809165090058 145.980408416588 0.0278261786553192 174.452998309101 0.0278261786553192 174.452998309101 0.911762018357009 151.743258467952 
16.2                           0.904135760560906 144.305534736039 0.0304791513559499 173.372771852714 0.03047915135595 173.372771852714 0.907176555262718 150.149111361168 
16.25                          0.899000354478391 142.577410318679 0.0334808352412687 172.161663090139 0.0334808352412688 172.161663090139 0.902130228584866 148.504164207639 
16.3                           0.893335335604717 140.791720042974 0.0368861643593581 170.807753097295 0.0368861643593583 170.807753097295 0.89655466669574 146.804237750781 
16.35                          0.887060375760997 138.943764611923 0.0407600531146202 169.297703395137 0.0407600531146204 169.297703395137 0.89036849662506 145.044775792335 
16.4                           0.880079656038301 137.028464926842 0.0451793511680708 167.616473706091 0.0451793511680711 167.616473706091 0.883474479418793 143.220849787365 
16.45                          0.872278477902991 135.040397164727 0.0502351491059067 165.74699055048  0.050235149105907 165.74699055048  0.875756001343547 141.327194317615 
16.5                           0.863519167257563 132.973879967532 0.0560354524575215 163.669762504385 0.0560354524575217 163.669762504385 0.867072819956694 139.358295098534 
16.55                          0.853636216373682 130.823147994419 0.0627081996298022 161.362441205965 0.0627081996298025 161.362441205965 0.857255998705304 137.308564252213 
16.6                           0.842430706921382 128.582666328963 0.0704045157551415 158.79933419213  0.0704045157551417 158.79933419213  0.846102060043515 135.172658255725 
16.65                          0.829664273893965 126.24767184798  0.0793019400268279 155.950889138527 0.0793019400268281 155.950889138527 0.833366603000231 132.946026401046 
16.7                           0.815053304808023 123.815076247696 0.0896070936763872 152.783193465777 0.0896070936763872 152.783193465777 0.818758068929066 130.625827705528 
16.75                          0.798264888032609 121.284937983693 0.101556805332663 149.257575171025 0.101556805332663 149.257575171025 0.801933170981842 128.212429598922 
16.8                           0.778917487545496 118.66281317862  0.115416002971913 145.33045910988  0.115416002971913 145.33045910988  0.782496998229637 125.711809783921 
16.85                          0.756591778749366 115.963426633894 0.131469659071521 140.953737602485 0.13146965907152 140.953737602485 0.7600133340836  123.139323520708 
16.9                           0.73086086315113 113.216232412878 0.150004794718827 136.076059817796 0.150004794718827 136.076059817796 0.734034657839913 120.525444654773 
16.95                          0.701354092250859 110.473448077491 0.171277397716167 130.64561460701  0.171277397716166 130.64561460701  0.704166587403813 117.924133962923 
17                             0.667873371873059 107.820747936527 0.195459188112261 124.615106992484 0.19545918811226 124.615106992485 0.670186641684787 115.424136603875 
17.05                          0.63057982384639 105.389310618117 0.222562682308358 117.94953996014  0.222562682308357 117.94953996014  0.632236928465903 113.162070088032 
17.1                           0.590250232517642 103.364094273304 0.25235301113907 110.63681522519  0.25235301113907 110.63681522519  0.591092694302407 111.332310486648 
17.15                          0.548548304224836 101.975668013883 0.284272815757438 102.699745659805 0.284272815757438 102.699745659806 0.548454149832393 110.180740347815 
17.2                           0.508153613368704 101.453148900897 0.317426082805796 94.205901021808  0.317426082805796 94.2059010218084 0.507102908422496 109.958269607243 
17.25                          0.472480736945432 101.916970681315 0.350669061863031 85.2698805802387 0.350669061863031 85.2698805802391 0.470641176498132 110.808722840167 
17.3                           0.444763131826716 103.234003562733 0.382818936046319 76.0432855534794 0.382818936046319 76.0432855534796 0.442553767857095 112.60966422     
17.35                          0.4267018716504  104.950370293709 0.412918857168254 66.6923362498903 0.412918857168254 66.6923362498905 0.424764515407708 114.889166438692 
17.4                           0.417531362014578 106.433900863147 0.440444621456355 57.3697780393252 0.440444621456354 57.3697780393252 0.416587114213013 116.972935702343 
17.45                          0.414324484201151 107.15894538174  0.465361538109988 48.1913074116999 0.465361538109987 48.1913074116998 0.415006355048229 118.298276245695 
17.5                           0.413278074240906 106.888126562837 0.488027489474221 39.2239943878221 0.488027489474219 39.223994387822  0.416052557695696 118.617839632887 
17.55                          0.410946284898267 105.648335635476 0.509013484304338 30.4875998345194 0.509013484304335 30.4875998345194 0.416136424770317 117.972507036937 
17.6                           0.404816129695065 103.611634099952 0.528924638466906 21.964528052616  0.528924638466902 21.964528052616  0.412669355799934 116.558934013573 
17.65                          0.393331978227434 100.999794890852 0.548269051857843 13.6129612417006 0.548269051857839 13.6129612417007 0.404088252711328 114.62517662879  
17.7                           0.375700665492303 98.0451521679217 0.567382625732256 5.37933178402937 0.567382625732251 5.3793317840295  0.389648820608924 112.42831748531  
17.75                          0.351701804956441 94.9955795360921 0.586397687622894 -2.79153498777323 0.58639768762289 -2.79153498777303 0.369229214402984 110.237639526851 
17.8                           0.321593306557167 92.1508308337291 0.605241107551324 -10.9488138034061 0.60524110755132 -10.9488138034059 0.343238165410058 108.365079564869 
17.85                          0.286138097266336 89.9325114208883 0.62365354302811 -19.1302526262277 0.623653543028107 -19.1302526262276 0.312649794810865 107.215071334281 
17.9                           0.246779983483817 89.0098128403146 0.641227652440248 -27.3586000234321 0.641227652440246 -27.3586000234319 0.279172420663583 107.349563461246 
17.95                          0.206062461338488 90.5197397135812 0.657465567234478 -35.6398210600469 0.657465567234477 -35.6398210600468 0.245560753866789 109.541365376166 
18                             0.168510203352306 96.334866992625  0.671853452808513 -43.9632515581555 0.671853452808513 -43.9632515581556 0.216010136103675 114.685758553792 
18.05                          0.14193990275134 108.56150720339  0.68394475701188 -52.3038369476579 0.68394475701188 -52.3038369476581 0.19615898366892 123.21822461755  
18.1                           0.136156807036478 125.805693702267 0.693437122622182 -60.626325675398 0.693437122622181 -60.6263256753982 0.191378334181021 133.918283238048 
18.15                          0.153767389599811 140.715472705261 0.70022546147306 -68.8908361742134 0.700225461473059 -68.8908361742138 0.20311144495702 143.827934136261 
18.2                           0.186556090624831 148.86538012057  0.704418344502337 -77.0588153485577 0.704418344502336 -77.058815348558 0.227601918977767 150.629782783397 
18.25                          0.22532635938754 151.493418624401 0.706315492662804 -85.0982864126664 0.706315492662801 -85.0982864126667 0.259105971824165 154.01766381681  
18.3                           0.264506312800856 150.734061708733 0.706355663101475 -92.9875297832017 0.706355663101472 -92.987529783202 0.292867026652643 154.740743068778 
18.35                          0.301162577748713 147.984401125636 0.705051058146174 -100.716834162418 0.705051058146171 -100.716834162419 0.325760099670615 153.631978981579 
18.4                           0.333788192866781 144.031797663452 0.702924263613393 -108.288464365579 0.702924263613391 -108.288464365579 0.355934739540396 151.313412624941 
18.45                          0.361658935360281 139.3138105163   0.700458437350219 -115.715326744777 0.700458437350217 -115.715326744777 0.382384304057917 148.19902688017  
18.5                           0.38450505978478 134.07467436149  0.698064705613633 -123.018912045593 0.698064705613633 -123.018912045593 0.404637975867999 144.554156729384 
18.55                          0.402329357443704 128.448417395652 0.696065441828492 -130.227014079947 0.696065441828493 -130.227014079947 0.422560597362412 140.546282361162 
18.6                           0.415299909898031 122.503302058001 0.694689402316876 -137.371559194633 0.69468940231688 -137.371559194633 0.436225244825794 136.279532975186 
18.65                          0.423687275887001 116.26644702129  0.694074212776681 -144.486717903151 0.694074212776686 -144.486717903151 0.445834019866729 131.816717252582 
18.7                           0.427831441713938 109.737995464231 0.694272509390753 -151.607348902945 0.694272509390759 -151.607348902946 0.451671496590831 127.193076580333 
18.75                          0.428130002081178 102.899566817263 0.695259299757599 -158.76775664093 0.695259299757606 -158.767756640931 0.454080451753959 122.424631803546 
18.8                           0.425041761169983 95.7195552851981 0.696939300542995 -166.000718271497 0.696939300543002 -166.000718271497 0.453452422696476 117.512861193759 
18.85                          0.419101217785941 88.1568530302308 0.699153892035127 -173.336740039319 0.699153892035133 -173.336740039319 0.450227328093583 112.446706810201 
18.9                           0.410939772752546 80.1642086811469 0.701687830469059 179.196477387093 0.701687830469065 179.196477387093 0.444897408981911 107.202483098681 
18.95                          0.401309063698643 71.6924209804835 0.704275975406454 171.574363147375 0.704275975406458 171.574363147375 0.438011507341573 101.742096781585 
19                             0.39110056894217 62.6967236657788 0.706610057927097 163.775576177499 0.7066100579271  163.775576177499 0.43017662046568 96.0100750714969 
19.05                          0.38135360701212 53.1467289031565 0.708345027007936 155.781876154958 0.708345027007937 155.781876154958 0.422055182377384 89.9302613338439 
19.1                           0.373241658488906 43.0405533027843 0.709103955813247 147.577800973728 0.709103955813248 147.577800973728 0.414358847498083 83.4036644827084 
19.15                          0.368026277296593 32.4214111189318 0.708480189746174 139.150263019317 0.708480189746176 139.150263019317 0.407842251176371 76.3097164215584 
19.2                           0.366971990412079 21.3907899005382 0.706035816323978 130.48828440523  0.706035816323981 130.488284405231 0.403301691581079 68.5137729389473 
19.25                          0.371227435860294 10.108497019603  0.701297096151194 121.583209497776 0.7012970961512  121.583209497777 0.401581074915285 59.8835101560379 
19.3                           0.381694669909866 -1.22839853504211 0.693750488238828 112.429819305351 0.693750488238837 112.429819305352 0.40357801946898 50.31514100471   
19.35                          0.398917587355006 -12.4248599252389 0.682847064742423 103.028759041284 0.682847064742434 103.028759041284 0.410227519674882 39.7663946184202 
19.4                           0.423009526320216 -23.328689453937 0.668027117789684 93.3904869116995 0.668027117789697 93.3904869117003 0.42242810984546 28.2872371783146 
19.45                          0.453617185437196 -33.8526679295733 0.648777714298238 83.5404714215028 0.648777714298252 83.5404714215034 0.440883929894209 16.0343654142479 
19.5                           0.489909364091727 -43.969545085507 0.624729571221307 73.5245983765763 0.624729571221318 73.5245983765765 0.465879383133897 3.25764518072412 
19.55                          0.530597388634388 -53.6875346752525 0.595782627054864 63.4129015802721 0.595782627054871 63.4129015802722 0.497066402415463 -9.74061176590476 
19.6                           0.574017826746131 -63.021853180604 0.562225152969047 53.2993125313374 0.56222515296905 53.2993125313374 0.533377930225648 -22.6569670641562 
19.65                          0.618303194401244 -71.9751675200191 0.524793228271151 43.2957766658831 0.524793228271148 43.2957766658833 0.573141985036687 -35.2280338591627 
19.7                           0.661624111255409 -80.5319256139294 0.484625617071152 33.5210122378786 0.484625617071144 33.5210122378792 0.614374264583397 -47.2513441273277 
19.75                          0.70243665082514 -88.6641168791227 0.443110011674638 24.0865950636693 0.443110011674628 24.0865950636706 0.655139930983955 -58.5888129742642 
19.8                           0.739654326809053 -96.3421494671176 0.401668398337354 15.0844160530658 0.401668398337344 15.0844160530679 0.693853986326997 -69.1606373508148 
19.85                          0.772699093013326 -103.544732399233 0.361555527962425 6.57889000440166 0.361555527962415 6.57889000440461 0.729438393769399 -78.9354274703611 
19.9                           0.801441743735832 -110.264398952698 0.323728523603359 -1.39489825875227 0.323728523603353 -1.39489825874855 0.761330097718063 -87.9192663305152 
19.95                          0.8260797319835  -116.508342105732 0.288804908762176 -8.8281475358947 0.288804908762173 -8.82814753589031 0.789388550274413 -96.1449343840094 
20                             0.847004262209036 -122.296036888882 0.257090843032386 -15.7325518319723 0.257090843032386 -15.7325518319674 0.813764704447643 -103.662189365962 
20.05                          0.864690196129226 -127.655492231657 0.22864705232404 -22.1338475118836 0.228647052324042 -22.1338475118785 0.834777318375285 -110.529768654783 
20.1                           0.879620595277034 -132.619500942911 0.203363777673418 -28.0660577459777 0.203363777673422 -28.0660577459726 0.852818299590861 -116.809405296569 
20.15                          0.892243307613692 -137.222590095853 0.181027309950035 -33.5670266546608 0.18102730995004 -33.5670266546557 0.868290551986249 -122.561767191028 
20.2                           0.902951163743839 -141.498864870422 0.161371139101666 -38.6753014717819 0.161371139101673 -38.6753014717771 0.881572646090589 -127.84398833661 
20.25                          0.912077030601395 -145.480661007632 0.144111369448596 -43.4281546703182 0.144111369448603 -43.4281546703139 0.893002216230944 -132.708382253521 
20.3                           0.919896948002721 -149.197818704256 0.128969084133322 -47.8604596950694 0.128969084133329 -47.8604596950655 0.902870926586518 -137.201957932759 
20.35                          0.926636891865922 -152.677385786014 0.115683094010362 -52.0041538274039 0.115683094010368 -52.0041538274005 0.91142580874008 -141.366436780833 
20.4                           0.932480569790046 -155.943592825603 0.10401616252881 -55.8880776486361 0.104016162528815 -55.8880776486334 0.918873626143819 -145.238553972744 
20.45                          0.937576911016033 -159.017985837722 0.0937570959145497 -59.5380398205889 0.0937570959145546 -59.5380398205867 0.925386305252353 -148.850499903684 
20.5                           0.942046669500494 -161.919639724332 0.0847203872497162 -62.977005326164 0.0847203872497202 -62.9770053261624 0.931106385458675 -152.230411617524 
20.55                          0.945987973312725 -164.665404002636 0.0767445357148802 -66.2253420401466 0.0767445357148831 -66.2253420401454 0.936151992012585 -155.402861572157 
20.6                           0.949480857999789 -167.270152048045 0.0696897487390309 -69.3010859525792 0.0696897487390333 -69.3010859525786 0.940621147045606 -158.389315547251 
20.65                          0.952590907237497 -169.747018004461 0.0634354523628892 -72.2202021728128 0.0634354523628905 -72.2202021728125 0.944595396194755 -161.208546674535 
20.7                           0.955372147614441 -172.107613606856 0.0578778509264552 -74.9968295243456 0.0578778509264559 -74.9968295243456 0.948142804615248 -163.877001538376 
20.75                          0.957869338384001 -174.362222012966 0.0529276615147186 -77.6435030977214 0.0529276615147186 -77.6435030977215 0.951320405346131 -166.409119287583 
20.8                           0.960119779092638 -176.51996850596 0.0485080785216138 -80.1713530042335 0.0485080785216132 -80.1713530042337 0.954176187982007 -168.817607241193 
20.85                          0.96215473706088 -178.588969396214 0.0445529829534167 -82.5902797534644 0.0445529829534156 -82.5902797534647 0.956750709305181 -171.113677555488 
20.9                           0.964000576858271 179.423538866092 0.0410053887001734 -84.9091078133165 0.041005388700172 -84.9091078133165 0.959078396867811 -173.307249774554 
20.95                          0.965679656760839 177.511088127103 0.037816106780496 -87.1357194202837 0.0378161067804944 -87.1357194202836 0.961188604991114 -175.407123897431 
21                             0.967211043057716 175.667882296618 0.0349426039402415 -89.2771708534472 0.0349426039402398 -89.277170853447 0.96310647189583 -177.42112819116 
21.05                          0.968611081777881 173.88871438096  0.0323480311086855 -91.3397933306583 0.0323480311086836 -91.3397933306577 0.964853617327105 -179.356245493654 
21.1                           0.969893858530518 172.168894924182 0.0300003983449737 -93.3292805281174 0.0300003983449718 -93.3292805281164 0.966448712219998 178.781278743415 
21.15                          0.971071570250008 170.504190224378 0.0278718750021973 -95.2507645232825 0.0278718750021953 -95.2507645232813 0.967907945570703 176.985843885777 
21.2                           0.972154827302677 168.890768909264 0.0259381962921929 -97.108881749105 0.0259381962921911 -97.1088817491034 0.96924540854529 175.252414653461 
21.25                          0.973152900303852 167.325155654999 0.0241781599145222 -98.9078303431048 0.0241781599145204 -98.907830343103 0.970473411765523 173.576452760815 
21.3                           0.974073922831981 165.804191010102 0.0225731987426489 -100.651420086783 0.0225731987426473 -100.651420086781 0.971602748465872 171.953857971715 
21.35                          0.974925058792148 164.324996441422 0.0211070176588253 -102.343115962996 0.0211070176588238 -102.343115962993 0.972642913649081 170.380917149671 
21.4                           0.975712641303732 162.884943852621 0.0197652844707592 -103.986076211812 0.0197652844707579 -103.98607621181 0.973602287339422 168.854260108524 
21.45                          0.976442288535198 161.481628939484 0.0185353664316682 -105.583185638125 0.0185353664316671 -105.583185638123 0.974488288429355 167.370821259238 
21.5                           0.977119000783004 160.112847842946 0.0174061052397476 -107.137084815025 0.0174061052397467 -107.137084815023 0.975307504346129 165.927806207287 
21.55                          0.977747242215132 158.776576642343 0.0163676245387732 -108.650195733767 0.0163676245387724 -108.650195733765 0.976065800758162 164.522662588099 
21.6                           0.978331010014819 157.470953300194 0.0154111649054672 -110.124744371838 0.0154111649054666 -110.124744371835 0.976768414740407 163.153054539098 
21.65                          0.978873893122676 156.194261727839 0.0145289421173255 -111.562780583314 0.014528942117325 -111.562780583312 0.977420034179533 161.816840299756 
21.7                           0.979379122351803 154.944917690078 0.0137140251705056 -112.966195658588 0.0137140251705053 -112.966195658586 0.978024865688878 160.512052508727 
21.75                          0.979849613315348 153.721456308155 0.0129602310819984 -114.336737852027 0.0129602310819982 -114.336737852025 0.978586692893114 159.236880832146 
21.8                           0.980288003339415 152.522520955148 0.0122620339817339 -115.676026134968 0.0122620339817337 -115.676026134967 0.979108926612292 157.989656611713 
21.85                          0.980696683321412 151.346853367184 0.0116144863938889 -116.985562396402 0.0116144863938889 -116.985562396401 0.979594648207896 156.768839266971 
21.9                           0.981077825323195 150.193284818723 0.0110131509354817 -118.266742283803 0.0110131509354818 -118.266742283803 0.980046647136972 155.573004224732 
21.95                          0.981433406550831 149.060728231208 0.0104540409352361 -119.520864851067 0.0104540409352364 -119.520864851067 0.980467453584004 154.400832181061 
22                             0.981765230261484 147.948171102242 0.00993356870576952 -120.749141158618 0.00993356870576977 -120.749141158619 0.980859366896154 153.251099528747 
22.05                          0.982074944047476 146.854669157673 0.0094485003949585 -121.952701952014 0.00944850039495876 -121.952701952016 0.981224480429296 152.122669806361 
22.1                           0.982364055873735 145.77934064194  0.00899591650412843 -123.132604529144 0.00899591650412875 -123.132604529147 0.981564703315078 151.014486044784 
22.15                          0.982633948184354 144.72136117311  0.00857317729669732 -124.289838892215 0.00857317729669765 -124.289838892218 0.981881779578962 149.925563903855 
22.2                           0.982885890344196 143.679959098528 0.00817789243538319 -125.425333268595 0.00817789243538351 -125.425333268599 0.982177304972709 148.854985506056 
22.25                          0.983121049640348 142.654411295174 0.00780789428262214 -126.539959074125 0.00780789428262246 -126.53995907413 0.982452741829491 147.801893886435 
22.3                           0.983340501034128 141.64403936579  0.00746121438039273 -127.634535383367 0.00746121438039302 -127.634535383373 0.982709432203725 146.76548798836  
22.35                          0.983545235825983 140.648206187919 0.00713606269465407 -128.709832963348 0.00713606269465436 -128.709832963353 0.982948609519187 145.74501814374  
22.4                           0.983736169371868 139.666312778195 0.0068308092681103 -129.766577920396 0.00683080926811055 -129.766577920402 0.983171408916601 144.739781984012 
22.45                          0.983914147969852 138.697795438753 0.00654396797470133 -130.805455003648 0.00654396797470158 -130.805455003654 0.983378876464677 143.749120734896 
22.5                           0.984079955018964 137.742123156528 0.00627418211149703 -131.827110603478 0.00627418211149721 -131.827110603486 0.983571977375622 142.77241585364  
22.55                          0.984234316538178 136.798795229656 0.00602021159970484 -132.832155478482 0.00602021159970503 -132.832155478488 0.983751603346657 141.809085972451 
22.6                           0.984377906121496 135.86733909811  0.00578092159727278 -133.821167240578 0.00578092159727292 -133.821167240585 0.983918579132614 140.858584116136 
22.65                          0.984511349394942 134.947308358342 0.00555527235188816 -134.794692624254 0.00555527235188828 -134.79469262426 0.984073668440602 139.920395165726 
22.7                           0.984635228032639 134.038280943915 0.00534231014573066 -135.753249562823 0.00534231014573075 -135.753249562829 0.984217579225791 138.994033543095 
22.75                          0.984750083381748 133.139857456155 0.00514115920269852 -136.697329091866 0.00514115920269858 -136.697329091871 0.984350968457056 138.079041094463 
22.8                           0.984856419739749 132.251659630528 0.00495101444547887 -137.627397097612 0.00495101444547889 -137.627397097617 0.984474446412484 137.174985153159 
22.85                          0.984954707322077 131.373328926028 0.00477113500417491 -138.543895925922 0.00477113500417492 -138.543895925927 0.984588580557161 136.281456764163 
22.9                           0.985045384953477 130.504525226195 0.00460083839057972 -139.447245865697 0.00460083839057972 -139.4472458657  0.984693899049158 135.398069054918 
22.95                          0.98512886251239 129.644925641555 0.00443949526288295 -140.33784651891 0.00443949526288296 -140.337846518911 0.984790893914016 134.524455738531 
23                             0.985205523154184 128.794223404358 0.00428652471485763 -141.216078068089 0.00428652471485762 -141.216078068089 0.984880023923142 133.660269736978 
