! Touchstone file exported from HFSS 3D Layout Design 2026.1.0
!        File:           D:/Work/ADS/HFSS_VERDICT/hfss_sma_connector_cpw.aedt
!        Generated:      12:51:07 PM Aug  6, 2026
!        Design:         SINGLE_END_SMA_CPW_30MM
!        Project:        hfss_sma_connector_cpw
!
! Variables:
!        $sma_Base_D = 6.25mm
!        $sma_Base_L = 8mm
!        $sma_Feet_L = 4mm
!        $sma_Feet_W = 1mm
!        $sma_Front_L = 1.5mm
!        $sma_Front_W = 6.5mm
!        $sma_Hole_D = 1.25mm
!        $sma_PTFE_D = 4.2mm
!        $sma_Pin_D = 0.95mm
!        $sma_Pin_P = 1.7mm
!
# GHz S MA R 50.000000
! Terminal data exported
! Port[1] = Port1
! Port[2] = S1_1_Pin_T1
0.5                            0.0791408037068466 -129.932194650754 0.986845036760815 -41.6800082599066 0.986845036760814 -41.6800082599066 0.0794197437013862 -135.191344949901 
0.6                            0.0918611291342798 -137.875366284769 0.984160325081226 -49.905386432566 0.984160325081225 -49.9053864325661 0.0921222229690761 -144.079617625953 
0.7                            0.10314540769668 -145.776453310083 0.981545076975659 -58.1059951300817 0.981545076975657 -58.1059951300818 0.10335717261724 -152.849929894884 
0.8                            0.112864483522057 -153.658642791614 0.97903811066121 -66.2847817002572 0.979038110661209 -66.2847817002573 0.113002556029826 -161.511979237432 
0.9                            0.120915741034703 -161.541876544214 0.976679615625185 -74.4443779430122 0.976679615625185 -74.4443779430122 0.120960740085617 -170.06739961655 
1                              0.127222175977024 -169.446194788463 0.974508489588973 -82.587636177454 0.974508489588973 -82.587636177454 0.127159801958614 -178.512100837463 
1.1                            0.131731423672041 -177.393426569155 0.97255773195353 -90.7178129763458 0.972557731953531 -90.7178129763458 0.131553906520418 173.162966158273 
1.2                            0.134415212694743 174.591496423707 0.970850473222712 -98.8385415412185 0.970850473222713 -98.8385415412185 0.134123147156747 164.972160212944 
1.3                            0.135269363566554 166.479048898726 0.969397341794704 -106.953691804665 0.969397341794705 -106.953691804665 0.134873412201553 156.936433783921 
1.4                            0.134314384404746 158.233085388287 0.968195202720182 -115.067179588519 0.968195202720183 -115.067179588519 0.133836777690563 149.085570041939 
1.5                            0.131596768188599 149.807886416279 0.967227099858699 -123.182762057673 0.967227099858701 -123.182762057673 0.131072849372136 141.461600259402 
1.6                            0.127191222053181 141.143699891077 0.966463191790477 -131.303842498548 0.966463191790478 -131.303842498548 0.126671482073717 134.123883529802 
1.7                            0.121204284458862 132.159837385225 0.965862480699022 -139.433299061044 0.965862480699023 -139.433299061044 0.120757467256674 127.15668467194  
1.8                            0.113780208674844 122.743751386481 0.965375151634025 -147.573346946488 0.965375151634025 -147.573346946488 0.113498202956379 120.680582328429 
1.9                            0.105110815389614 112.733469394255 0.964945353067824 -155.725440107145 0.964945353067824 -155.725440107145 0.105116214125263 114.86962850645  
2                              0.0954526384522945 101.889231935099 0.964514255052456 -163.890215979861 0.964514255052456 -163.890215979861 0.0959099139806217 109.97636305602  
2.1                            0.0851577741369831 89.8489814965822 0.964023220098691 -172.0674845993  0.964023220098691 -172.0674845993  0.0862882575507376 106.364314239864 
2.2                            0.0747299316561169 76.0667661815278 0.963416918277776 179.743738654249 0.963416918277775 179.743738654249 0.0768264382489561 104.534502575333 
2.3                            0.0649208855690573 59.7664740184883 0.962646217300957 171.545159530046 0.962646217300955 171.545159530046 0.0683418160784583 105.087178674713 
2.4                            0.0568587911683585 40.0758154496198 0.961670685640898 163.339095567887 0.961670685640897 163.339095567887 0.0619425706839305 108.461021763732 
2.5                            0.0520581962491375 16.7600956854963 0.960460565938311 155.12833787171  0.960460565938309 155.12833787171  0.0588820465833744 114.289419362879 
2.6                            0.0518994973249239 -8.4712060543175 0.958998108437888 146.915992549125 0.958998108437887 146.915992549125 0.0600286095461169 120.866509477728 
2.7                            0.0566138614835525 -32.3181588960729 0.957278198587054 138.705311453306 0.957278198587054 138.705311453306 0.0652871211206801 125.952089919393 
2.8                            0.0651158384414924 -52.6473575852828 0.95530826503044 130.499522240936 0.95530826503044 130.499522240936 0.0737193253952791 128.304311225554 
2.9                            0.0759489246020105 -69.4261428837738 0.95310750793168 122.301667355782 0.95310750793168 122.301667355782 0.0841759943473955 127.928923403381 
3                              0.0879570711855452 -83.4908881116686 0.950705536108138 114.114460396016 0.950705536108138 114.114460396016 0.0957038048475729 125.37602629732  
3.1                            0.100359785694793 -95.6581308419352 0.948140538935343 105.940166565223 0.948140538935343 105.940166565223 0.107613163891355 121.227935609608 
3.2                            0.112639163944081 -106.517059584904 0.945457141421863 97.780511762273  0.945457141421863 97.7805117622728 0.119419122385626 115.940803554333 
3.3                            0.124439902471513 -116.461443976888 0.942704096962939 89.6366225904281 0.942704096962941 89.636622590428  0.130775688573181 109.840907642962 
3.4                            0.135508292496991 -125.75289943606 0.939931963358941 81.5089974078646 0.939931963358942 81.5089974078644 0.14143011497791 103.156704897835 
3.5                            0.145657715857282 -134.568955811457 0.937190887068737 73.397506697816  0.937190887068738 73.3975066978158 0.151194490425438 96.0493282479469 
3.6                            0.154748891765693 -143.034122271846 0.93452859280688 65.3014196320793 0.934528592806881 65.3014196320791 0.159928345980275 88.6347860681826 
3.7                            0.162678006676942 -151.239226938437 0.931988645081324 57.2194527839305 0.931988645081325 57.2194527839304 0.167527714467234 80.9989683591589 
3.8                            0.169369121384424 -159.253497295914 0.929609019061728 49.149836494346  0.929609019061728 49.1498364943459 0.173917923372225 73.2076401831872 
3.9                            0.174769015371347 -167.132265464129 0.927420993111327 41.0903943383617 0.927420993111327 41.0903943383616 0.179048601703748 65.3131730945991 
4                              0.178843537770762 -174.922042478186 0.925448355991885 33.038631379261  0.925448355991886 33.038631379261  0.182890082307337 57.359206889928  
4.1                            0.181575000124728 177.335990639811 0.923706908597395 24.9918273339542 0.923706908597395 24.9918273339542 0.185430780551682 49.3840174090158 
4.2                            0.182960387862541 169.603432270583 0.922204232647663 16.947131309854  0.922204232647663 16.947131309854  0.186675360321956 41.4230942450115 
4.3                            0.183010297115512 161.842638630025 0.920939696087123 8.90165533708469 0.920939696087123 8.90165533708464 0.186643634655973 33.5112630116748 
4.4                            0.181748579164724 154.014949310643 0.919904665753772 0.852564457388149 0.919904665753772 0.852564457388245 0.185370233111779 25.6845830101696 
4.5                            0.179212728006127 146.078946781471 0.919082900970705 -7.20283838924534 0.919082900970705 -7.20283838924525 0.182905124635293 17.9821861784168 
4.6                            0.175455096123729 137.98856846655  0.918451105984015 -15.2670340330183 0.918451105984015 -15.2670340330183 0.179315127032523 10.4481774551052 
4.7                            0.170545082938919 129.690900398147 0.917979623768307 -23.3422163230588 0.917979623768306 -23.3422163230588 0.174686569726286 3.13367168140579 
4.8                            0.164572520644247 121.123486090341 0.917633258019098 -31.4302297331912 0.917633258019096 -31.4302297331912 0.16912930628738 -3.90102659504787 
4.9                            0.157652591901783 112.211009943916 0.9173722137082  -39.5325159323315 0.917372213708199 -39.5325159323315 0.162782285772037 -10.5842272127194 
5                              0.149932752793318 102.861319552077 0.917153149056474 -47.6500698394191 0.917153149056472 -47.6500698394191 0.155820847756776 -16.8310377627134 
5.1                            0.141602270402941 92.9610667936488 0.916930332857614 -55.7834056797496 0.916930332857611 -55.7834056797496 0.148465705877552 -22.5428407555395 
5.2                            0.132904992334801 82.3720515897719 0.916656900396079 -63.9325336411993 0.916656900396077 -63.9325336411994 0.140993015551123 -27.609895391973 
5.3                            0.124155482284983 70.9311618647612 0.916286198305717 -72.0969478853257 0.916286198305714 -72.0969478853258 0.133743600497662 -31.9202600566202 
5.4                            0.115756808454941 58.460308045251  0.915773203176508 -80.2756268723044 0.915773203176507 -80.2756268723044 0.127126852562137 -35.3795680627207 
5.5                            0.108213428905473 44.7978594638747 0.915075990255378 -88.4670471591701 0.915075990255376 -88.4670471591701 0.121610986128579 -37.9455648060762 
5.6                            0.102123232010606 29.865442154015  0.914157217313944 -96.6692119523405 0.91415721731394 -96.6692119523405 0.117688233288307 -39.6746759949961 
5.7                            0.0981222750390302 13.769176707581  0.912985575427517 -104.879695644964 0.912985575427513 -104.879695644964 0.115807196330203 -40.762194567771 
5.8                            0.0967619979459289 -3.11435272805955 0.911537144606158 -113.09570525357 0.911537144606156 -113.09570525357 0.116282060309877 -41.5417840007144 
5.9                            0.0983471650135232 -20.16807781887  0.90979658034096 -121.314159017177 0.90979658034096 -121.314159017177 0.119214357695096 -42.4200738485304 
6                              0.102829511036464 -36.7250344257631 0.907758050116246 -129.531781417323 0.907758050116244 -129.531781417323 0.124470402148784 -43.7693718434748 
6.1                            0.109838828458375 -52.2973429530433 0.90542583969879 -137.745212575197 0.905425839698788 -137.745212575197 0.131726688444827 -45.8407804544858 
6.2                            0.118821420687425 -66.674383956753 0.902814559658141 -145.951128518676 0.902814559658143 -145.951128518676 0.140553028332781 -48.7402217807634 
6.3                            0.129184863749876 -79.8710818305412 0.899948903654807 -154.146367391698 0.899948903654806 -154.146367391698 0.150491273049783 -52.4576727065936 
6.4                            0.140386297997984 -92.0231794493821 0.896862940079619 -162.328055536107 0.896862940079621 -162.328055536107 0.161106966095862 -56.9145149429466 
6.5                            0.151964644739471 -103.304620462511 0.893598954142967 -170.493726728314 0.893598954142968 -170.493726728314 0.172013683921719 -62.0035226816855 
6.6                            0.163541263833909 -113.883409109745 0.890205893570438 -178.641427845529 0.890205893570439 -178.641427845529 0.182879447400202 -67.6138718182888 
6.7                            0.174808940184326 -123.904791258349 0.886737502342126 173.230195092842 0.886737502342125 173.230195092842 0.193424283426252 -73.6435611933915 
6.8                            0.185519153121494 -133.488425658784 0.88325024889765 165.121835294377 0.883250248897649 165.121835294377 0.2034146394237  -80.0039548701467 
6.9                            0.195471157998371 -142.731180492254 0.879801165192494 157.033491073062 0.879801165192496 157.033491073063 0.212657448385405 -86.6202118662763 
7                              0.204503529522854 -151.711476406708 0.876445710504237 148.964460473955 0.876445710504236 148.964460473955 0.220994924767034 -93.429905387386 
7.1                            0.212487847960737 -160.49351290662 0.873235760717857 140.913364078898 0.873235760717858 140.913364078898 0.228300345718109 -100.381041052809 
7.2                            0.219324030314327 -169.130846090072 0.870217803327411 132.878193897779 0.870217803327411 132.878193897779 0.234474744299068 -107.430034599405 
7.3                            0.224936886850665 -177.669250365013 0.867431394643797 124.85638511406  0.867431394643797 124.85638511406  0.239444351263618 -114.539868194881 
7.4                            0.229273610612166 173.851040953497 0.864907912582712 116.844906756049 0.864907912582713 116.844906756049 0.243158632016214 -121.678480524023 
7.5                            0.232302016253259 165.393583490679 0.862669618951361 108.840367072494 0.862669618951363 108.840367072494 0.245588810414638 -128.817374904321 
7.6                            0.234009420418106 156.924333432833 0.8607290311618  100.839129413139 0.860729031161801 100.839129413139 0.24672682203426 -135.930404950441 
7.7                            0.234402101903001 148.410519898694 0.859088595293701 92.8374346341458 0.859088595293704 92.8374346341458 0.246584683079142 -142.992694911949 
7.8                            0.233505302924854 139.819698777747 0.857740649811824 84.8315263443506 0.857740649811825 84.8315263443507 0.245194290434455 -149.979660697312 
7.9                            0.231363739209971 131.118931907146 0.856667670585238 76.8177755790319 0.856667670585239 76.817775579032  0.242607678852544 -156.866113539738 
8                              0.228042580587192 122.274059386996 0.855842791218744 68.7928016630021 0.855842791218748 68.792801663002  0.238897749132636 -163.625450784321 
8.1                            0.223628847043923 113.249061194605 0.855230595949014 60.7535860733862 0.855230595949016 60.7535860733863 0.234159442661322 -170.228969166805 
8.2                            0.218233136327988 104.005542631868 0.854788183401449 52.6975760446468 0.854788183401451 52.6975760446468 0.228511268801186 -176.64537839966 
8.3                            0.211991552316976 94.5024339887487 0.854466496584792 44.622774523012  0.854466496584794 44.622774523012  0.222096987699221 177.159349571011 
8.4                            0.205067626512413 84.6960767471737 0.854211906406782 36.5278129553413 0.854211906406786 36.527812955341  0.215087106877222 171.221586014326 
8.5                            0.197653898263976 74.5409832122018 0.853968022297546 28.4120033910706 0.853968022297546 28.4120033910706 0.207679661129865 165.578810475253 
8.6                            0.189972615936794 63.9916989455026 0.853677684787662 20.2753665946361 0.853677684787663 20.2753665946359 0.200099514283846 160.267166325042 
8.7                            0.182274717616943 53.0063319209836 0.853285072772196 12.1186334073195 0.853285072772195 12.1186334073197 0.192595172898209 155.317430364529 
8.8                            0.174835856597376 41.5523384220052 0.852737835444854 3.94321752691639 0.852737835444854 3.94321752691648 0.185431912703967 150.749181691169 
8.9                            0.167947863694122 29.6148747237226 0.851989139075752 -4.24884079671723 0.851989139075752 -4.24884079671714 0.178880057248583 146.563424043802 
9                              0.161903986952925 17.207163297367  0.850999505822692 -12.4549589773707 0.850999505822692 -12.4549589773706 0.173197789848467 142.734783276841 
9.1                            0.156977048302604 4.38073749992539 0.849738319113183 -20.6721211532541 0.849738319113184 -20.6721211532537 0.168609208031447 139.205518430563 
9.2                            0.153391834708739 -8.76844836545844 0.848184880139655 -28.8970071025612 0.848184880139657 -28.8970071025609 0.165280436919971 135.884349977349 
9.3                            0.151296451411173 -22.1028276024896 0.846328923151048 -37.1261342919984 0.846328923151049 -37.1261342919983 0.163298803194918 132.652572112078 
9.4                            0.150740418122068 -35.4576120951493 0.844170531785158 -45.356005018604 0.844170531785157 -45.356005018604 0.162660911606464 129.377538347574 
9.5                            0.151667330423035 -48.6642813605647 0.841719440900255 -53.583249878581 0.841719440900258 -53.583249878581 0.163273703180037 125.930269665729 
9.6                            0.153925520296866 -61.5755712813588 0.83899375305958 -61.8047587596913 0.838993753059582 -61.8047587596914 0.164968502644275 122.201809148315 
9.7                            0.157293387205125 -74.0834528338246 0.836018140441683 -70.0177912052649 0.836018140441684 -70.0177912052648 0.167523829133694 118.113675731639 
9.8                            0.161511254855673 -86.1256960514781 0.832821636684196 -78.2200592398415 0.832821636684196 -78.2200592398417 0.170690730099655 113.620762892474 
9.9                            0.166311348620025 -97.6822358117682 0.829435145896062 -86.4097774063714 0.829435145896064 -86.4097774063714 0.174215272505777 108.708096247624 
10                             0.171440717031069 -108.765820287861 0.825888806865667 -94.5856766339008 0.825888806865667 -94.5856766339008 0.17785536832072 103.384331385018 
