! Touchstone file exported from HFSS 3D Layout Design 2026.1.0
!        File:           D:/Work/ADS/HFSS_VERDICT/hfss_sma_connector_cpw.aedt
!        Generated:      02:48:42 PM Aug  6, 2026
!        Design:         SINGLE_END_SMA_CPW_30MM
!        Project:        hfss_sma_connector_cpw
!
! Variables:
!        $sma_Base_D = 6.25mm
!        $sma_Base_L = 8mm
!        $sma_Feet_L = 4mm
!        $sma_Feet_W = 1mm
!        $sma_Front_L = 1.5mm
!        $sma_Front_W = 6.5mm
!        $sma_Hole_D = 1.25mm
!        $sma_PTFE_D = 4.2mm
!        $sma_Pin_D = 0.95mm
!        $sma_Pin_P = 1.7mm
!
# GHz S MA R 50.000000
! Terminal data exported
! Port[1] = Port1
! Port[2] = S1_1_Pin_T1
0.5                            0.069021893889322 -132.091748635886 0.987659866975518 -41.675527545427 0.987659866975517 -41.675527545427 0.0692847014658848 -133.206962132764 
0.6                            0.0802071600655413 -140.536951952535 0.985280561562917 -49.9106152064111 0.985280561562915 -49.910615206411 0.0804211036889721 -141.689029990535 
0.7                            0.0901843288669371 -148.953440056867 0.982929556899194 -58.1253051069068 0.982929556899193 -58.1253051069066 0.0903015992092987 -150.023740475332 
0.8                            0.0988471557180078 -157.373901989921 0.980650668941212 -66.3214420399842 0.980650668941212 -66.3214420399841 0.0988284125012793 -158.217734603313 
0.9                            0.106108155763787 -165.826010523564 0.978483755570052 -74.5012911999512 0.978483755570052 -74.5012911999511 0.10592353879121 -166.269288083954 
1                              0.111900439469987 -174.33656405487 0.976461603583764 -82.6674350285515 0.976461603583764 -82.6674350285514 0.111529674750441 -174.169483951203 
1.1                            0.116178877383897 177.065814658442 0.974608671279827 -90.8226903471374 0.974608671279827 -90.8226903471374 0.115611710107432 178.097555511718 
1.2                            0.11892099214204 168.348542994651 0.972940293595751 -98.9700308432587 0.972940293595751 -98.9700308432587 0.118158302306349 170.555211795931 
1.3                            0.120128004616243 159.472957684372 0.971462103282169 -107.112497633223 0.971462103282169 -107.112497633223 0.119183574628959 163.235713870647 
1.4                            0.119826402344268 150.391793666898 0.970169748760528 -115.25309364734 0.970169748760528 -115.25309364734 0.118729243322711 156.182378548453 
1.5                            0.118070387150575 141.045874680266 0.969049020636191 -123.394666485588 0.969049020636191 -123.394666485588 0.116867623579512 149.452902731367 
1.6                            0.114945636041264 131.359591893614 0.968076450512032 -131.539788206622 0.968076450512032 -131.539788206622 0.113706091415448 143.123898223532 
1.7                            0.110574998188749 121.234702109555 0.967220390888386 -139.69064124245 0.967220390888386 -139.69064124245 0.109393748627533 137.296787129533 
1.8                            0.105127072877009 110.542053913768 0.966442541208614 -147.848918875339 0.966442541208613 -147.848918875339 0.104131252271449 132.104773504792 
1.9                            0.0988290517910247 99.1114122507765 0.96569985243809 -156.015747337668 0.965699852438089 -156.015747337668 0.0981848892436244 127.719343102431 
2                              0.0919855487361996 86.7215601454443 0.964946717389572 -164.191634969261 0.964946717389572 -164.191634969261 0.0919054704503131 124.351497502226 
2.1                            0.0850044738757071 73.0985240236728 0.964137333913988 -172.376452107014 0.964137333913987 -172.376452107014 0.0857500052705247 122.235983007642 
2.2                            0.0784265540893155 57.9427155112018 0.963228112744586 179.430556489356 0.963228112744586 179.430556489355 0.0802963072608882 121.576076142105 
2.3                            0.072940819824516 41.0254964757998 0.962179992601833 171.230726836548 0.962179992601832 171.230726836548 0.0762247182100109 122.423396771531 
2.4                            0.0693399747275243 22.3926828265542 0.960960524353004 163.025900715237 0.960960524353003 163.025900715237 0.0742257923086922 124.50953442262  
2.5                            0.0683537034109771 2.60144827237249 0.959545595614141 154.81832454015  0.95954559561414 154.81832454015  0.0748178949180837 127.160867594569 
2.6                            0.0703799201286266 -17.2936052828633 0.957920688135451 146.610527916184 0.957920688135449 146.610527916184 0.0781576943685585 129.475942622744 
2.7                            0.0753086847052346 -36.1879421525655 0.956081591866416 138.405189006208 0.956081591866417 138.405189006208 0.0839955280090791 130.700667976215 
2.8                            0.0826143974017961 -53.425510385806 0.954034539101393 130.204994624791 0.954034539101393 130.204994624791 0.0918117835464805 130.472786855575 
2.9                            0.0916087938608201 -68.8872702076563 0.951795765326931 122.012503133536 0.951795765326931 122.012503133536 0.101006309746976 128.786373909617 
3                              0.10163878161671 -82.7727496369049 0.949390545256081 113.830017730639 0.949390545256083 113.830017730639 0.111023352478952 125.826328177881 
3.1                            0.112163716171187 -95.379959731711 0.946851788105429 105.659476666176 0.946851788105429 105.659476666176 0.121397484134658 121.831986032461 
3.2                            0.122759032209308 -106.992000055904 0.94421830159117 97.5023654144991 0.944218301591169 97.5023654144991 0.131754967934044 117.028361595408 
3.3                            0.133095627568064 -117.84144670288 0.941532847284953 89.3596540826011 0.941532847284955 89.3596540826011 0.141799886013707 111.603462489607 
3.4                            0.142917775134498 -128.109230024152 0.938840110761588 81.2317615283104 0.938840110761587 81.2317615283104 0.151298756236417 105.706929991237 
3.5                            0.152025832277485 -137.934058759992 0.9361847000592  73.1185459857595 0.9361847000592  73.1185459857595 0.160067884206626 99.4559610613237 
3.6                            0.160263942973545 -147.422934942734 0.933609268272522 65.0193205841585 0.933609268272523 65.0193205841585 0.167963913776933 92.9424877362287 
3.7                            0.167511512066674 -156.659951906083 0.931152834074456 56.9328910789592 0.931152834074457 56.9328910789592 0.174876980561501 86.239554985675  
3.8                            0.17367727937721 -165.713001200232 0.928849350951797 48.8576124135001 0.928849350951798 48.8576124135001 0.180725784526163 79.4064507498832 
3.9                            0.178695163581339 -174.638726736562 0.926726554666517 40.7914603676025 0.926726554666519 40.7914603676024 0.185454060931946 72.4926943514624 
4                              0.182521352530567 176.513823413695 0.924805100736361 32.7321144678859 0.924805100736362 32.732114467886  0.189028106566178 65.5411255913742 
4.1                            0.185132331441477 167.700459107207 0.923097990441821 24.6770484574379 0.923097990441822 24.6770484574378 0.191435152027453 58.5903291464828 
4.2                            0.186523677545275 158.879727353387 0.921610275054908 16.6236248734501 0.921610275054909 16.6236248734499 0.192682458686449 51.6765814055827 
4.3                            0.186709533886056 150.011192335285 0.920339023076161 8.56919059382139 0.920339023076163 8.56919059382127 0.192797071639668 44.8354544268739 
4.4                            0.185722725770139 141.053963012245 0.919273533313929 0.511170536536136 0.91927353331393 0.511170536536043 0.191826187767011 38.1031621486634 
4.5                            0.183615513868976 131.965366189268 0.9183957765438  -7.55284300462563 0.918395776543801 -7.55284300462579 0.18983810681031 31.5176847955986 
4.6                            0.180460994874659 122.699711389009 0.917681049161592 -15.6250076453045 0.917681049161593 -15.6250076453044 0.18692372350373 25.1196515468109 
4.7                            0.176355164302114 113.207152342566 0.917098822731313 -23.7071568599016 0.917098822731314 -23.7071568599016 0.183198483635072 18.9528894529946 
4.8                            0.171419638767663 103.432735987845 0.916613772853388 -31.8007364642913 0.916613772853389 -31.8007364642913 0.178804651172652 13.0644479945305 
4.9                            0.165804976417452 93.3158678951745 0.916186968767831 -39.9067533549223 0.916186968767832 -39.9067533549223 0.17391359135513 7.50377690160664 
5                              0.159694393451652 82.790643052361  0.915777201209778 -48.0257380899349 0.915777201209779 -48.0257380899349 0.168727530762878 2.32057855114121 
5.1                            0.153307382417721 71.7878159367189 0.915342420142792 -56.1577227435294 0.915342420142793 -56.1577227435294 0.163479877775139 -2.43927613800845 
5.2                            0.146902196856367 60.2395871365168 0.914841246294935 -64.3022352605107 0.914841246294936 -64.3022352605107 0.158432684442572 -6.7403609560424 
5.3                            0.140775293410611 48.0886889856417 0.91423451146383 -72.458311245445 0.914234511463831 -72.4583112454449 0.153869333989483 -10.567023771344 
5.4                            0.13525469114542 35.3029730877265 0.91348677331152 -80.624523701998 0.913486773311521 -80.6245237019979 0.150080409642376 -13.934535130264 
5.5                            0.130683356304216 21.8949670644027 0.912567742226583 -88.7990306641323 0.912567742226584 -88.7990306641322 0.147341568464638 -16.8993302366976 
5.6                            0.127389476866551 7.94191761321732 0.911453552479085 -96.9796399247462 0.911453552479086 -96.9796399247461 0.14588470343885 -19.5637308508302 
5.7                            0.125644628563277 -6.40332249097263 0.910127809067485 -105.163889194366 0.910127809067487 -105.163889194366 0.145867475156045 -22.0703091341664 
5.8                            0.125618528999556 -20.9219993391789 0.90858234676523 -113.34913907589 0.908582346765232 -113.34913907589 0.147349524843306 -24.5842213737804 
5.9                            0.127346050099676 -35.3638103301707 0.906817649601839 -121.532675318593 0.906817649601839 -121.532675318593 0.150283451941491 -27.2677266810141 
6                              0.130720971663267 -49.4949339461656 0.904842897004279 -129.711816032998 0.904842897004282 -129.711816032997 0.154523783122647 -30.2557154582763 
6.1                            0.135519289433333 -63.1387439503591 0.90267562558271 -137.884019023083 0.902675625582711 -137.884019023082 0.159850285976132 -33.64045479491  
6.2                            0.141441041614642 -76.1937005003606 0.900341020603542 -146.046984212006 0.900341020603542 -146.046984212006 0.165997549359854 -37.468469576929 
6.3                            0.148154310172495 -88.6280126971512 0.897870875543923 -154.198746343601 0.897870875543923 -154.198746343601 0.17268290998555 -41.7469189242288 
6.4                            0.15532976585003 -100.46129264212 0.89530227879527 -162.337753719031 0.895302278795272 -162.337753719031 0.179628054096829 -46.4544319862463 
6.5                            0.162662178120597 -111.744106766224 0.892676101227688 -170.462929606966 0.892676101227688 -170.462929606965 0.186573170939869 -51.5521131922372 
6.6                            0.169880821831413 -122.541583646635 0.890035365628641 -178.573714038115 0.890035365628637 -178.573714038115 0.193284738114548 -56.9924139181911 
6.7                            0.176752515647333 -132.922635147195 0.887423578884574 173.329915164886 0.887423578884572 173.329915164886 0.199558766241256 -62.7252644208605 
6.8                            0.183080612890963 -142.953938482963 0.884883101187585 165.247442183468 0.884883101187583 165.247442183468 0.205221207178459 -68.7017836983317 
6.9                            0.188702190132862 -152.697184761864 0.882453615321993 157.177832945982 0.88245361532199 157.177832945982 0.210126800046649 -74.876187521398 
7                              0.193484724299027 -162.208287354047 0.880170745396432 149.119573204588 0.880170745396432 149.119573204588 0.214157203580032 -81.2064894193073 
7.1                            0.197322913695579 -171.537644058865 0.878064860376204 141.070722825248 0.878064860376201 141.070722825248 0.217218947397332 -87.6544495607499 
7.2                            0.200135936504312 179.269097874915 0.876160085209443 133.02898387155  0.876160085209442 133.02898387155  0.219241530749532 -94.1850797161663 
7.3                            0.201865255796014 170.17007646647  0.87447353243074 124.991779932176 0.874473532430737 124.991779932176 0.220175873650554 -100.765896883267 
7.4                            0.202472994840566 161.126197464604 0.873014760424892 116.956344121256 0.873014760424889 116.956344121256 0.219993249095273 -107.366038776008 
7.5                            0.201940871177899 152.100122962232 0.871785460987226 108.919813209405 0.871785460987227 108.919813209405 0.218684772031925 -113.955304843651 
7.6                            0.200269665367074 143.055275381105 0.870779377853843 100.879325365847 0.870779377853843 100.879325365847 0.216261475982438 -120.503158814765 
7.7                            0.19747919702717 133.954840846841 0.869982458535602 92.8321189668268 0.869982458535601 92.8321189668267 0.212754964192132 -126.977716934951 
7.8                            0.193608780684661 124.760745573412 0.869373242864692 84.7756298295494 0.869373242864692 84.7756298295492 0.208218576582594 -133.344747045703 
7.9                            0.188718134574901 115.432579798597 0.868923491834731 76.7075840631633 0.868923491834735 76.7075840631631 0.202728967262876 -139.56671768449 
8                              0.182888715360036 105.926457698651 0.868599058308632 68.626083511458  0.868599058308634 68.6260835114579 0.196387941248869 -145.601967417929 
8.1                            0.176225447662507 96.1938360175176 0.868360995907341 60.5296805412761 0.868360995907342 60.529680541276  0.189324351903105 -151.404120864533 
8.2                            0.168858801488637 86.1803842594421 0.868166893180857 52.4174387709774 0.868166893180856 52.4174387709774 0.181695803315239 -156.921971810471 
8.3                            0.160947124946085 75.82513160566   0.867972406865111 44.2889763124832 0.86797240686511 44.2889763124831 0.173689811674629 -162.100199385709 
8.4                            0.152679027453202 65.0603491437514 0.867732951229709 36.1444882992768 0.867732951229712 36.1444882992767 0.165523916389086 -166.881484773037 
8.5                            0.144275364199314 53.8130034091551 0.867405481620147 27.9847459616492 0.867405481620148 27.9847459616492 0.15744394408383 -171.210819283973 
8.6                            0.135989897553325 42.0091444870335 0.866950291473187 19.8110703340477 0.866950291473188 19.8110703340475 0.149719189647449 -175.042910258023 
8.7                            0.128106907103151 29.5831217118514 0.866332726095702 11.6252798414415 0.866332726095702 11.6252798414416 0.142632775083751 -178.353298949119 
8.8                            0.120932926102722 16.4935229856508 0.865524706300081 3.42961246442237 0.86552470630008 3.42961246442246 0.136465229887119 178.84737027555  
8.9                            0.114778900980065 2.74607403664917 0.864505953199385 -4.7733751760236 0.864505953199384 -4.77337517602351 0.131470125231302 176.498898043944 
9                              0.109929784602227 -11.580937984127 0.863264813773282 -12.9809277923853 0.863264813773282 -12.9809277923854 0.127843205367571 174.482909648962 
9.1                            0.106602899180207 -26.3202903558637 0.861798605495294 -21.1902248973271 0.861798605495294 -21.1902248973269 0.125690793194338 172.627379379258 
9.2                            0.104904718872947 -41.2240191910141 0.860113425974644 -29.3985209646667 0.860113425974644 -29.3985209646668 0.1250070431233  170.727993579254 
9.3                            0.104803162790033 -56.0034857818603 0.858223407275068 -37.603284706279 0.858223407275073 -37.6032847062788 0.125669093388609 168.581516410338 
9.4                            0.106130235493982 -70.3883717804634 0.85614943033431 -45.8023296401308 0.856149430334315 -45.8023296401306 0.12745280052466 166.018784843064 
9.5                            0.108615547327653 -84.1768795290542 0.853917348446779 -53.9939284144876 0.853917348446788 -53.9939284144874 0.130063293573848 162.92531594307  
9.6                            0.111935794726284 -97.2564680253307 0.851555796409488 -62.176904104468 0.851555796409496 -62.176904104468 0.13317012835633 159.245388306015 
9.7                            0.115761387670482 -109.595286247569 0.849093681341662 -70.3506927733697 0.849093681341668 -70.3506927733699 0.136438522111255 154.973692678231 
9.8                            0.119788993943028 -121.218426702034 0.846557461852177 -78.5153728245565 0.846557461852182 -78.5153728245567 0.139553026938486 150.141747930448 
9.9                            0.123758507048428 -132.183016929056 0.843968325486105 -86.6716578966631 0.843968325486109 -86.671657896663 0.142234069101817 144.80467686197  
10                             0.127458361756978 -142.559271645648 0.841339373100876 -94.8208511512309 0.841339373100876 -94.8208511512309 0.144249370269088 139.03086942213  
