! Touchstone file exported from HFSS 3D Layout Design 2026.1.0
!        File:           D:/Work/SIM/ADS_AUTO_SIM/projects/RFSOC_RF/TX_Fillter.aedt
!        Generated:      01:34:22 AM Aug 31, 2026
!        Design:         TX_BAND1_MCFIL_R22_CNN024
!        Project:        TX_Fillter
!
# GHz S MA R 50.000000
! Terminal data exported
! Port[1] = Port1
! Port[2] = Port2
14                             0.971759489773837 -168.083570564904 0.00386885063854346 -178.288195814166 0.00386885063854346 -178.288195814166 0.973791966532006 -162.80491749407 
14.05                          0.971230070878531 -168.98620949086 0.0039468783021359 -178.694064691028 0.00394687830213591 -178.694064691028 0.973313797362308 -163.681658564649 
14.1                           0.970683860381427 -169.895533250975 0.00402865116884931 -179.081209340465 0.00402865116884934 -179.081209340465 0.97282070177233 -164.56429523897 
14.15                          0.970120041659602 -170.811756269549 0.00411445914227871 -179.449330302102 0.0041144591422787 -179.449330302102 0.97231194588601 -165.453007791132 
14.2                           0.969537745090248 -171.735103922724 0.004204619856231 -179.79817210858 0.00420461985623101 -179.79817210858 0.971786747176474 -166.347986042177 
14.25                          0.968936043749882 -172.665813238356 0.00429948164254324 179.872469341005 0.00429948164254323 179.872469341005 0.971244270427777 -167.249429989081 
14.3                           0.968313948692632 -173.604133650453 0.00439942683949852 179.562738726376 0.00439942683949853 179.562738726376 0.970683623292397 -168.157550484036 
14.35                          0.967670403759124 -174.550327813259 0.00450487548203 179.272712562627 0.00450487548203001 179.272712562626 0.970103851396917 -169.072569968846 
14.4                           0.967004279861098 -175.50467248063 0.00461628942025091 179.002389773126 0.00461628942025092 179.002389773127 0.969503932941873 -169.994723269783 
14.45                          0.966314368679404 -176.467459456965 0.00473417691899749 178.751681599061 0.00473417691899747 178.751681599061 0.968882772734302 -170.924258458862 
14.5                           0.965599375704556 -177.438996626652 0.00485909779815835 178.52040088373  0.00485909779815838 178.52040088373  0.96823919558293 -171.86143778818 
14.55                          0.964857912539091 -178.419609069774 0.0049916691817704 178.308250790333 0.00499166918177039 178.308250790333 0.967571938975941 -172.806538704744 
14.6                           0.964088488369571 -179.409640272719 0.00513257193339594 178.114813034956 0.00513257193339593 178.114813034956 0.96687964494972 -173.759854954051 
14.65                          0.96328950050276 179.590546556686 0.00528255786642314 177.939535741522 0.00528255786642311 177.939535741522 0.966160851043443 -174.721697781724 
14.7                           0.962459223845081 178.580567058723 0.00544245783095875 177.781721051883 0.00544245783095874 177.781721051883 0.965413980218704 -175.692397243599 
14.75                          0.961595799186407 177.560014163973 0.00561319079429507 177.640512651018 0.00561319079429505 177.640512651018 0.964637329604915 -176.672303635935 
14.8                           0.9606972201282  176.528456394643 0.00579577404998821 177.514883393295 0.00579577404998821 177.514883393294 0.963829057909705 -177.661789058897 
14.85                          0.959761318471264 175.485436009848 0.00599133471193781 177.403623239293 0.00599133471193779 177.403623239293 0.96298717130814 -178.661249128089 
14.9                           0.958785747849419 174.430466977826 0.00620112267517656 177.305327732036 0.00620112267517653 177.305327732036 0.962109507594744 -179.671104850824 
14.95                          0.957767965361155 173.363032755899 0.0064265252551669 177.218387254417 0.00642652525516689 177.218387254417 0.961193718346988 179.308195314023 
15                             0.956705210910973 172.282583856579 0.00666908375322422 177.140977314131 0.00666908375322422 177.140977314131 0.960237248807074 178.276173191275 
15.05                          0.955594483924273 171.188535175429 0.00693051223840254 177.071050096013 0.00693051223840251 177.071050096013 0.959237315139182 177.232318395691 
15.1                           0.954432517042837 170.080263053146 0.00721271888717697 177.006327502558 0.00721271888717696 177.006327502558 0.958190878660097 176.176085581789 
15.15                          0.953215746340257 168.957102040704 0.00751783028321004 176.944295869564 0.00751783028321002 176.944295869563 0.957094616570442 175.106891406176 
15.2                           0.951940277515855 167.818341332312 0.00784821915240188 176.882202494263 0.00784821915240186 176.882202494263 0.955944888628905 174.024111167018 
15.25                          0.95060184742874 166.663220826205 0.00820653609572096 176.817054047458 0.00820653609572093 176.817054047458 0.954737699109981 172.927075080411 
15.3                           0.949195780217283 165.490926767973 0.00859574598691775 176.745616859501 0.00859574598691772 176.745616859501 0.95346865326283 171.815064147794 
15.35                          0.94771693710901 164.300586925035 0.00901916982768691 176.664418973946 0.00901916982768691 176.664418973946 0.952132907340265 170.68730556212  
15.4                           0.946159658856302 163.091265233917 0.00948053300348517 176.569753754773 0.00948053300348514 176.569753754773 0.950725111086557 169.542967593152 
15.45                          0.944517699527634 161.861955854201 0.00998402106429472 176.45768471655  0.00998402106429471 176.45768471655  0.949239341353274 168.381153883816 
15.5                           0.942784150133941 160.611576554149 0.0105343443725958 176.324051125887 0.0105343443725958 176.324051125886 0.947669025244467 167.200897080031 
15.55                          0.940951350264476 159.338961343129 0.0111368132235631 176.16447380129  0.011136813223563 176.16447380129  0.946006850864262 166.001151705533 
15.6                           0.939010785533042 158.042852254983 0.0117974253597113 175.974360421397 0.0117974253597113 175.974360421397 0.944244663336779 164.78078618108  
15.65                          0.93695296817716 156.721890174462 0.012522968185731 175.74890954216  0.012522968185731 175.74890954216  0.942373343271277 163.538573873812 
15.7                           0.93476729758864 155.37460458594  0.0133211384535562 175.483112424496 0.0133211384535562 175.483112424496 0.940382664231204 162.273183047649 
15.75                          0.932441896858109 153.999402110134 0.0142006827504121 175.171751686302 0.0142006827504121 175.171751686302 0.938261125004398 160.983165569596 
15.8                           0.929963420555379 152.594553681158 0.0151715628049871 174.809395715682 0.0151715628049871 174.809395715682 0.935995751525318 159.666944210136 
15.85                          0.927316827901107 151.158180203978 0.0162451504544453 174.390387713095 0.0162451504544453 174.390387713095 0.933571862121388 158.32279835952  
15.9                           0.924485114161814 149.688236523034 0.0174344581177715 173.908828163818 0.0174344581177715 173.908828163818 0.930972788284172 156.948847967112 
15.95                          0.921448991456846 148.182493529322 0.0187544118335791 173.358549472098 0.0187544118335791 173.358549472098 0.928179541327288 155.543035500733 
16                             0.918186508124996 146.638518240267 0.0202221753816151 172.733081406289 0.0202221753816151 172.733081406289 0.925170412993452 154.103105721389 
16.05                          0.914672593267733 145.053651711424 0.0218575357574174 172.025605901128 0.0218575357574174 172.025605901128 0.921920495198635 152.626583082527 
16.1                           0.910878509957554 143.424984692851 0.0236833623472603 171.228899629985 0.0236833623472603 171.228899629985 0.918401100515204 151.110746603003 
16.15                          0.906771196754527 141.749331043394 0.0257261545832616 170.335262588557 0.0257261545832616 170.335262588557 0.914579060539187 149.552602146001 
16.2                           0.902312472491353 140.023199090423 0.0280166956475018 169.336430717205 0.0280166956475019 169.336430717205 0.910415873786155 147.948852188978 
16.25                          0.897458073669967 138.242761413079 0.0305908328861195 168.223470332926 0.0305908328861195 168.223470332926 0.905866668046814 146.295863433846 
16.3                           0.892156487234998 136.403823999065 0.0334904088339425 166.986651854956 0.0334904088339425 166.986651854956 0.900878934086705 144.589633047212 
16.35                          0.886347534091557 134.501796479996 0.0367643697966851 165.615300019098 0.0367643697966851 165.615300019098 0.895390978209588 142.825755039501 
16.4                           0.879960650996274 132.531666345063 0.0404700811277421 164.09761754328  0.0404700811277422 164.09761754328  0.889330030841182 140.99938944831  
16.45                          0.872912811507985 130.487981910351 0.0446748784560935 162.42047913836  0.0446748784560936 162.42047913836  0.882609937868186 139.105238834731 
16.5                           0.865106022893526 128.364851756931 0.0494578800361514 160.569193042566 0.0494578800361514 160.569193042566 0.875128353116659 137.137539520521 
16.55                          0.856424339804014 126.155972922679 0.0549120734558293 158.527228216375 0.0549120734558295 158.527228216375 0.866763348410846 135.090079595268 
16.6                           0.846730355615011 123.854707222799 0.061146664094181 156.275907500055 0.0611466640941812 156.275907500055 0.857369370432884 132.956262945416 
16.65                          0.835861183706892 121.454236011445 0.0682896231447479 153.794071272815 0.068289623144748 153.794071272815 0.846772516405738 130.729249842857 
16.7                           0.823624050018056 118.9478404375   0.0764902843056804 151.057723826455 0.0764902843056805 151.057723826454 0.834765200669031 128.402222155679 
16.75                          0.809791829377072 116.329379555754 0.0859216872416855 148.039687862635 0.0859216872416857 148.039687862635 0.821100488343405 125.968848199496 
16.8                           0.794099243263392 113.594076153505 0.0967821201918066 144.709314265838 0.0967821201918069 144.709314265838 0.805486757868188 123.424063089386 
16.85                          0.776241104969344 110.739773882505 0.109294933391348 141.032328623047 0.109294933391348 141.032328623047 0.787584042092627 120.765340835096 
16.9                           0.75587509903249 107.76890187764  0.123705142004544 136.970947395874 0.123705142004544 136.970947395874 0.767004560102955 117.994720102688 
16.95                          0.73263327866167 104.691470511529 0.140270610072862 132.484468308921 0.140270610072862 132.484468308921 0.743321795018751 115.121958547843 
17                             0.706148829181477 101.52950099768  0.159244813824876 127.530628049904 0.159244813824877 127.530628049904 0.716095142329045 112.169318816181 
17.05                          0.676107375377938 98.323292080228  0.180847682328378 122.068105575781 0.180847682328379 122.068105575781 0.684920466566372 109.178582288659 
17.1                           0.642333943207837 95.1396789765548 0.205221611430939 116.060577087955 0.205221611430939 116.060577087955 0.649519768456332 106.220804545546 
17.15                          0.604924464991768 92.081588410229  0.232372810461484 109.482592990016 0.232372810461484 109.482592990016 0.609882611111191 103.408743216386 
17.2                           0.564418564842133 89.296118029233  0.262105215136029 102.327094827955 0.26210521513603 102.327094827955 0.566462149761947 100.910137457825 
17.25                          0.521980632933751 86.9742993000254 0.293965432033112 94.6135018215136 0.293965432033112 94.6135018215136 0.520401242396662 98.9559435497499 
17.3                           0.47950559063172 85.3297011048837 0.327228389385904 86.394092203233  0.327228389385905 86.394092203233  0.473712744090834 97.8299029299297 
17.35                          0.439510215110298 84.5392248259615 0.360954175749503 77.7554977335366 0.360954175749504 77.7554977335366 0.429269081567142 97.8155340934426 
17.4                           0.404667091017843 84.6414064978406 0.394125430334957 68.8125699835464 0.394125430334958 68.8125699835463 0.390408979728356 99.0762079271744 
17.45                          0.376983711582641 85.4331199245914 0.425833433585566 59.6943513768216 0.425833433585567 59.6943513768216 0.360046933408571 101.487936000884 
17.5                           0.356955561553687 86.4621737504124 0.455445147624224 50.5255428501578 0.455445147624224 50.5255428501578 0.339516542406673 104.550582720478 
17.55                          0.34326302897598 87.1792456834877 0.482685252141345 41.4093128562886 0.482685252141345 41.4093128562886 0.327870065391679 107.540523361194 
17.6                           0.333289117441706 87.1563677528545 0.50761051837527 32.4166145433807 0.50761051837527 32.4166145433806 0.322283955248366 109.846343419731 
17.65                          0.324072581452352 86.204148217845  0.530505324538463 23.5839203229293 0.530505324538463 23.5839203229292 0.319279449408585 111.196528961106 
17.7                           0.313078318198276 84.3450297893649 0.551751045519272 14.9178723814281 0.551751045519271 14.9178723814281 0.315833417402724 111.642037631381 
17.75                          0.298526170602084 81.7265290796071 0.571712966606641 6.40368697293879 0.571712966606641 6.40368697293879 0.309881631540302 111.42100185351  
17.8                           0.279392044573812 78.5535714062513 0.590665068322335 -1.98564380561669 0.590665068322335 -1.98564380561669 0.300345650085202 110.848295881215 
17.85                          0.255281413204047 75.065002066913  0.608753978116918 -10.2812163144637 0.608753978116918 -10.2812163144637 0.286981604300212 110.267735554233 
17.9                           0.226303636657692 71.5543447512166 0.625994651602836 -18.5119474274476 0.625994651602835 -18.5119474274476 0.270236732297109 110.047550061423 
17.95                          0.193002420163526 68.4461645541978 0.642289072827155 -26.7003240081284 0.642289072827155 -26.7003240081283 0.251176447631128 110.590622748252 
18                             0.156380382269258 66.4917199778193 0.657460663235056 -34.8600459031661 0.657460663235056 -34.8600459031661 0.231473531020671 112.327974960062 
18.05                          0.118143730386644 67.3205440705265 0.671298103819569 -42.9953662680914 0.671298103819568 -42.9953662680914 0.213394090364657 115.647246457923 
18.1                           0.0817695263327737 75.1840962464105 0.683602098431865 -51.1019043719681 0.683602098431864 -51.1019043719681 0.199625726031301 120.695029487563 
18.15                          0.0568983483340805 100.278726139307 0.694227967163001 -59.1686410768233 0.694227967163   -59.1686410768233 0.192714968799781 127.079490214532 
18.2                           0.0616831512585762 137.48171504134  0.70311714039901 -67.180704796811 0.703117140399009 -67.180704796811 0.194098287146761 133.769661068732 
18.25                          0.0903753275313624 155.677133537311 0.710312517956471 -75.1224664361757 0.710312517956471 -75.1224664361757 0.203373086122518 139.532195889814 
18.3                           0.125481954289253 160.078981491782 0.715956134780756 -82.9804456949357 0.715956134780756 -82.9804456949356 0.21857901124241 143.576275908945 
18.35                          0.160315955030428 158.954774522487 0.720271508634222 -90.7456173161632 0.720271508634221 -90.7456173161632 0.237189470296668 145.7448695327   
18.4                           0.192519191814975 155.369093077365 0.723535990533029 -98.4148742009073 0.723535990533029 -98.4148742009073 0.256919628595469 146.272424372439 
18.45                          0.221020906674915 150.508764326128 0.726049479420724 -105.991598808541 0.726049479420724 -105.991598808541 0.276034429155364 145.509806055275 
18.5                           0.245283491373105 144.898838695163 0.728105028792   -113.485455411273 0.728105028792   -113.485455411273 0.29334485456815 143.782057855735 
18.55                          0.265067425398171 138.793070306062 0.729964926359612 -120.911608609285 0.729964926359611 -120.911608609285 0.308102325244376 141.346025503298 
18.6                           0.280331937661385 132.317283704072 0.7318437107824  -128.289595813676 0.7318437107824  -128.289595813676 0.319888085639985 138.390954148456 
18.65                          0.291182589659067 125.529633932836 0.733897968318346 -135.642053966048 0.733897968318346 -135.642053966048 0.328525184009929 135.051138025049 
18.7                           0.297841762239665 118.448975270401 0.736221865316147 -142.993451393628 0.736221865316147 -142.993451393628 0.334015284510241 131.418840903635 
18.75                          0.300634156150055 111.069579795961 0.738847124094893 -150.368927073105 0.738847124094893 -150.368927073106 0.336495793858057 127.554080777364 
18.8                           0.299983510120953 103.369607618762 0.74174628729133 -157.793304303484 0.741746287291329 -157.793304303485 0.336211718079672 123.490737602318 
18.85                          0.296417471981727 95.3168557222094 0.744838370605184 -165.290326843212 0.744838370605183 -165.290326843212 0.333496955240853 119.239193951443 
18.9                           0.290577206914513 86.8739455373204 0.747996164731   -172.882158911308 0.747996164730999 -172.882158911308 0.328760352501616 114.785829174087 
18.95                          0.283227483927941 78.0047572599637 0.751054385903053 179.410812269309 0.751054385903052 179.410812269309 0.322472875323583 110.089742366267 
19                             0.275261818422479 68.6838824746786 0.753817555092349 171.569841990141 0.753817555092347 171.569841990141 0.315154092213889 105.077334041348 
19.05                          0.267696059819087 58.910436462747  0.756065974625685 163.577358771776 0.756065974625684 163.577358771776 0.30735936061602 99.6359650911023 
19.1                           0.2616435436892  48.7256904983935 0.757557644214737 155.416210017296 0.757557644214735 155.416210017296 0.299673729188666 93.6088940519975 
19.15                          0.258267613716881 38.2296479916372 0.758023699740106 147.068755932388 0.758023699740106 147.068755932388 0.292723685488578 86.7950705807475 
19.2                           0.258715223638956 27.5858322890478 0.757155341532859 138.516058864355 0.757155341532859 138.516058864355 0.287220455898226 78.9591145221713 
19.25                          0.264046921760622 17.0015536640309 0.754581689308741 129.737551181692 0.754581689308742 129.737551181692 0.284042640289102 69.8587255250092 
19.3                           0.275183574592282 6.68037984199658 0.749841057251389 120.711703291238 0.749841057251391 120.711703291238 0.28434299342983 59.2972470163293 
19.35                          0.292875094555911 -3.23664005102056 0.742353248242513 111.418311648188 0.742353248242516 111.418311648189 0.289618738028687 47.2024362597497 
19.4                           0.317664734386188 -12.7107174167592 0.731407637684407 101.842996699555 0.73140763768441 101.842996699555 0.301633735203135 33.7094394698861 
19.45                          0.349804642226257 -21.8039583092595 0.716189493522357 91.9841875514605 0.71618949352236 91.9841875514605 0.322088212517981 19.1918077885632 
19.5                           0.389103915453919 -30.6390629502652 0.69587012443168 81.8620763727589 0.695870124431684 81.8620763727589 0.352071206863536 4.1858797406115  
19.55                          0.434752594500941 -39.3421285982545 0.669775592948077 71.5276706446655 0.669775592948079 71.5276706446654 0.391536678667105 -10.7664602072812 
19.6                           0.48522258507438 -47.9941561587903 0.637614654861531 61.0685286643372 0.637614654861532 61.0685286643372 0.439091688126848 -25.2498837172822 
19.65                          0.538352112817495 -56.6073563131664 0.599694616624725 50.6071328386596 0.599694616624725 50.6071328386595 0.492204283725925 -39.0096571835922 
19.7                           0.591649753013645 -65.128965211026 0.557017835869617 40.2895159527793 0.557017835869616 40.2895159527793 0.547729033721238 -51.9127362477556 
19.75                          0.642734354934237 -73.4647228124396 0.511178654999396 30.2658643119334 0.511178654999395 30.2658643119336 0.602548397333733 -63.8972240507018 
19.8                           0.689740261166167 -81.5092182242259 0.464076784463749 20.6691097760832 0.464076784463749 20.6691097760835 0.654117056477989 -74.9418658517772 
19.85                          0.731536919807442 -89.1713811042774 0.417562641853179 11.5986935922562 0.417562641853179 11.5986935922567 0.700758145039264 -85.0543746732856 
19.9                           0.767722182337767 -96.3888170660725 0.373152820330382 3.11375247640495 0.373152820330383 3.11375247640546 0.7416819130015  -94.2671528551699 
19.95                          0.798457214335689 -103.130897726812 0.331892036823993 -4.76462235330226 0.331892036823995 -4.76462235330172 0.776809808025899 -102.63286307043 
20                             0.824248823759641 -109.394331395642 0.294354481024419 -12.0454845709361 0.294354481024421 -12.0454845709355 0.806526570083762 -110.218169140959 
20.05                          0.845758239796987 -115.195594588494 0.260730103133623 -18.7583773809147 0.260730103133625 -18.7583773809141 0.831453827961199 -117.096893249696 
20.1                           0.863668848705458 -120.563349869501 0.230938809608803 -24.9445940166368 0.230938809608806 -24.9445940166363 0.852286737970875 -123.344101353759 
20.15                          0.878611618219349 -125.532356475596 0.204735713221474 -30.6505149332996 0.204735713221476 -30.6505149332992 0.869695987960069 -129.031863726729 
20.2                           0.891132780667076 -130.139217532093 0.181792069346449 -35.92312817377  0.181792069346451 -35.9231281737697 0.88427976134485 -134.226713808255 
20.25                          0.901687196382794 -134.41972622801 0.161750354958   -40.8073426212291 0.161750354958003 -40.8073426212288 0.89654753195518 -138.988458796639 
20.3                           0.910644874594491 -138.407395011335 0.144258097893521 -45.3445847034161 0.144258097893523 -45.3445847034159 0.906921325819956 -143.369912524997 
20.35                          0.918302793499842 -142.132774007836 0.128986459279798 -49.5722298783712 0.1289864592798  -49.5722298783711 0.915745037778037 -147.417181820825 
20.4                           0.924897729934761 -145.62325503024 0.115638828415335 -53.5235344569888 0.115638828415336 -53.5235344569889 0.923296391038989 -151.170239604867 
20.45                          0.930618077640152 -148.903151500392 0.103953344644764 -57.2278417345014 0.103953344644765 -57.2278417345015 0.929798780951859 -154.663612160854 
20.5                           0.935613908182159 -151.993919686763 0.0937019990149692 -60.7109199016306 0.0937019990149699 -60.7109199016307 0.935431803668821 -157.927078797153 
20.55                          0.940005170592674 -154.914439707143 0.0846880002775014 -63.9953469936883 0.0846880002775021 -63.9953469936885 0.940340102659778 -160.986329661438 
20.6                           0.943888207099501 -157.681309586211 0.0767424188923167 -67.1008955332768 0.0767424188923171 -67.1008955332769 0.944640566645284 -163.863556994283 
20.65                          0.947340855700243 -160.309127406392 0.0697206863900157 -70.0448925635094 0.069720686390016 -70.0448925635096 0.948428077170931 -166.577972249969 
20.7                           0.950426414802031 -162.810749616345 0.0634992564615598 -72.8425443724854 0.0634992564615599 -72.8425443724856 0.951780049289821 -169.14625075353 
20.75                          0.953196713262683 -165.197521051368 0.0579725722923679 -75.5072228866371 0.0579725722923678 -75.5072228866371 0.954759999188525 -171.582910032366 
20.8                           0.955694486859627 -167.479476318597 0.053050391814273 -78.0507147927507 0.0530503918142728 -78.0507147927508 0.957420341680045 -173.900629689321 
20.85                          0.957955221122086 -169.665514282428 0.0486554719407218 -80.4834364174903 0.0486554719407215 -80.4834364174903 0.959804584635069 -176.11052092518 
20.9                           0.960008585000937 -171.763548305176 0.0447215873588754 -82.8146181612377 0.0447215873588751 -82.8146181612376 0.96194905383641 -178.222353314686 
20.95                          0.961879551012856 -173.780635171126 0.0411918484508455 -85.0524623977796 0.0411918484508452 -85.0524623977794 0.963884253034239 179.755254384269 
21                             0.963589274816771 -175.723085554431 0.0380172799618833 -87.2042785341573 0.0380172799618829 -87.2042785341569 0.965635940601751 177.814673522467 
21.05                          0.965155789694926 -177.596558659653 0.0351556233015493 -89.2765985596715 0.035155623301549 -89.2765985596711 0.967225985676785 175.949129970788 
21.1                           0.966594558085448 -179.406143367817 0.0325703286366945 -91.2752760012535 0.0325703286366942 -91.2752760012531 0.9686730522543  174.152589470443 
21.15                          0.967918912224162 178.843572085793 0.0302297069632018 -93.2055707976126 0.0302297069632015 -93.2055707976122 0.969993148571866 172.419660438896 
21.2                           0.96914040833806 177.148440165723 0.0281062164523998 -95.0722222325121 0.0281062164523996 -95.0722222325115 0.971200070597269 170.745511342188 
21.25                          0.970269113088834 175.504702346979 0.0261758612185312 -96.8795117383878 0.026175861218531 -96.8795117383871 0.97230576189689 169.125800242496 
21.3                           0.971313836628099 173.908944435219 0.0244176840971897 -98.6313170971125 0.0244176840971895 -98.6313170971118 0.973320607167656 167.556614543563 
21.35                          0.972282323344681 172.358057845585 0.0228133380180492 -100.331159322614 0.022813338018049 -100.331159322613 0.974253672889245 166.034419298459 
21.4                           0.973181408894016 170.849205955741 0.0213467231104292 -101.982243305925 0.0213467231104291 -101.982243305924 0.975112905616959 164.556012725454 
21.45                          0.974017150202864 169.37979478899  0.0200036788354407 -103.587493132153 0.0200036788354406 -103.587493132152 0.975905296175709 163.118487808955 
21.5                           0.974794933691667 167.947447400949 0.0187717222418499 -105.14958283597 0.0187717222418499 -105.149582835969 0.976637016270382 161.719199052294 
21.55                          0.975519565842261 166.549981441743 0.0176398249439954 -106.670963243026 0.0176398249439953 -106.670963243026 0.977313532674958 160.355733605124 
21.6                           0.976195349378314 165.185389447882 0.0165982226656011 -108.153885445353 0.0165982226656011 -108.153885445353 0.97793970310988 159.025886116459 
21.65                          0.97682614765854 163.851821486709 0.0156382522247634 -109.600421375854 0.0156382522247634 -109.600421375853 0.978519857094187 157.727636770063 
21.7                           0.977415439362671 162.547569833729 0.0147522116887611 -111.012481877661 0.0147522116887611 -111.01248187766 0.979057864412983 156.459132046107 
21.75                          0.977966365142737 161.271055411164 0.01393324013331 -112.391832606014 0.0139332401333101 -112.391832606014 0.979557193331428 155.218667825144 
21.8                           0.978481767591497 160.020815756384 0.0131752140251626 -113.740108051465 0.0131752140251625 -113.740108051465 0.980020960283199 154.004674510284 
21.85                          0.978964225626125 158.795494322616 0.0124726577309249 -115.058823932011 0.0124726577309249 -115.058823932011 0.980451972440455 152.815703893131 
21.9                           0.979416084183506 157.593830942851 0.0118206660563434 -116.349388166926 0.0118206660563434 -116.349388166926 0.980852764316145 151.650417530526 
21.95                          0.979839479962347 156.414653311764 0.0112148370536379 -117.613110615445 0.0112148370536379 -117.613110615445 0.981225629343777 150.507576433724 
22                             0.980236363817889 155.256869360805 0.0106512136117489 -118.851211738265 0.0106512136117488 -118.851211738265 0.981572647214118 149.386031900664 
22.05                          0.980608520310692 154.119460418728 0.0101262325754092 -120.064830318284 0.0101262325754091 -120.064830318285 0.981895707614222 148.284717346369 
22.1                           0.980957584826345 153.001475064437 0.00963668033184572 -121.255030358548 0.00963668033184563 -121.255030358548 0.982196530905204 147.202641007035 
22.15                          0.981285058614175 151.902023591412 0.00917965396523872 -122.422807259516 0.00917965396523863 -122.422807259516 0.982476686186376 146.138879410727 
22.2                           0.981592322036728 150.820273013584 0.00875252721427877 -123.569093364127 0.00875252721427867 -123.569093364127 0.982737607120544 145.092571522285 
22.25                          0.981880646275582 149.755442551566 0.00835292058168881 -124.694762947372 0.00835292058168874 -124.694762947373 0.982980605835457 144.062913482533 
22.3                           0.982151203700989 148.706799545931 0.00797867504010926 -125.800636716923 0.00797867504010919 -125.800636716923 0.983206885167024 143.04915387248  
22.35                          0.982405077081254 147.673655750878 0.00762782885928066 -126.887485882599 0.00762782885928055 -126.887485882601 0.98341754946905 142.050589442316 
22.4                           0.982643267781602 146.655363967406 0.00729859714749878 -127.956035844876 0.0072985971474987 -127.956035844876 0.98361361418024 141.066561252712 
22.45                          0.982866703080348 145.65131498004  0.00698935375791017 -129.00696954604 0.00698935375791008 -129.006969546041 0.983796014310901 140.096451182641 
22.5                           0.983076242711927 144.660934765503 0.0066986152590678 -130.040930521986 0.00669861525906774 -130.040930521986 0.98396561198806 139.139678763625 
22.55                          0.983272684730901 143.683681945392 0.00642502671068252 -131.058525687666 0.00642502671068245 -131.058525687667 0.984123203177815 138.195698305264 
22.6                           0.983456770778118 142.719045458217 0.00616734902085846 -132.060327885048 0.00616734902085837 -132.060327885048 0.984269523686977 137.263996281163 
22.65                          0.983629190819157 141.766542428927 0.00592444769126454 -133.046878218668 0.00592444769126446 -133.046878218668 0.984405254531889 136.344088948057 
22.7                           0.983790587415929 140.825716216563 0.00569528278247698 -134.018688200812 0.00569528278247692 -134.018688200812 0.984531026750364 135.435520174148 
22.75                          0.983941559584301 139.896134622778 0.00547889995381296 -134.976241725518 0.0054788999538129 -134.976241725518 0.984647425722423 134.537859455442 
22.8                           0.984082666283873 138.977388245907 0.00527442245092335 -135.919996888299 0.00527442245092328 -135.919996888299 0.984754995056904 133.650700101298 
22.85                          0.984214429580173 138.069088966878 0.00508104393070346 -136.850387666405 0.00508104393070342 -136.850387666405 0.984854240093554 132.77365757254  
22.9                           0.984337337514593 137.170868554754 0.004898022027111 -137.767825472703 0.00489802202711096 -137.767825472703 0.984945631063886 131.9063679573   
22.95                          0.984451846713039 136.282377380947 0.00472467257358416 -138.672700594704 0.00472467257358412 -138.672700594705 0.98502960594861 131.048486571432 
23                             0.984558384760579 135.403283232305 0.00456036440821691 -139.565383528976 0.00456036440821691 -139.565383528976 0.985106573064784 130.19968667171  
