! Touchstone file exported from HFSS 3D Layout Design 2026.1.0
!        File:           D:/Work/ADS/HFSS_VERDICT/hfss_sma_connector_cpw.aedt
!        Generated:      01:53:54 PM Aug  5, 2026
!        Design:         SINGLE_END_SMA_CPW_30MM
!        Project:        hfss_sma_connector_cpw
!
! Variables:
!        $sma_Base_D = 6.25mm
!        $sma_Base_L = 8mm
!        $sma_Feet_L = 4mm
!        $sma_Feet_W = 1mm
!        $sma_Front_L = 1.5mm
!        $sma_Front_W = 6.5mm
!        $sma_Hole_D = 1.25mm
!        $sma_PTFE_D = 4.2mm
!        $sma_Pin_D = 0.95mm
!        $sma_Pin_P = 1.7mm
!
# GHz S MA R 50.000000
! Terminal data exported
! Port[1] = Port1
! Port[2] = S1_1_Pin_T1
0.5                            0.120639580521159 -145.470253019529 0.981851794630532 -43.9241531459369 0.981851794630532 -43.9241531459369 0.121835261559603 -124.278789079674 
0.6                            0.141168413048179 -156.507029571436 0.97745190296348 -52.5659003992458 0.977451902963478 -52.5659003992467 0.142460905319352 -130.751009269669 
0.7                            0.160146384911659 -167.560003478745 0.972927201212159 -61.1709176766225 0.972927201212152 -61.1709176766232 0.161479442247936 -137.034327037762 
0.8                            0.17749564917196 -178.661986988161 0.968383193387429 -69.7422889434724 0.968383193387421 -69.7422889434729 0.178838232185177 -143.126051713223 
0.9                            0.193174309526441 170.157764664564 0.963905615336633 -78.2840344709369 0.963905615336629 -78.2840344709372 0.194526547707381 -149.019737216756 
1                              0.207179425866089 158.871415211498 0.95956077143872 -86.8008392188382 0.959560771438719 -86.8008392188383 0.208576532693636 -154.706664894701 
1.1                            0.219548322301103 147.451572567526 0.955395214552707 -95.2978839751978 0.955395214552708 -95.2978839751979 0.22106373384564 -160.177186612365 
1.2                            0.230358824556806 135.871184217035 0.951434985949414 -103.780664767458 0.951434985949417 -103.780664767458 0.232106616311347 -165.421976229628 
1.3                            0.239728980171491 124.104099095574 0.947685096528293 -112.254771675574 0.947685096528295 -112.254771675574 0.24186499146652 -170.433297040355 
1.4                            0.247816431476941 112.126186655432 0.9441297236297  -120.725634803914 0.944129723629702 -120.725634803914 0.250537277167308 -175.206397327511 
1.5                            0.254817192989279 99.9169609840725 0.940733344432808 -129.198256724377 0.94073334443281 -129.198256724377 0.258356295108468 -179.741092716743 
1.6                            0.260963221056928 87.4616609025407 0.937442856083099 -137.676951884784 0.937442856083099 -137.676951884784 0.265583090846412 175.956505101014 
1.7                            0.266517906740411 74.7536774776819 0.934190634291142 -146.16511131736 0.934190634291142 -146.16511131736 0.272498179984234 171.872286868478 
1.8                            0.271768544648645 61.7970974474757 0.930898421953813 -154.665008227986 0.930898421953813 -154.665008227986 0.279389787812683 167.982788375049 
1.9                            0.277015029175173 48.6089634934819 0.927481890582269 -163.177657400322 0.927481890582269 -163.177657400321 0.286539124949036 164.254599461052 
2                              0.282554594909619 35.2206945896262 0.923855666481541 -171.702738662677 0.923855666481542 -171.702738662677 0.294203501781702 160.644960855106 
2.1                            0.288663353769104 21.6780553163686 0.919938559350273 179.761408453924 0.919938559350273 179.761408453924 0.302598959659144 157.103804466423 
2.2                            0.295576515336031 8.03921404176939 0.915658681056651 171.217715614306 0.915658681056652 171.217715614306 0.311884777058967 153.577162320903 
2.3                            0.3034701314974  -5.62917330888268 0.910958109955128 162.67024359549  0.910958109955128 162.67024359549  0.322152353442554 150.011469431704 
2.4                            0.312447515109593 -19.2573671380212 0.905796755220959 154.123973993141 0.90579675522096 154.123973993141 0.333420397379041 146.357983188174 
2.5                            0.322532847059106 -32.778469252216 0.900155116301045 145.58454685518  0.900155116301045 145.58454685518  0.345637167357535 142.576484427439 
2.6                            0.333673017922344 -46.1337313276687 0.894035716679303 137.05796105489  0.894035716679302 137.05796105489  0.35868913095249 138.637645112918 
2.7                            0.345746975288421 -59.2763368361061 0.887463110636851 128.550257435724 0.887463110636851 128.550257435724 0.372414293059484 134.523837435223 
2.8                            0.358580424627005 -72.1732501310425 0.880482499317622 120.067205938239 0.880482499317622 120.067205938239 0.386617904470007 130.228546070672 
2.9                            0.371963089540939 -84.8052592976929 0.873157125691466 111.614016814992 0.873157125691465 111.614016814992 0.401088330850055 125.754794565212 
3                              0.385665903166344 -97.1656952700081 0.865564724849168 103.195092831042 0.865564724849167 103.195092831042 0.415611357332844 121.113068330459 
3.1                            0.399456197009396 -109.258420877765 0.857793370347045 94.8138345941202 0.857793370347044 94.8138345941202 0.429981872461143 116.319151148637 
3.2                            0.413109815362433 -121.095605207843 0.849937072489217 86.4725056562922 0.849937072489216 86.4725056562921 0.444012511145293 111.392161105143 
3.3                            0.426419843563753 -132.695633245053 0.842091454114044 78.1721586218508 0.842091454114044 78.1721586218508 0.457539326557366 106.352936421988 
3.4                            0.439202173973915 -144.081332941805 0.834349765223568 69.9126188967843 0.834349765223568 69.9126188967843 0.470424874408616 101.222815261509 
3.5                            0.45129843612295 -155.278575082207 0.826799415321712 61.6925193851296 0.826799415321711 61.6925193851296 0.482559248504876 96.0227853504749 
3.6                            0.462576936018832 -166.315224342567 0.819519117254624 53.5093775498979 0.819519117254624 53.5093775498979 0.493859642872424 90.7729442950516 
3.7                            0.472932246631932 -177.220383367572 0.812576661219577 45.3597057283287 0.812576661219576 45.3597057283287 0.504268974255272 85.492199811391  
3.8                            0.482284020700861 171.976138890395 0.806027280343485 37.2391461618019 0.806027280343485 37.2391461618019 0.513754014127084 80.198141223155  
3.9                            0.490575496139453 161.24420028995  0.79991253306846 29.1426235193259 0.79991253306846 29.1426235193259 0.522303377129637 74.9070223057698 
4                              0.49777205656023 150.553597557871 0.794259612027872 21.064509396845  0.794259612027872 21.064509396845  0.529925609699572 69.6338063081435 
4.1                            0.50386010644202 139.874286056602 0.789080991274361 12.9987950377512 0.789080991274361 12.9987950377512 0.536647527692   64.3922342397507 
4.2                            0.508846425936082 129.176589028735 0.784374339629787 4.93927008054515 0.784374339629787 4.93927008054519 0.542512868444078 59.1948861799023 
4.3                            0.512758082672215 118.431433378912 0.780122653342273 -3.1202936988372 0.780122653342272 -3.12029369883716 0.547581250490007 54.0532122619401 
4.4                            0.515642892567755 107.610646319759 0.776294592160584 -11.1859540585312 0.776294592160583 -11.1859540585312 0.551927370566352 48.9775154966286 
4.5                            0.517570332722485 96.6873455155377 0.772845035654231 -19.2634057892416 0.772845035654229 -19.2634057892416 0.555640309890099 43.976873490285  
4.6                            0.518632711897852 85.6364532373462 0.769715907465087 -27.3577851348663 0.769715907465087 -27.3577851348662 0.558822768665588 39.0589913988381 
4.7                            0.518946295839602 74.4353604274257 0.766837340266597 -35.4734735908793 0.766837340266597 -35.4734735908792 0.56159000123746 34.2299852741498 
4.8                            0.518651969970918 63.0647567297084 0.764129269143539 -43.6139055123063 0.764129269143538 -43.6139055123063 0.564068190726457 29.4941043433046 
4.9                            0.51791491461839 51.5096242545057 0.761503541082898 -51.7813864021851 0.761503541082897 -51.781386402185 0.566391993210153 24.853413289481  
5                              0.516922694650502 39.7603630518665 0.758866608587619 -59.9769313826046 0.75886660858762 -59.9769313826046 0.568701013942093 20.3074708446227 
5.1                            0.515881166485043 27.8139735679176 0.756122832609104 -68.2001357680211 0.756122832609106 -68.200135768021 0.571135069198203 15.8530569246772 
5.2                            0.515007729646367 15.6751684028834 0.753178353407374 -76.4490913344927 0.753178353407375 -76.4490913344927 0.573828248695428 11.4840131290244 
5.3                            0.514521740298989 3.3572319609802  0.749945401631046 -84.7203622105064 0.749945401631047 -84.7203622105064 0.576902021175876 7.1912650361262  
5.4                            0.514632372482667 -9.11759011667785 0.746346825957165 -93.00903274978  0.746346825957167 -93.0090327497801 0.580457890774766 2.96308354830146 
5.5                            0.515524810687869 -21.7183858867023 0.74232052424523 -101.308835929482 0.742320524245231 -101.308835929483 0.584570357016814 -1.21438674125974 
5.6                            0.517346257671828 -34.4067051927635 0.737823402582475 -109.612364766483 0.737823402582476 -109.612364766483 0.589281080332471 -5.3563494025235 
5.7                            0.520193653180771 -47.1385387444563 0.732834470699436 -117.911361474592 0.732834470699437 -117.911361474592 0.594595136014903 -9.47839743882692 
5.8                            0.524105030466745 -59.8669934633222 0.727356726547811 -126.19707062168 0.727356726547813 -126.19707062168 0.600480017380542 -13.5954872463999 
5.9                            0.529055988671426 -72.5453463293623 0.721417588913031 -134.460634774263 0.721417588913032 -134.460634774263 0.606867650379221 -17.7209798747443 
6                              0.534961898253812 -85.1300644437475 0.715067791470733 -142.693505491574 0.715067791470734 -142.693505491575 0.613659197718989 -21.8658742748209 
6.1                            0.541685418232228 -97.5833903853861 0.708378828190435 -150.887840198802 0.708378828190435 -150.887840198802 0.620731987296886 -26.0383182270157 
6.2                            0.549047997042237 -109.87520402487 0.701439205118171 -159.036856949111 0.701439205118171 -159.036856949111 0.627947612922401 -30.2434268338157 
6.3                            0.556843501713938 -121.98404021189 0.694349876249793 -167.135124113705 0.694349876249793 -167.135124113705 0.635160186962214 -34.4833827437817 
6.4                            0.564852063668357 -133.897306877697 0.687219301031207 -175.178769649039 0.687219301031207 -175.178769649039 0.642223865518641 -38.7577511744179 
6.5                            0.572852567938268 -145.610864519276 0.680158552972882 176.834396621065 0.680158552972881 176.834396621065 0.648999049998885 -43.0639236407037 
6.6                            0.580632770395573 -157.128178860358 0.673276842895041 168.904845768941 0.67327684289504 168.904845768941 0.65535700203486 -47.3976063669844 
6.7                            0.587996618424674 -168.459252694725 0.666677716598415 161.031368613607 0.666677716598416 161.031368613608 0.661182907973752 -51.7532864286952 
6.8                            0.594768840961662 -179.619502491468 0.660456068922493 153.211176885177 0.660456068922494 153.211176885177 0.666377641097824 -56.1246326594071 
6.9                            0.600797203296191 169.371307460048 0.65469600515466 145.440050526667 0.65469600515466 145.440050526667 0.670858576104697 -60.504812309127 
7                              0.605952989970608 158.490010253485 0.649469491000396 137.712514744958 0.649469491000396 137.712514744958 0.674559820924515 -64.8867239288593 
7.1                            0.610130319238137 147.710836816632 0.644835670616426 130.022031915243 0.644835670616427 130.022031915243 0.677432171180387 -69.2631601418434 
7.2                            0.613244849075791 137.006074358841 0.640840698829698 122.36119604926  0.6408406988297  122.36119604926  0.679442992620665 -73.6269208773025 
7.3                            0.615232347077132 126.346602014287 0.637517924599599 114.72192068749  0.637517924599602 114.72192068749  0.680576124051953 -77.970899335357 
7.4                            0.616047492372251 115.702331813374 0.634888272072274 107.095614292393 0.634888272072275 107.095614292393 0.680831788981384 -82.2881608067705 
7.5                            0.615663171907276 105.042587270561 0.632960687201814 99.4733401374125 0.632960687201813 99.4733401374123 0.680226422810974 -86.5720298193526 
7.6                            0.614070429718741 94.336453316464  0.63173254694326 91.8459600277418 0.63173254694326 91.8459600277416 0.678792272030482 -90.8161950456598 
7.7                            0.611279121461775 83.5531312649185 0.631189961087658 84.2042627146001 0.631189961087657 84.2042627146    0.676576604437933 -95.0148348722501 
7.8                            0.607319206421859 72.6623314142114 0.63130793201998 76.5390782974696 0.631307932019979 76.5390782974696 0.673640381180193 -99.1627601626735 
7.9                            0.602242460175719 61.6347333286086 0.632050374091446 68.8413788180206 0.632050374091444 68.8413788180208 0.67005627277432 -103.255564951434 
8                              0.596124193952308 50.4425384819086 0.633370030829339 61.1023618615121 0.633370030829338 61.1023618615125 0.665905936910111 -107.28977060642 
8.1                            0.589064297457557 39.0601292537216 0.635208361490766 53.3135068180816 0.635208361490766 53.3135068180821 0.661276494411036 -111.262943728436 
8.2                            0.581186543505202 27.4648283405987 0.637495487909005 45.4665795794324 0.637495487909007 45.4665795794328 0.656256112359575 -115.173760692392 
8.3                            0.572634530153313 15.6377183441566 0.640150267479695 37.5535347615647 0.640150267479696 37.5535347615652 0.650928488611642 -119.021977247793 
8.4                            0.563561702473939 3.56442823603351 0.643080400218487 29.5662117834488 0.643080400218487 29.5662117834492 0.645365764183825 -122.80822757947 
8.5                            0.554111086861524 -8.76427322225298 0.646181921822175 21.4956119734589 0.646181921822175 21.4956119734589 0.639618862622385 -126.533491224401 
8.6                            0.544376280175431 -21.3522654283424 0.649335621827465 13.3303063815118 0.649335621827462 13.330306381512  0.633703338528968 -130.197836248536 
8.7                            0.53432488320476 -34.1981597123257 0.652391809427266 5.05298808857278 0.652391809427262 5.05298808857275 0.627577726618289 -133.797389321136 
8.8                            0.52363779912429 -47.2937137383917 0.655112474209913 -3.36698713070943 0.65511247420991 -3.36698713070935 0.621113596204645 -137.316454547389 
8.9                            0.511347074658373 -60.6081734929464 0.65694991752652 -11.9888342431038 0.656949917526522 -11.9888342431039 0.614089982631239 -140.705128623231 
9                              0.495082197924851 -73.9874656273368 0.656167611760111 -20.9168942174138 0.656167611760114 -20.9168942174142 0.606516619158687 -143.814690231987 
9.1                            0.47136099823629 -86.6199490485349 0.646956758379854 -30.1455582989131 0.64695675837986 -30.1455582989122 0.601297359988093 -146.302735311109 
9.2                            0.452686552366184 -96.3794055003876 0.623302722350369 -38.3804832811656 0.623302722350399 -38.3804832811656 0.610786860473729 -148.507591642508 
9.3                            0.466797053117947 -106.574897810896 0.612918582560718 -44.6932823982377 0.612918582560706 -44.6932823982327 0.627351182036517 -152.549349848783 
9.4                            0.474176272179597 -119.094919394379 0.618070922448861 -51.8367491913865 0.618070922448925 -51.8367491913807 0.630011895678545 -157.225699412983 
9.5                            0.48177302439118 -131.51457558279 0.622017218078433 -59.7310193874407 0.6220172180779  -59.73101938743  0.625575787439914 -161.518557655965 
9.6                            0.478537221773446 -144.268179041886 0.627273621465123 -68.3680602157788 0.627273621467497 -68.3680602157337 0.617319271158651 -165.122818846451 
9.7                            0.466903346827369 -154.895586393006 0.609072809215756 -76.9243732672516 0.609072809218172 -76.9243732671607 0.619479661601464 -167.636917326433 
9.8                            0.47842292343263 -163.174534394316 0.590380617054206 -83.739202756549 0.590380617054388 -83.7392027565921 0.638962108264487 -171.239797438562 
9.9                            0.510071928250026 -174.284852336609 0.593025908499787 -89.1489344266735 0.593025908501747 -89.1489344266163 0.653312917419183 -176.534715887327 
10                             0.528428935683699 173.073516308465 0.607276737043416 -96.5287034406701 0.607276737043416 -96.5287034406702 0.653173603945787 177.995669731602 
