! Touchstone file exported from HFSS 3D Layout Design 2026.1.0
!        File:           D:/Work/SIM/ADS_AUTO_SIM/projects/RFSOC_RF/TX_Fillter.aedt
!        Generated:      05:04:00 AM Aug 31, 2026
!        Design:         TX_BAND1_MCFIL_R50_CNN037
!        Project:        TX_Fillter
!
# GHz S MA R 50.000000
! Terminal data exported
! Port[1] = Port1
! Port[2] = Port2
14                             0.972474284841108 -165.623135366978 0.00374468704819061 -176.358466942007 0.0037446870481906 -176.358466942007 0.974112967778017 -161.52173311314 
14.05                          0.971956118460068 -166.519925389026 0.00382132823532131 -176.721065059164 0.0038213282353213 -176.721065059165 0.973643315758484 -162.382656502019 
14.1                           0.971421257124553 -167.423214017777 0.00390175782427792 -177.063346950782 0.00390175782427793 -177.063346950782 0.973159089813601 -163.249289741221 
14.15                          0.970868863437307 -168.333210628378 0.00398627834828597 -177.38499468886 0.00398627834828597 -177.38499468886 0.972659576045799 -164.121806020285 
14.2                           0.970298043559769 -169.250135748989 0.00407522202286229 -177.68574220654 0.00407522202286231 -177.685742206541 0.972144013154514 -165.000387586352 
14.25                          0.969707842445873 -170.174221802867 0.00416895398189865 -177.965383958818 0.00416895398189868 -177.965383958818 0.971611588473221 -165.88522633779 
14.3                           0.969097238589847 -171.105713910664 0.00426787588996571 -178.223784355443 0.00426787588996573 -178.223784355443 0.971061433605038 -166.776524465251 
14.35                          0.968465138229701 -172.044870758767 0.00437242997683879 -178.460887962346 0.00437242997683881 -178.460887962347 0.970492619608904 -167.674495144723 
14.4                           0.96781036893997 -172.991965540222 0.00448310354632914 -178.676730450422 0.00448310354632917 -178.676730450422 0.969904151681706 -168.57936328761 
14.45                          0.967131672537969 -173.947286975487 0.00460043401852685 -178.871450249645 0.00460043401852685 -178.871450249646 0.969294963274039 -169.491366353508 
14.5                           0.966427697216943 -174.911140421138 0.00472501457270404 -179.045300842402 0.00472501457270404 -179.045300842403 0.968663909568403 -170.410755231932 
14.55                          0.9656969888069  -175.883849075592 0.00485750046760902 -179.198663602698 0.00485750046760902 -179.198663602698 0.968009760238255 -171.337795200024 
14.6                           0.964937981049212 -176.865755292003 0.00499861612697119 -179.332061058146 0.00499861612697119 -179.332061058147 0.967331191394294 -172.272766964078 
14.65                          0.964148984753925 -177.857222009727 0.00514916309106109 -179.44617042008 0.00514916309106111 -179.446170420081 0.966626776610247 -173.215967793682 
14.7                           0.963328175688594 -178.858634317146 0.00531002895050551 -179.541837194892 0.00531002895050552 -179.541837194892 0.965894976903934 -174.167712758297 
14.75                          0.962473581023879 -179.870401160251 0.00548219739672821 -179.620088658331 0.00548219739672823 -179.620088658332 0.965134129529985 -175.128336077374 
14.8                           0.961583064133381 179.107042786812 0.00566675954495828 -179.682146945914 0.00566675954495827 -179.682146945915 0.964342435417808 -176.098192596418 
14.85                          0.96065430751238 178.07323507092  0.00586492671142284 -179.729441489006 0.00586492671142285 -179.729441489006 0.963517945061437 -177.077659403031 
14.9                           0.959684793541389 177.027683208212 0.00607804485697858 -179.76362051017 0.00607804485697859 -179.763620510171 0.96265854263605 -178.067137598719 
14.95                          0.958671782774385 175.96986220797  0.00630761094605478 -179.786561285773 0.00630761094605478 -179.786561285773 0.961761928078098 -179.067054244328 
15                             0.957612289376779 174.899211845631 0.00655529151362335 -179.800378891253 0.00655529151362334 -179.800378891253 0.960825596820948 179.922135500737 
15.05                          0.956503053272798 173.815133654825 0.00682294378545746 -179.807433167614 0.00682294378545744 -179.807433167614 0.959846816824164 178.899946022651 
15.1                           0.955340508483648 172.716987604202 0.00711263975998471 -179.810333688543 0.00711263975998471 -179.810333688542 0.958822602470156 177.865858654784 
15.15                          0.954120747043739 171.604088420135 0.0074266937357403 -179.811942567515 0.00742669373574031 -179.811942567515 0.957749684824521 176.819318807419 
15.2                           0.952839477768988 170.475701510921 0.00776769385939611 -179.815375023817 0.0077676938593961 -179.815375023817 0.956624477663156 175.759732792245 
15.25                          0.951491979014212 169.331038441908 0.00813853837875642 -179.823997724677 0.00813853837875641 -179.823997724677 0.955443038556473 174.686464303712 
15.3                           0.950073044390565 168.169251903791 0.00854247741684413 -179.841425035781 0.00854247741684411 -179.841425035782 0.954201024164212 173.598830514239 
15.35                          0.948576920211901 166.989430108189 0.00898316124198881 -179.871513440923 0.00898316124198881 -179.871513440922 0.952893638727887 172.496097734333 
15.4                           0.946997233192294 165.790590535196 0.00946469620050404 -179.918354529087 0.00946469620050402 -179.918354529087 0.951515574544533 171.377476582087 
15.45                          0.945326906614807 164.571672946977 0.00999170971028604 -179.98626708863 0.009991709710286 -179.98626708863 0.950060942956261 170.24211659904  
15.5                           0.943558062820335 163.331531569372 0.010569425994372 179.920211012059 0.010569425994372 179.92021101206  0.948523194083724 169.089100241052 
15.55                          0.941681909407483 162.068926329894 0.0112037545741613 179.796330345168 0.0112037545741613 179.796330345168 0.946895023153607 167.917436163708 
15.6                           0.939688605967978 160.782513025349 0.0119013939562533 179.637135911373 0.0119013939562533 179.637135911373 0.94516826080234 166.726051711772 
15.65                          0.937567107479037 159.470832275755 0.0126699534515396 179.437470553317 0.0126699534515396 179.437470553317 0.943333744157121 165.513784511775 
15.7                           0.935304979598665 158.132297103459 0.0135180966810821 179.191974659586 0.0135180966810821 179.191974659586 0.941381164771435 164.279373056159 
15.75                          0.932888180016656 156.765178958061 0.0144557110759071 178.895080943515 0.0144557110759071 178.895080943515 0.939298888587773 163.021446157391 
15.8                           0.930300798645337 155.367591989995 0.0154941085981998 178.541003008568 0.0154941085981998 178.541003008568 0.937073741967269 161.738511142295 
15.85                          0.927524747716385 153.937475360434 0.0166462640368976 178.123716340274 0.0166462640368976 178.123716340274 0.934690756403409 160.428940652572 
15.9                           0.92453939069069 152.472573365805 0.0179270986056628 177.636930284029 0.0179270986056628 177.636930284029 0.932132862748042 159.0909579204   
15.95                          0.921321096170966 150.970413157103 0.0193538182468682 177.074049466787 0.0193538182468682 177.074049466787 0.929380523525929 157.722620403275 
16                             0.91784269958733 149.428279856088 0.0209463180783493 176.428122985726 0.0209463180783493 176.428122985726 0.926411289079773 156.321801698127 
16.05                          0.914072851129209 147.843188926302 0.0227276668689807 175.691779504909 0.0227276668689807 175.691779504909 0.923199259726096 154.8861717239   
16.1                           0.909975223016083 146.211855768909 0.0247246883470766 174.857146159161 0.0247246883470766 174.857146159161 0.919714431643589 153.41317528433  
16.15                          0.905507542504246 144.530662716871 0.0269686595621416 173.915748852763 0.0269686595621416 173.915748852763 0.915921898671576 151.900009329679 
16.2                           0.900620408785574 142.795623951874 0.0294961504126837 172.85839115492  0.0294961504126836 172.85839115492  0.911780875381166 150.343599576312 
16.25                          0.895255841969156 141.002349455294 0.0323500326897422 171.67500854074  0.0323500326897421 171.67500854074  0.907243498560395 148.740577692283 
16.3                           0.889345500637149 139.14601006807  0.0355806912315186 170.354494231421 0.0355806912315185 170.354494231421 0.902253354641816 147.08726113411  
16.35                          0.882808491417201 137.221307298424 0.0392474733292505 168.884492411015 0.0392474733292504 168.884492411015 0.896743669959883 145.379639110563 
16.4                           0.875548680830446 135.222454037259 0.0434204139971101 167.251154259636 0.04342041399711 167.251154259636 0.890635090144215 143.613370343914 
16.45                          0.867451409216755 133.143176386653 0.0481822716035564 165.438852268411 0.0481822716035562 165.438852268411 0.883832966950216 141.783801751285 
16.5                           0.858379504803727 130.976753281983 0.053630896202341 163.429849088735 0.0536308962023408 163.429849088735 0.876224070627253 139.886022583182 
16.55                          0.84816851478154 128.716120928997 0.0598819240276599 161.20391940941  0.0598819240276598 161.20391940941  0.867672663754121 137.914977017736 
16.6                           0.836621131889649 126.354085548472 0.0670717331835389 158.737928218354 0.0670717331835387 158.737928218354 0.858015927550503 135.865671359472 
16.65                          0.823500940322533 123.883714043155 0.0753604867236618 156.005378212795 0.0753604867236616 156.005378212795 0.847058858927085 133.7335322412   
16.7                           0.808525905958239 121.299013310108 0.0849348977079214 152.975956128992 0.0849348977079213 152.975956128992 0.834569017290989 131.515002925121 
16.75                          0.791362615978079 118.596072733071 0.0960100293826421 149.615136996143 0.0960100293826421 149.615136996143 0.820271997534506 129.208510100515 
16.8                           0.771623329956092 115.774941082501 0.108828931703736 145.883953243985 0.108828931703736 145.883953243985 0.803849402595776 126.81599732312  
16.85                          0.748869729909132 112.842649380996 0.12365815389122 141.739109951143 0.12365815389122 141.739109951143 0.784942616174589 124.345303160769 
16.9                           0.722630209423375 109.817978831173 0.140776154698634 137.133734363766 0.140776154698634 137.133734363766 0.763168091433912 121.813747568758 
16.95                          0.692441878181629 106.738780888777 0.160450527106885 132.019183021921 0.160450527106885 132.019183021921 0.738153273373781 119.253325951876 
17                             0.657933808965229 103.672767850475 0.182899349168884 126.348460448934 0.182899349168884 126.348460448934 0.709606073434911 116.717755602886 
17.05                          0.618972217777711 100.732358322    0.208233209791438 120.08183588655  0.208233209791438 120.08183588655  0.6774326019157  114.290959966176 
17.1                           0.575885068510947 98.0925065807667 0.236379783761079 113.194991827172 0.236379783761079 113.194991827172 0.641911616927437 112.094837602636 
17.15                          0.529760385534084 96.0055719981424 0.267004497116004 105.689237409029 0.267004497116004 105.689237409029 0.603909122625676 110.290610912798 
17.2                           0.482750281397274 94.7960631955253 0.299457854446298 97.601813406571  0.299457854446298 97.601813406571  0.565061546148205 109.062710423915 
17.25                          0.438196288653725 94.7993293195662 0.33279298281966 89.012473339584  0.33279298281966 89.0124733395839 0.527777764205976 108.570687922456 
17.3                           0.400251058730741 96.1990569282871 0.365887257988217 80.041644533431  0.365887257988217 80.041644533431  0.494869182852259 108.86459770095  
17.35                          0.372689167612655 98.7838400880119 0.397656496963912 70.8373101093722 0.397656496963911 70.8373101093722 0.468739876306247 109.796744456368 
17.4                           0.357156082660996 101.831388523687 0.427288161745436 61.5526290951566 0.427288161745435 61.5526290951566 0.450425039124214 111.008857884226 
17.45                          0.352094029894851 104.382794299423 0.454393001196137 52.3214677261525 0.454393001196137 52.3214677261525 0.439091757511735 112.049449946685 
17.5                           0.353475499152568 105.737845253076 0.479015722094174 43.2403308110806 0.479015722094174 43.2403308110806 0.432399500475513 112.554146350429 
17.55                          0.356674692618419 105.6820024163   0.501523099092663 34.3614996310999 0.501523099092663 34.3614996311    0.42742766713694 112.353530457991 
17.6                           0.357904812596342 104.355831728557 0.522438729016529 25.6966589186596 0.52243872901653 25.6966589186597 0.421526125347571 111.462268236243 
17.65                          0.354661935236318 102.040389415    0.54229082419825 17.2268290979457 0.542290824198251 17.2268290979457 0.412739184918692 110.00992333197  
17.7                           0.345563045896948 99.0295905496576 0.561506311393851 8.91414380035791 0.561506311393852 8.91414380035793 0.399864533025068 108.1802641526   
17.75                          0.330033090608166 95.5928913999842 0.58035409759687 0.712573371645642 0.580354097596871 0.712573371645641 0.382350899121219 106.18275878662  
17.8                           0.308055912408078 91.988706410542  0.598926433280602 -7.42358784464334 0.598926433280604 -7.42358784464338 0.360185539572105 104.252362395021 
17.85                          0.280040164852149 88.5060343763841 0.617146500526448 -15.5335855732875 0.617146500526449 -15.5335855732875 0.333839353466591 102.668391782194 
17.9                           0.246794960515769 85.5365422131311 0.634794703285147 -23.6461467143686 0.634794703285147 -23.6461467143686 0.304287821914319 101.785632038325 
17.95                          0.209618439273969 83.7079969735153 0.651549959848703 -31.7772356026148 0.651549959848704 -31.7772356026149 0.273106726911701 102.068760613407 
18                             0.170571725611293 84.1585097653775 0.667043190247971 -39.9294988804824 0.667043190247972 -39.9294988804825 0.24262640276011 104.100979031134 
18.05                          0.133205244888551 89.0781164340174 0.680918131927803 -48.0933436516505 0.680918131927803 -48.0933436516505 0.216060971327918 108.476820870543 
18.1                           0.104270089218726 102.065336718061 0.692891197483338 -56.249516923856 0.692891197483338 -56.2495169238561 0.197306519966164 115.408500099214 
18.15                          0.0946032675308748 123.737732051975 0.702799783511233 -64.3728468459795 0.702799783511233 -64.3728468459796 0.189819430550203 124.072515696915 
18.2                           0.109006991771432 143.300708737053 0.710629415965129 -72.4365684200276 0.710629415965129 -72.4365684200276 0.194642194061294 132.543813496916 
18.25                          0.13806901047641 153.216650213092 0.716514850318402 -80.4165204915857 0.716514850318401 -80.4165204915857 0.209554143083071 139.015269538595 
18.3                           0.171751691606949 156.06729994399  0.720716988423862 -88.294554695498 0.720716988423861 -88.294554695498 0.230598882275923 142.850984685078 
18.35                          0.204894619940096 155.06330416997  0.723583267931233 -96.0607305518194 0.723583267931232 -96.0607305518194 0.254043758867551 144.339745440808 
18.4                           0.235076246134446 151.948615523222 0.725501733279833 -103.714186456157 0.725501733279833 -103.714186456157 0.277174487694292 144.053540634155 
18.45                          0.261110873338186 147.594892642722 0.726857941218592 -111.262853052813 0.726857941218592 -111.262853052813 0.298254786525964 142.512197726163 
18.5                           0.282430550364204 142.448667313979 0.728000527217318 -118.722335399645 0.728000527217318 -118.722335399645 0.316268227310797 140.104430118892 
18.55                          0.298818549029089 136.742738027389 0.729217530911593 -126.114322772633 0.729217530911593 -126.114322772633 0.330688246764873 137.102094331421 
18.6                           0.310278374704729 130.594101167783 0.730722786479703 -133.464828105677 0.730722786479703 -133.464828105677 0.341317501792445 133.691641446034 
18.65                          0.316964515777729 124.051417092826 0.732650278528144 -140.802465519891 0.732650278528144 -140.802465519891 0.348184758162682 130.000985248336 
18.7                           0.319148189780804 117.119016426703 0.735054134074523 -148.156885794985 0.735054134074523 -148.156885794985 0.351482488471859 126.118432480494 
18.75                          0.317206854667631 109.769216073316 0.737912386133681 -155.55742790671 0.737912386133681 -155.55742790671 0.351531910127563 122.104707205531 
18.8                           0.311631611746116 101.948516854942 0.741133337043601 -163.032014848929 0.7411333370436  -163.032014848929 0.34876530014613 117.99943023374  
18.85                          0.303048440896999 93.5809184252351 0.744563927822004 -170.606318099524 0.744563927822003 -170.606318099524 0.343717054507262 113.822887043789 
18.9                           0.292249294439939 84.5712499711097 0.747999772459876 -178.303225814881 0.747999772459875 -178.303225814881 0.33701564485211 109.573459253146 
18.95                          0.280227373199691 74.8125453888445 0.751196344120991 173.857339174139 0.75119634412099 173.857339174139 0.32936926634421 105.2210575543   
19                             0.268206202907885 64.2037425311143 0.753880218473447 165.85820970167  0.753880218473446 165.85820970167  0.321539820018505 100.697543057137 
19.05                          0.257642826407553 52.6856252186261 0.755758442541652 157.684364926062 0.755758442541652 157.684364926062 0.31430441681558 95.8866099823589 
19.1                           0.25017314492837 40.2983682879898 0.756523323114009 149.321986872754 0.75652332311401 149.321986872754 0.30841168957437 90.6176268386159 
19.15                          0.247465684808342 27.2443459817595 0.755849680376972 140.757363624335 0.755849680376973 140.757363624335 0.304550223584948 84.6694107195842 
19.2                           0.250987345581144 13.907877388453  0.753382428378118 131.975967456305 0.75338242837812 131.975967456305 0.303352417064494 77.7893195539478 
19.25                          0.261767446331397 0.779335300926583 0.748714735759868 122.962193873968 0.74871473575987 122.962193873968 0.305449835124414 69.7297824827568 
19.3                           0.280294467990336 -11.7008363805424 0.741361362536944 113.700376541722 0.741361362536945 113.700376541722 0.311569069549935 60.2995439573584 
19.35                          0.306590531294578 -23.2787044215751 0.730738088787351 104.177727025792 0.730738088787352 104.177727025792 0.322614723737268 49.4213206636035 
19.4                           0.340351630132457 -33.9205806232974 0.716165526070177 94.3896737490975 0.716165526070179 94.3896737490972 0.339650089315657 37.1798535463359 
19.45                          0.381002716888332 -43.7532843675227 0.696920872095472 84.3475276801734 0.696920872095472 84.3475276801732 0.363695225307169 23.8360755188669 
19.5                           0.427622913980646 -52.9714979350559 0.672357561381502 74.0873447042579 0.672357561381502 74.0873447042577 0.395350203396644 9.78736198343087 
19.55                          0.478821999563968 -61.7588158414616 0.642091317640805 63.6774050850547 0.642091317640806 63.6774050850546 0.434389932261387 -4.51740261852795 
19.6                           0.532703535387567 -70.2402510821481 0.60620939053324 53.2205840356639 0.60620939053324 53.2205840356638 0.479553759216382 -18.6662206869646 
19.65                          0.587013697022339 -78.4671360931182 0.565416156478853 42.8482945066325 0.565416156478854 42.8482945066325 0.528676729300191 -32.3359103835459 
19.7                           0.639468307138455 -86.4277057541524 0.521023120475876 32.7055140689212 0.521023120475878 32.7055140689212 0.579127167078222 -45.3018070214828 
19.75                          0.688136025827005 -94.0723790125899 0.474752767970909 22.9306862698399 0.474752767970912 22.9306862698399 0.628361027250658 -57.4248917963893 
19.8                           0.731716747801492 -101.341525782986 0.428423758717298 13.637136600863  0.428423758717303 13.637136600863  0.67437085118478 -68.6346960319643 
19.85                          0.769620941142103 -108.186401010659 0.383644125237277 4.90176665943925 0.38364412523728 4.90176665943915 0.71589672235732 -78.9143602630477 
19.9                           0.801867363417758 -114.57954687951 0.341615719853058 -3.23706237087504 0.341615719853062 -3.23706237087523 0.752401394160924 -88.2873837704052 
19.95                          0.828887509996802 -120.516044221041 0.303078833109011 -10.7744156521727 0.303078833109015 -10.7744156521731 0.783901918723571 -96.8051449629373 
20                             0.851326217192773 -126.009359080985 0.268362816937895 -17.7301054279787 0.268362816937897 -17.7301054279791 0.810762640205857 -104.535604750046 
20.05                          0.869889093333894 -131.08534966636 0.237487236042351 -24.1396655275373 0.237487236042354 -24.1396655275379 0.833517698114747 -111.554080307558 
20.1                           0.885248303050317 -135.776669716353 0.210268928931297 -30.0468243047339 0.2102689289313  -30.0468243047345 0.852747755695673 -117.936559403844 
20.15                          0.897996384192089 -140.118498398336 0.186411219436673 -35.4980671004773 0.186411219436675 -35.498067100478 0.869007910460751 -123.755431413853 
20.2                           0.908631746231554 -144.145703793026 0.165568275818646 -40.5391362589448 0.165568275818647 -40.5391362589456 0.882793091152906 -129.07715104205 
20.25                          0.917561708639889 -147.891182559027 0.147386727015073 -45.2130275755618 0.147386727015075 -45.2130275755626 0.894526828031218 -133.961262098772 
20.3                           0.925113462847279 -151.38503485129 0.131529895707377 -49.5590182651872 0.131529895707378 -49.5590182651879 0.904562724885962 -138.460281332939 
20.35                          0.931547367930179 -154.654276028657 0.117690119016005 -53.6123472635435 0.117690119016006 -53.6123472635442 0.913191776369377 -142.620070066265 
20.4                           0.93706976213212 -157.722864463612 0.105593542648042 -57.4042761046966 0.105593542648042 -57.4042761046972 0.920651610802525 -146.480444143334 
20.45                          0.941844119224548 -160.61189759663 0.0950005010975238 -60.9623510334809 0.0950005010975242 -60.9623510334816 0.927135652308887 -150.075868256172 
20.5                           0.946000250524486 -163.339883941405 0.0857035279366588 -64.3107551763012 0.085703527936659 -64.3107551763018 0.932801317359534 -153.436146947566 
20.55                          0.949641660657258 -165.923036911842 0.0775242618057301 -67.4706856979328 0.0775242618057301 -67.4706856979332 0.937776962992071 -156.587067111354 
20.6                           0.952851320333556 -168.375560862138 0.0703099905195675 -70.4607203032835 0.0703099905195675 -70.4607203032839 0.942167598324209 -159.550972466751 
20.65                          0.955696150007508 -170.709914714284 0.0639302426112386 -73.2971554057364 0.0639302426112384 -73.2971554057367 0.946059495781071 -162.347265075128 
20.7                           0.958230484393155 -172.937047296526 0.058273632381202 -75.9943087991872 0.058273632381202 -75.9943087991873 0.94952387611633 -164.992836681102 
20.75                          0.960498745182717 -175.066603372966 0.0532450453313858 -78.5647855414247 0.0532450453313859 -78.5647855414247 0.952619837878094 -167.502436288423 
20.8                           0.962537504664272 -177.10710185653 0.0487631840745821 -81.0197088220439 0.0487631840745822 -81.0197088220439 0.955396681786413 -169.888981690971 
20.85                          0.96437708313779 -179.066088843922 0.0447584596901934 -83.3689190109637 0.0447584596901935 -83.3689190109635 0.957895755662129 -172.163822743459 
20.9                           0.966042790127407 179.049731507978 0.0411711969586781 -85.6211445776901 0.0411711969586782 -85.6211445776899 0.960151921617231 -174.336963606097 
20.95                          0.967555893289352 177.234385271483 0.037950115902921 -87.7841485650143 0.0379501159029211 -87.7841485650141 0.962194726352227 -176.417250390451 
21                             0.968934378706972 175.482533436135 0.0350510517600578 -89.8648540449299 0.0350510517600579 -89.8648540449298 0.964049338135492 -178.41252976447 
21.05                          0.970193550840879 173.789390535323 0.0324358780609808 -91.8694516226049 0.032435878060981 -91.8694516226045 0.965737300163819 179.6702167576   
21.1                           0.971346508727619 172.15065507574  0.0300716012809285 -93.8034916652131 0.0300716012809287 -93.8034916652127 0.967277139051394 177.824758865259 
21.15                          0.972404526221395 170.562449942986 0.0279295996453072 -95.6719635574619 0.0279295996453074 -95.6719635574615 0.968684858641046 176.045520520185 
21.2                           0.973377357452186 169.021271235649 0.0259849826609738 -97.4793639441202 0.0259849826609741 -97.4793639441199 0.96997434269101 174.327497278589 
21.25                          0.974273483689563 167.523944224185 0.0242160515727368 -99.2297556189271 0.024216051572737 -99.2297556189267 0.971157684849763 172.666185571371 
21.3                           0.975100314043413 166.067585340135 0.0226038441346746 -100.926818459543 0.0226038441346749 -100.926818459543 0.97224546035476 171.057522036265 
21.35                          0.975864349591435 164.649569278334 0.0211317498275531 -102.573893587076 0.0211317498275533 -102.573893587076 0.973246950812343 169.497831319599 
21.4                           0.976571318367859 163.267500443527 0.0197851839760929 -104.174021742019 0.0197851839760931 -104.174021742019 0.974170331028369 167.983781032565 
21.45                          0.977226287006153 161.919188097106 0.0185513111683114 -105.729976711761 0.0185513111683117 -105.72997671176 0.97502282500253 166.512342767244 
21.5                           0.977833753572941 160.602624663249 0.0174188100034431 -107.244294513735 0.0174188100034433 -107.244294513734 0.97581083675104 165.080758259398 
21.55                          0.978397725165534 159.315966739947 0.0163776725434056 -108.719298928819 0.0163776725434058 -108.719298928819 0.976540060488653 163.686509934852 
21.6                           0.978921783100726 158.057518432061 0.0154190329594414 -110.157123888269 0.0154190329594416 -110.157123888269 0.977215573810147 162.327295200053 
21.65                          0.979409137944667 156.825716683229 0.0145350207890399 -111.559733141219 0.0145350207890401 -111.559733141218 0.977841916808521 161.001003939704 
21.7                           0.979862676183259 155.619118333161 0.0137186349815954 -112.928937566098 0.0137186349815954 -112.928937566098 0.978423159510405 159.705698769101 
21.75                          0.980284999979593 154.436388668306 0.0129636355423637 -114.266410436016 0.0129636355423638 -114.266410436016 0.978962959566233 158.439597659185 
21.8                           0.980678461187147 153.27629126861  0.0122644501064082 -115.57370090343 0.0122644501064082 -115.57370090343 0.97946461177891 157.201058610845 
21.85                          0.981045190567642 152.137678982067 0.0116160932066388 -116.852245931895 0.0116160932066389 -116.852245931895 0.979931090770883 155.988566103839 
21.9                           0.981387122987699 151.019485883227 0.0110140963586587 -118.103380870956 0.0110140963586587 -118.103380870956 0.980365087860854 154.80071908653  
21.95                          0.981706019228826 149.920720092303 0.0104544473829689 -119.328348843486 0.0104544473829689 -119.328348843486 0.980769043036479 153.636220306846 
22                             0.982003484933228 148.840457348886 0.0099335376328994 -120.528309092015 0.00993353763289937 -120.528309092015 0.981145172759174 152.493866813643 
22.05                          0.982280987117569 147.777835248902 0.00944811600318035 -121.704344411244 0.00944811600318029 -121.704344411244 0.981495494214737 151.372541481898 
22.1                           0.982539868613609 146.732048065894 0.00899524876657055 -122.857467777382 0.00899524876657051 -122.857467777382 0.981821846523243 150.271205435609 
22.15                          0.982781360735146 145.702342088265 0.00857228443029691 -123.988628270734 0.00857228443029681 -123.988628270733 0.982125909339332 149.18889125966  
22.2                           0.983006594421964 144.688011413133 0.00817682292508531 -125.09871637576 0.00817682292508522 -125.098716375759 0.982409219206117 148.124696906598 
22.25                          0.983216610071622 143.688394145143 0.00780668854124273 -126.188568732267 0.00780668854124265 -126.188568732267 0.982673183969728 147.077780216842 
22.3                           0.983412366236976 142.702868955167 0.00745990611185551 -127.258972402213 0.00745990611185545 -127.258972402212 0.982919095514835 146.047353981528 
22.35                          0.983594747340132 141.730851959501 0.00713468001538708 -128.310668708679 0.00713468001538701 -128.310668708678 0.983148141042605 145.032681486349 
22.4                           0.983764570530915 140.771793885027 0.00682937563100656 -129.344356696617 0.00682937563100647 -129.344356696617 0.983361413080032 144.033072482615 
22.45                          0.98392259179909 139.825177490011 0.00654250293169141 -130.360696258926 0.00654250293169132 -130.360696258925 0.983559918382271 143.047879538492 
22.5                           0.984069511433826 138.890515213867 0.00627270194403937 -131.36031096609 0.00627270194403924 -131.360310966089 0.983744585866704 142.076494729199 
22.55                          0.984205978910625 137.967347032337 0.00601872984104926 -132.343790633008 0.00601872984104916 -132.343790633008 0.983916273698046 141.118346629974 
22.6                           0.984332597274814 137.055238497304 0.00577944946593889 -133.311693652515 0.0057794494659388 -133.311693652514 0.98407577562743 140.172897579951 
22.65                          0.984449927081252 136.153778942827 0.00555381911222046 -134.26454912155 0.00555381911222037 -134.26454912155 0.984223826674492 139.23964118887  
22.7                           0.984558489941911 135.262579841059 0.00534088340848286 -135.202858782781 0.00534088340848279 -135.202858782781 0.984361108229613 138.318100061816 
22.75                          0.984658771726187 134.381273293549 0.0051397651762348 -136.1270988017  0.00513976517623475 -136.127098801699 0.984488252643372 137.407823720027 
22.8                           0.984751225453005 133.509510644993 0.00494965814625243 -137.037721396811 0.00494965814625239 -137.03772139681 0.984605847361623 136.508386698329 
22.85                          0.984836273908792 132.646961207934 0.0047698204335739 -137.935156338395 0.00476982043357388 -137.935156338394 0.984714438657152 135.619386801885 
22.9                           0.984914312021136 131.793311088099 0.00459956868394976 -138.819812329441 0.00459956868394973 -138.819812329441 0.984814535002539 134.740443506906 
22.95                          0.984985709014309 130.948262101182 0.00443827281548874 -139.69207828072 0.00443827281548872 -139.692078280721 0.984906610123284 133.871196491608 
23                             0.985050810369609 130.111530772805 0.00428535128869217 -140.552324490532 0.00428535128869217 -140.552324490532 0.984991105765556 133.011304285184 
