! Touchstone file exported from HFSS 3D Layout Design 2026.1.0
!        File:           D:/Work/SIM/ADS_AUTO_SIM/projects/RFSOC_RF/TX_Fillter.aedt
!        Generated:      11:14:13 AM Aug 31, 2026
!        Design:         TX_BAND1_MCFIL_R80_CNN033
!        Project:        TX_Fillter
!
# GHz S MA R 50.000000
! Terminal data exported
! Port[1] = Port1
! Port[2] = Port2
14                             0.973391806075549 -165.002431247108 0.00347411836620391 -177.643594094262 0.0034741183662039 -177.643594094262 0.975664989327662 -157.260939688536 
14.05                          0.972915417671527 -165.887223281928 0.00354003206463009 -178.048461311924 0.00354003206463008 -178.048461311924 0.97523637534068 -158.114212556629 
14.1                           0.972424348812951 -166.777705343406 0.00360901513854623 -178.432200859341 0.00360901513854622 -178.432200859342 0.974794881917508 -158.97276894763 
14.15                          0.97191787704883 -167.674050011773 0.00368130956423829 -178.794295432864 0.00368130956423826 -178.794295432864 0.974339886240974 -159.836755917238 
14.2                           0.971395231685015 -168.576439136819 0.00375718127014327 -179.134259811577 0.00375718127014324 -179.134259811576 0.973870724346222 -160.70632832763 
14.25                          0.970855589736746 -169.485064452127 0.00383692279907924 -179.451648529142 0.00383692279907923 -179.451648529141 0.97338668769867 -161.581649362779 
14.3                           0.970298071470284 -170.400128238747 0.00392085628737063 -179.74606445498 0.0039208562873706 -179.746064454981 0.972887019427292 -162.462891084777 
14.35                          0.96972173548443 -171.321844043099 0.00400933680023751 179.982831669943 0.00400933680023749 179.982831669944 0.972370910172232 -163.350235035062 
14.4                           0.969125573275919 -172.250437454428 0.00410275606795814 179.735310708714 0.00410275606795813 179.735310708715 0.971837493500139 -164.243872884903 
14.45                          0.968508503224829 -173.18614694775 0.00420154667320458 179.511563596581 0.00420154667320457 179.511563596581 0.971285840834076 -165.144007139997 
14.5                           0.967869363926969 -174.129224798935 0.00430618674673216 179.311688802264 0.00430618674673214 179.311688802265 0.970714955837309 -166.050851904569 
14.55                          0.967206906789615 -175.079938079319 0.00441720523643918 179.135678807423 0.00441720523643916 179.135678807424 0.97012376818151 -166.964633710998 
14.6                           0.966519787794597 -176.038569738181 0.00453518782391341 178.983405658504 0.00453518782391338 178.983405658504 0.969511126619654 -167.885592421717 
14.65                          0.965806558318223 -177.005419782368 0.00466078357319887 178.854605679448 0.00466078357319885 178.854605679448 0.968875791271993 -168.813982210924 
14.7                           0.965065654880676 -177.980806563554 0.0047947124089682 178.748863472633 0.00479471240896819 178.748863472633 0.968216425019477 -169.75007263456 
14.75                          0.964295387677546 -178.965068184895 0.00493777353595691 178.665595378262 0.00493777353595689 178.665595378262 0.967531583882636 -170.69414979806 
14.8                           0.963493927722829 -179.958564040345 0.00509085492888756 178.60403260791  0.00509085492888754 178.604032607911 0.966819706244611 -171.646517632547 
14.85                          0.962659292405034 179.038323498402 0.00525494404276794 178.563204314393 0.00525494404276794 178.563204314393 0.966079100754304 -172.607499291498 
14.9                           0.961789329225365 178.025187230405 0.00543113991810802 178.541920904927 0.005431139918108 178.541920904927 0.965307932718665 -173.577438681454 
14.95                          0.960881697448074 177.001593090266 0.00562066688514342 178.538757944859 0.00562066688514342 178.538757944859 0.964504208761219 -174.556702142075 
15                             0.959933847346891 175.967077907482 0.00582489010664833 178.552041031119 0.00582489010664833 178.55204103112  0.963665759485904 -175.545680292892 
15.05                          0.958942996676143 174.921146935698 0.00604533324166622 178.579832034207 0.0060453332416662 178.579832034207 0.962790219839954 -176.544790066345 
15.1                           0.957906103929088 173.863271123797 0.00628369856406277 178.619917110277 0.00628369856406276 178.619917110276 0.961875006815228 -177.554476949383 
15.15                          0.956819837866414 172.792884096892 0.00654188993212215 178.669796866768 0.00654188993212213 178.669796866768 0.960917294062151 -178.575217458852 
15.2                           0.955680542702012 171.709378810791 0.0068220390807866 178.726679022005 0.00682203908078657 178.726679022005 0.959913982911828 -179.6075218794  
15.25                          0.954484198217145 170.612103838353 0.00712653579940162 178.787473828512 0.00712653579940161 178.787473828512 0.958861669206839 179.348062703501 
15.3                           0.953226373933325 169.500359240217 0.00745806266840652 178.848792429835 0.00745806266840649 178.848792429835 0.957756605225901 178.29094903825  
15.35                          0.951902176302707 168.373391965593 0.00781963516251137 178.906948191709 0.00781963516251133 178.906948191709 0.956594655847231 177.220505967261 
15.4                           0.950506187665146 167.230390720949 0.00821464809068583 178.957960892691 0.0082146480906858 178.957960892691 0.95537124792388 176.136054264451 
15.45                          0.949032395463828 166.070480235523 0.00864692954113457 178.997563481277 0.00864692954113454 178.997563481277 0.954081311634059 175.036861995305 
15.5                           0.947474109894653 164.892714842331 0.00912080374025707 179.021210912383 0.00912080374025705 179.021210912383 0.952719212310658 173.922139337352 
15.55                          0.945823867773068 163.69607128186  0.00964116452824912 179.024090373653 0.00964116452824909 179.024090373653 0.951278670934513 172.791032790515 
15.6                           0.944073319916513 162.479440622589 0.0102135615128198 179.001132009995 0.0102135615128198 179.001132009995 0.94975267107973 171.642618697652 
15.65                          0.94221309873602 161.241619178127 0.0108443014019152 178.947019061251 0.0108443014019152 178.94701906125  0.948133349606375 170.475895985671 
15.7                           0.940232661975115 159.981298285062 0.0115405675557126 178.856196150136 0.0115405675557126 178.856196150136 0.946411867780184 169.289778027149 
15.75                          0.938120107586833 158.697052789005 0.0123105614617319 178.722874300005 0.0123105614617319 178.722874300005 0.944578258727577 168.083083511889 
15.8                           0.935861953547637 157.387328069564 0.0131636706550062 178.541031125796 0.0131636706550062 178.541031125796 0.942621246164371 166.854526208082 
15.85                          0.933442874902348 156.050425419348 0.0141106686155641 178.304404523838 0.014110668615564 178.304404523839 0.940528028113484 165.602703485162 
15.9                           0.930845388429319 154.684485579969 0.0151639534245545 178.006478079317 0.0151639534245544 178.006478079317 0.938284017780058 164.326083467233 
15.95                          0.928049472897727 153.287470233285 0.0163378335050535 177.640456302338 0.0163378335050535 177.640456302338 0.935872531791819 163.022990690878 
16                             0.925032109815649 151.857141255102 0.0176488706822403 177.199227678298 0.0176488706822403 177.199227678298 0.933274413523507 161.691590160049 
16.05                          0.921766725657098 150.391037571637 0.0191162931501561 176.675313356183 0.0191162931501561 176.675313356183 0.930467576062445 160.329869732905 
16.1                           0.918222511582142 148.886449532806 0.0207624938183817 176.060799077473 0.0207624938183816 176.060799077473 0.927426445359208 158.935620855633 
16.15                          0.914363590351239 147.34039085749  0.022613633024966 175.347247645788 0.022613633024966 175.347247645788 0.924121279027503 157.506417799592 
16.2                           0.910147992161193 145.749568456954 0.0247003688243539 174.525588831703 0.0247003688243538 174.525588831703 0.920517329863351 156.039595797123 
16.25                          0.9055263911473  144.110350871829 0.02705874303299 173.585983081473 0.02705874303299 173.585983081474 0.91657381518578 154.532228865738 
16.3                           0.900440541984608 142.418736774982 0.0297312568850917 172.517654746228 0.0297312568850916 172.517654746228 0.912242643338364 152.981108751181 
16.35                          0.894821341218201 140.670326173217 0.0327681762561716 171.30868978356  0.0327681762561716 171.30868978356  0.907466837065781 151.382727451484 
16.4                           0.888586420923451 138.860298868887 0.0362291122921708 169.945792059364 0.0362291122921707 169.945792059364 0.902178580315614 149.733267435297 
16.45                          0.881637164281713 136.98340787671  0.0401849275303523 168.413991618605 0.0401849275303523 168.413991618605 0.89629680149964 148.028606301785 
16.5                           0.873855016933829 135.034000574021 0.0447200174516282 166.696297853638 0.0447200174516282 166.696297853638 0.889724195342046 146.264346821642 
16.55                          0.86509696189432 133.006088596297 0.0499350076974466 164.773290861947 0.0499350076974466 164.773290861947 0.882343583602212 144.435889957262 
16.6                           0.855190044598536 130.893500814726 0.0559498785932633 162.62264633796  0.0559498785932633 162.62264633796  0.874013535326993 142.538579003725 
16.65                          0.84392490836282 128.690175256868 0.0629074648159923 160.218594659023 0.0629074648159924 160.218594659024 0.864563235438542 140.567959596454 
16.7                           0.83104848638193 126.390680453044 0.0709771513415367 157.53132611533  0.0709771513415367 157.53132611533  0.853786754461619 138.520226219104 
16.75                          0.816256399718833 123.991111890523 0.0803583522001494 154.526376018257 0.0803583522001495 154.526376018258 0.841437219233746 136.392965480945 
16.8                           0.799186418021506 121.490595783375 0.0912829473433175 151.164062890715 0.0912829473433175 151.164062890715 0.82722206589328 134.186365162437 
16.85                          0.779415862939089 118.89376374252  0.104015171226376 147.39912070687  0.104015171226376 147.39912070687  0.81080181826661 131.905139872707 
16.9                           0.756468548787571 116.214749541718 0.118846394566056 143.180775810063 0.118846394566056 143.180775810064 0.791797032245547 129.561524550125 
16.95                          0.729841359024313 113.483494127238 0.136080788644717 138.453682848484 0.136080788644717 138.453682848484 0.769811570889375 127.179773177772 
17                             0.699067246160606 110.755345046989 0.156006255352165 133.160347934795 0.156006255352165 133.160347934795 0.744485298231003 124.802564822908 
17.05                          0.663839429177482 108.124809738478 0.178844188820327 127.245876606204 0.178844188820327 127.245876606204 0.715594318511236 122.499288327819 
17.1                           0.624226034600533 105.743061283883 0.204673852052877 120.665921737701 0.204673852052877 120.665921737701 0.683217133464749 120.374771886805 
17.15                          0.580991828468198 103.834534939672 0.23333615692695 113.398228400703 0.233336156926949 113.398228400703 0.647968694854853 118.573721513246 
17.2                           0.535986742856944 102.697416143393 0.264340688512971 105.456712599457 0.264340688512971 105.456712599457 0.611252126072778 117.270348255643 
17.25                          0.492425004659352 102.654073283743 0.296825053300581 96.9044000171283 0.296825053300581 96.9044000171283 0.575378989545563 116.627041272511 
17.3                           0.454673807525456 103.905122241745 0.329627183573437 87.8588025097333 0.329627183573437 87.8588025097334 0.543310571706359 116.712012053449 
17.35                          0.427099851337064 106.295708769863 0.361497999988333 78.4831329181601 0.361497999988333 78.4831329181601 0.517837578869696 117.402258042984 
17.4                           0.412080846861375 109.180998269595 0.391398147617801 68.9617750250448 0.391398147617801 68.9617750250449 0.500418889359637 118.354042930152 
17.45                          0.408513130339597 111.657481347578 0.418746599491663 59.467099335476  0.418746599491663 59.4670993354761 0.490414166356564 119.112393903579 
17.5                           0.412317424525032 113.039143629999 0.443502511114665 50.1303811884123 0.443502511114665 50.1303811884123 0.485339493564038 119.30089171171  
17.55                          0.41846487350112 113.104522652184 0.46606465329554 41.0269220141864 0.46606465329554 41.0269220141865 0.481912924766417 118.741517419944 
17.6                           0.422707163513313 111.987561075268 0.487070136477281 32.1770757263594 0.487070136477281 32.1770757263594 0.477084355566494 117.444677361902 
17.65                          0.422185264981141 109.968194285875 0.507192305783427 23.557946311323  0.507192305783426 23.557946311323  0.468554471908395 115.534092370777 
17.7                           0.415285206889829 107.343554816899 0.526994179137136 15.1188740329298 0.526994179137135 15.1188740329298 0.454835069986863 113.181980252851 
17.75                          0.401287773082366 104.390854646538 0.546845074524952 6.79596818211853 0.546845074524952 6.79596818211851 0.435110772742221 110.581042506552 
17.8                           0.380095746461075 101.38303058161  0.566884361896165 -1.47621006664124 0.566884361896165 -1.47621006664126 0.409099549775052 107.949202392815 
17.85                          0.352119097545252 98.6322976883997 0.587015258053543 -9.75587805407724 0.587015258053543 -9.75587805407727 0.377002413700086 105.559543716784 
17.9                           0.318324052137545 96.5573014138115 0.606920358537765 -18.0876112403722 0.606920358537765 -18.0876112403722 0.339573880553168 103.79562808438  
17.95                          0.280453317481953 95.7816600396578 0.626099337533747 -26.4978519743339 0.626099337533747 -26.4978519743339 0.298337184893874 103.240759675554 
18                             0.24146222270977 97.2596195431182 0.643932842620357 -34.9923690247472 0.643932842620357 -34.9923690247472 0.255998051599165 104.803565178775 
18.05                          0.206209667461094 102.300534813326 0.659773000938948 -43.5560606511463 0.659773000938948 -43.5560606511463 0.217125412096851 109.787601665741 
18.1                           0.181949874404623 111.899469716683 0.673050972352125 -52.1555282291423 0.673050972352125 -52.1555282291424 0.188799830665413 119.395826170748 
18.15                          0.176326507319352 124.624618626823 0.683380363591046 -60.7444269534286 0.683380363591046 -60.7444269534286 0.179171533457102 132.729582059008 
18.2                           0.19124502984353 136.004897958203 0.690629730073276 -69.2708534994064 0.690629730073276 -69.2708534994065 0.191388188274752 145.459103951235 
18.25                          0.220750580936226 142.896697535073 0.694943721162064 -77.6853348420958 0.694943721162064 -77.6853348420958 0.22000847039808 153.867963385984 
18.3                           0.256947096397851 145.446863291302 0.696709242654362 -85.9477568565632 0.696709242654362 -85.9477568565633 0.25665539426397 157.758448280687 
18.35                          0.294144251118778 144.952826871919 0.696481369185236 -94.0319741918478 0.696481369185236 -94.0319741918478 0.295084852231939 158.441474787866 
18.4                           0.329000700467333 142.510813525471 0.69489382472905 -101.927650543848 0.69489382472905 -101.927650543848 0.331636724402237 157.102986170236 
18.45                          0.359711341246044 138.828015861749 0.692577219146276 -109.63967003271 0.692577219146276 -109.63967003271 0.364356350651347 154.521434148135 
18.5                           0.385388448032877 134.328512319856 0.690098822097668 -117.185920041833 0.690098822097668 -117.185920041833 0.392294922699103 151.170104526979 
18.55                          0.405686259795831 129.259333347166 0.687927096985047 -124.594313218343 0.687927096985047 -124.594313218343 0.415089640173602 147.332572185452 
18.6                           0.420576784133622 123.759063750727 0.686417013989485 -131.899722802329 0.686417013989486 -131.899722802329 0.432717158520783 143.17829288099  
18.65                          0.430216065705503 117.898693108925 0.685809321990698 -139.141227222368 0.685809321990698 -139.141227222368 0.445347451733522 138.80755524945  
18.7                           0.434868198245995 111.705716902132 0.686237285568617 -146.359819029549 0.686237285568618 -146.359819029549 0.453259133787186 134.277890882793 
18.75                          0.434868550709931 105.17846351666  0.687736203894674 -153.596577940797 0.687736203894675 -153.596577940797 0.456794462629073 129.619605292317 
18.8                           0.430614696654892 98.2946760481696 0.690253098155254 -160.891236560505 0.690253098155255 -160.891236560505 0.456340471443503 124.844685396148 
18.85                          0.422577261346866 91.0167229687599 0.693655667722318 -168.281058656291 0.693655667722318 -168.281058656291 0.452326828334111 119.951318339335 
18.9                           0.411324804355258 83.2950142068426 0.697740760980988 -175.799979804248 0.697740760980988 -175.799979804248 0.445233168261454 114.925100222325 
18.95                          0.397557390074798 75.0709901503145 0.7022431400535  176.521991730827 0.7022431400535  176.521991730827 0.43559970111384 109.737366336273 
19                             0.382142749849211 66.2813302961323 0.706845227377873 168.659068328434 0.706845227377872 168.659068328434 0.424035606424513 104.340797458908 
19.05                          0.366146847393309 56.8657116117529 0.711187812044406 160.589597127143 0.711187812044406 160.589597127143 0.411220987097964 98.6625690019639 
19.1                           0.35084720555973 46.7811402739476 0.714880468791574 152.295534779266 0.714880468791573 152.295534779266 0.397901077052818 92.5959291625312 
19.15                          0.337713233055751 36.0252992593938 0.717509025048446 143.761497171598 0.717509025048444 143.761497171598 0.384876831617193 85.9923464505819 
19.2                           0.328336172046869 24.6669441932408 0.718636425347632 134.973545233889 0.718636425347631 134.973545233889 0.373003438256011 78.6582590709931 
19.25                          0.324299627834806 12.8711563999371 0.717793680192554 125.918080020338 0.717793680192553 125.918080020338 0.363213977601265 70.3627126682975 
19.3                           0.327007376796101 0.896198360651654 0.714460229060277 116.58146402515  0.714460229060276 116.58146402515  0.356581085758535 60.8640025891265 
19.35                          0.337518466412425 -10.9567320573302 0.708038753249032 106.951192997802 0.708038753249032 106.951192997802 0.354403301083911 49.9627622780344 
19.4                           0.356442623543681 -22.4281067453623 0.697838261250024 97.0194962497725 0.697838261250024 97.0194962497728 0.358249235388946 37.5807206059913 
19.45                          0.383896774559475 -33.3718820037345 0.683089346071558 86.7899573704655 0.683089346071558 86.7899573704657 0.369836339342334 23.8419789246629 
19.5                           0.419465239575341 -43.7715838805018 0.66302137371401 76.2868797239426 0.663021373714011 76.2868797239428 0.390639634704196 9.10428265873337 
19.55                          0.462123245813925 -53.698812567591 0.637022378808156 65.5655302572791 0.637022378808157 65.5655302572792 0.421296449528015 -6.10799757337595 
19.6                           0.510174003308435 -63.2470179167904 0.604867105575476 54.7194344813805 0.604867105575476 54.7194344813806 0.461106831523781 -21.2471747468223 
19.65                          0.561318467843025 -72.4771918258957 0.56694034725455 43.8798293429719 0.56694034725455 43.8798293429719 0.507962900495997 -35.8697303673046 
19.7                           0.612938197100732 -81.3950441265195 0.524338298686808 33.2039987474762 0.524338298686807 33.2039987474763 0.558787678653526 -49.6823978369213 
19.75                          0.662536495600509 -89.9590354723256 0.478756250671274 22.8539993077435 0.478756250671273 22.8539993077436 0.610266874771133 -62.522368431121 
19.8                           0.708161628919565 -98.1056284068266 0.432178310794444 12.9726258128562 0.432178310794443 12.9726258128563 0.659544450375333 -74.3193776882638 
19.85                          0.748638981691563 -105.775567037892 0.386498429253603 3.66515306257664 0.3864984292536  3.66515306257685 0.704638854150929 -85.0660321363238 
19.9                           0.783559608279486 -112.9307400054  0.343226202787484 -5.00804277855117 0.343226202787481 -5.00804277855092 0.744519826986683 -94.7983548039835 
19.95                          0.8130986861061  -119.559412299431 0.303357362215384 -13.0284480332196 0.303357362215382 -13.0284480332192 0.778941261000099 -103.58143188581 
20                             0.837781286698219 -125.673122390391 0.267393884313482 -20.4100974544186 0.26739388431348 -20.4100974544181 0.808178415488095 -111.497338145198 
20.05                          0.858281244324463 -131.299901652525 0.235448972947956 -27.1885456059976 0.235448972947955 -27.1885456059971 0.832782355953861 -118.635170152801 
20.1                           0.875285894342081 -136.477254658647 0.207374012745614 -33.4111365868513 0.207374012745613 -33.4111365868506 0.853401648819082 -125.083665405339 
20.15                          0.889422669840671 -141.24655999147 0.182869808173577 -39.1297768025733 0.182869808173576 -39.1297768025727 0.87067491693509 -130.926458206363 
20.2                           0.901229427821761 -145.649268614503 0.16156853799178 -44.3962169640796 0.16156853799178 -44.3962169640789 0.885177416988214 -136.239541415399 
20.25                          0.911150349512238 -149.72465073556 0.143087127853515 -49.2593274229126 0.143087127853515 -49.2593274229119 0.897401840757455 -141.090308992291 
20.3                           0.919544303768245 -153.508661665484 0.127058339997835 -53.7637588429772 0.127058339997835 -53.7637588429766 0.907757834456378 -145.537593793964 
20.35                          0.926697775942317 -157.033529558234 0.113146561034403 -57.949477276994 0.113146561034403 -57.9494772769934 0.916580199013176 -149.632254019161 
20.4                           0.932838240916255 -160.327766949632 0.101053989703308 -61.8518055251049 0.101053989703308 -61.8518055251043 0.924140059402449 -153.41800910044 
20.45                          0.93814615631497 -163.416406366751 0.0905212665756226 -65.50172923743  0.0905212665756226 -65.5017292374295 0.930656110336942 -156.932343718365 
20.5                           0.94276498828605 -166.32133623515 0.0813251728211341 -68.9263197973196 0.0813251728211341 -68.9263197973192 0.936304678856082 -160.207380348035 
20.55                          0.946809273504889 -169.061665326316 0.0732749992946651 -72.1491887685069 0.0732749992946651 -72.1491887685065 0.941228206039578 -163.270672406579 
20.6                           0.950370960172199 -171.654077081637 0.0662085065617825 -75.1909281812622 0.0662085065617825 -75.1909281812618 0.945542161629002 -166.145900398596 
20.65                          0.953524334695851 -174.113155099474 0.0599879706323179 -78.0695146132997 0.0599879706323179 -78.0695146132994 0.949340574302288 -168.853469989884 
20.7                           0.956329826671091 -176.451672534416 0.0544965546286774 -80.8006685990568 0.0544965546286774 -80.8006685990566 0.952700407934862 -171.411019107972 
20.75                          0.958836942108785 -178.680844399169 0.0496351008962554 -83.3981682944982 0.0496351008962554 -83.398168294498 0.955685006468888 -173.833844531791 
20.8                           0.961086526774282 179.189455091327 0.0453193587553324 -85.8741200604605 0.0453193587553323 -85.8741200604604 0.958346800937534 -176.135259191262 
20.85                          0.963112517630538 177.150506612552 0.0414776230020079 -88.2391902705355 0.0414776230020079 -88.2391902705354 0.960729438077159 -178.326890847988 
20.9                           0.964943303832866 175.194587327459 0.0380487405899128 -90.5028031406468 0.0380487405899128 -90.5028031406467 0.962869457936308 179.581068294619 
20.95                          0.966602789692504 173.314836147033 0.0349804375717375 -92.6733092688743 0.0349804375717374 -92.6733092688742 0.964797620521127 177.579652801985 
21                             0.968111229582598 171.505139141025 0.0322279194315427 -94.7581291816388 0.0322279194315427 -94.7581291816387 0.9665399592412  175.660949062254 
21.05                          0.969485887679286 169.760032002037 0.0297527020104476 -96.7638756814592 0.0297527020104474 -96.7638756814592 0.968118621287671 173.81794835959  
21.1                           0.970741562545419 168.074616893498 0.0275216354423624 -98.6964582755039 0.0275216354423622 -98.696458275504 0.96955254134514 172.04442314566  
21.15                          0.971891006886808 166.4444914123   0.0255060888767501 -100.561172479346 0.0255060888767499 -100.561172479346 0.970857984447043 170.334822537035 
21.2                           0.972945265552565 164.865687753586 0.0236812687806085 -102.362776356687 0.0236812687806083 -102.362776356688 0.972048985654514 168.684183773885 
21.25                          0.973913949403585 163.33462047414  0.0220256480729064 -104.105556279078 0.0220256480729063 -104.105556279078 0.973137708011474 167.088056959201 
21.3                           0.974805458576098 161.848041513682 0.020520487194797 -105.793383568193 0.0205204871947969 -105.793383568193 0.974134735458886 165.542440876512 
21.35                          0.975627165575985 160.403001354395 0.0191494314789144 -107.429763412154 0.0191494314789142 -107.429763412154 0.975049313732502 164.043728075308 
21.4                           0.976385566298149 158.99681538366  0.0178981719073304 -109.017877220408 0.0178981719073302 -109.017877220408 0.975889549455391 162.58865773245  
21.45                          0.97708640528396 157.627034678472 0.016754158609247 -110.560619392462 0.0167541586092469 -110.560619392462 0.97666257546696 161.174275058068 
21.5                           0.977734780168059 156.291420557411 0.0157063583156686 -112.060629318528 0.0157063583156684 -112.060629318528 0.977374688750725 159.797896226751 
21.55                          0.978335229219712 154.987922351639 0.0147450485233053 -113.520319299428 0.0147450485233052 -113.520319299428 0.978031466017963 158.457077988218 
21.6                           0.978891805075944 153.714657933939 0.0138616423803393 -114.941898964672 0.0138616423803392 -114.941898964672 0.97863786098582 157.149591253599 
21.65                          0.979408137136482 152.469896617471 0.0130485393408167 -116.327396677373 0.0130485393408166 -116.327396677373 0.979198286590081 155.873398069814 
21.7                           0.979887484600974 151.252044096286 0.0122989974829942 -117.678678339666 0.0122989974829942 -117.678678339666 0.979716684744293 154.626631490225 
21.75                          0.980332781744904 150.059629149909 0.0116070240836844 -118.997463949684 0.0116070240836844 -118.997463949684 0.980196585759863 153.407577928576 
21.8                           0.980746676727608 148.89129187621  0.0109672816133276 -120.285342208888 0.0109672816133275 -120.285342208888 0.980641159146916 152.214661648396 
21.85                          0.981131564985667 147.745773251854 0.010375006787887 -121.543783434748 0.0103750067878871 -121.543783434748 0.981053257200669 151.046431094058 
21.9                           0.981489618073506 146.621905848982 0.00982594070229953 -122.774150997038 0.00982594070229954 -122.774150997038 0.981435452525612 149.901546814569 
21.95                          0.981822808659761 145.518605561479 0.00931626839121112 -123.977711465041 0.00931626839121109 -123.977711465041 0.981790070446579 148.778770768567 
22                             0.982132932264603 144.434864214962 0.00884256642839617 -125.155643626849 0.00884256642839616 -125.155643626849 0.982119217091591 147.676956830306 
22.05                          0.98242162622345 143.369742952203 0.00840175739657262 -126.309046519831 0.00840175739657261 -126.309046519832 0.982424803798035 146.595042342589 
22.1                           0.982690386281477 142.322366300553 0.00799107024243524 -127.438946592537 0.00799107024243524 -127.438946592537 0.982708568385128 145.532040584702 
22.15                          0.982940581157167 141.291916840582 0.00760800568423562 -128.546304102349 0.00760800568423562 -128.54630410235 0.982972093746771 144.487034041944 
22.2                           0.983173465358994 140.277630405876 0.00725030596654558 -129.632018839516 0.00725030596654561 -129.632018839516 0.983216824145903 143.459168379094 
22.25                          0.983390190494679 139.278791753127 0.0069159283633439 -130.696935256483 0.00691592836334394 -130.696935256483 0.983444079531305 142.447647033447 
22.3                           0.983591815275607 138.294730649478 0.00660302191986501 -131.741847071449 0.00660302191986502 -131.741847071449 0.983655068148063 141.451726354411 
22.35                          0.983779314388416 137.324818330823 0.00630990699868901 -132.767501406354 0.00630990699868903 -132.767501406354 0.983850897671543 140.47071122627  
22.4                           0.983953586380261 136.368464290551 0.00603505725874592 -133.774602512086 0.00603505725874597 -133.774602512086 0.984032585060332 139.503951118992 
22.45                          0.984115460682989 135.42511336321  0.00577708374924382 -134.763815127197 0.00577708374924385 -134.763815127197 0.984201065294821 138.550836518997 
22.5                           0.984265703883565 134.494243071854 0.00553472084564331 -135.735767510832 0.00553472084564333 -135.735767510831 0.984357199143978 137.610795697899 
22.55                          0.984405025333072 133.575361211597 0.00530681379303723 -136.691054185668 0.00530681379303727 -136.691054185668 0.984501780082569 136.683291782416 
22.6                           0.98453408217386 132.668003645099 0.00509230765477403 -137.630238422442 0.00509230765477406 -137.630238422442 0.984635540463958 135.767820093179 
22.65                          0.984653483853716 131.771732288551 0.00489023749180437 -138.553854493894 0.00489023749180438 -138.553854493894 0.984759157039134 134.863905724039 
22.7                           0.984763796186705 130.886133269147 0.00469971962180804 -139.462409722759 0.00469971962180806 -139.462409722759 0.984873255900316 133.971101336872 
22.75                          0.984865545012578 130.010815237206 0.00451994382730285 -140.356386345536 0.00451994382730288 -140.356386345536 0.984978416917029 133.088985149778 
22.8                           0.984959219499956 129.145407817943 0.00435016639918789 -141.236243211329 0.00435016639918791 -141.236243211329 0.985075177723615 132.217159099154 
22.85                          0.985045275132777 128.289560189555 0.00418970391697062 -142.102417332805 0.00418970391697062 -142.102417332805 0.985164037309507 131.355247158329 
22.9                           0.985124136414582 127.442939775722 0.00403792767964653 -142.955325304436 0.00403792767964653 -142.955325304436 0.98524545925705 130.502893797386 
22.95                          0.985196199320973 126.605231041876 0.0038942587121505 -143.795364601456 0.00389425871215051 -143.795364601455 0.985319874666029 129.65976257051  
23                             0.985261833526923 125.776134385745 0.00375816328174606 -144.622914771488 0.00375816328174606 -144.622914771488 0.9853876847992  128.825534818694 
