! Touchstone file exported from HFSS 3D Layout Design 2026.1.0
!        File:           D:/Work/SIM/ADS_AUTO_SIM/projects/RFSOC_RF/TX_Fillter.aedt
!        Generated:      05:07:34 AM Aug 31, 2026
!        Design:         TX_BAND1_MCFIL_R50_CNN016
!        Project:        TX_Fillter
!
# GHz S MA R 50.000000
! Terminal data exported
! Port[1] = Port1
! Port[2] = Port2
14                             0.973119552652792 -163.775908651087 0.00363878352897317 -176.429245168173 0.00363878352897317 -176.429245168172 0.974813596716848 -160.40547393467 
14.05                          0.972628485190239 -164.657697815456 0.00370967550141285 -176.827655881591 0.00370967550141285 -176.827655881592 0.974367541192788 -161.269998915426 
14.1                           0.972122077615901 -165.545596942043 0.00378391627381865 -177.2060568453  0.00378391627381868 -177.206056845301 0.973907968642969 -162.139924303125 
14.15                          0.971599580513417 -166.439794818932 0.00386176714262473 -177.564043728207 0.00386176714262477 -177.564043728207 0.973434223095912 -163.015405256932 
14.2                           0.971060195224992 -167.34049007179 0.00394351474968506 -177.901251026437 0.00394351474968512 -177.901251026438 0.9729456052904  -163.896605187459 
14.25                          0.970503069797389 -168.247891803449 0.00402947383230411 -178.217359610213 0.00402947383230416 -178.217359610215 0.972441369087946 -164.783696299994 
14.3                           0.969927294524867 -169.162220284063 0.00411999029247813 -178.512105050667 0.00411999029247822 -178.512105050669 0.971920717525887 -165.676860180922 
14.35                          0.969331897041914 -170.083707696617 0.00421544462415862 -178.78528674841 0.00421544462415869 -178.785286748412 0.97138279846866 -166.576288431447 
14.4                           0.968715836912208 -171.012598943114 0.00431625574236577 -179.036777873126 0.00431625574236582 -179.036777873127 0.970826699809088 -167.482183353208 
14.45                          0.968077999652909 -171.949152517343 0.00442288526373837 -179.266536107724 0.00442288526373846 -179.266536107725 0.970251444164781 -168.39475869086 
14.5                           0.967417190124893 -172.893641450836 0.00453584229473804 -179.474615171356 0.00453584229473813 -179.474615171358 0.969655983007081 -169.314240437323 
14.55                          0.966732125209663 -173.846354339332 0.00465568879139725 -179.661177072808 0.00465568879139733 -179.66117707281 0.969039190150971 -170.240867708015 
14.6                           0.966021425682268 -174.807596457968 0.00478304556341546 -179.826505019476 0.00478304556341554 -179.826505019477 0.968399854523976 -171.174893691165 
14.65                          0.965283607176232 -175.777690974356 0.00491859900580921 -179.971016877615 0.00491859900580927 -179.971016877616 0.967736672119962 -172.116586682118 
14.7                           0.964517070120988 -176.756980269831 0.00506310865351565 179.904720952597 0.00506310865351572 179.904720952596 0.967048237029503 -173.066231210533 
14.75                          0.963720088514118 -177.745827380368 0.00521741566870113 179.799979417512 0.00521741566870118 179.79997941751  0.966333031421937 -174.024129270431 
14.8                           0.962890797369472 -178.744617570126 0.00538245238748565 179.713852650581 0.00538245238748569 179.71385265058  0.96558941433471 -174.990601664309 
14.85                          0.962027178657132 -179.753760052161 0.00555925307290628 179.645244010579 0.00555925307290633 179.645244010578 0.964815609102642 -175.965989473944 
14.9                           0.961127045521779 179.226310127291 0.00574896604486869 179.592852584439 0.00574896604486873 179.592852584438 0.96400968923271 -176.950655672116 
14.95                          0.960188024531081 178.195130022472 0.00595286738637488 179.555160445125 0.00595286738637491 179.555160445125 0.963169562497833 -177.944986891311 
15                             0.959207535664476 177.152206518799 0.00617237645943355 179.530420969478 0.00617237645943356 179.530420969477 0.962292952985149 -178.949395367577 
15.05                          0.958182769703581 176.09701383697  0.00640907350491947 179.516648523691 0.00640907350491948 179.51664852369  0.961377380788955 -179.964321080094 
15.1                           0.957110662626963 175.028990783696 0.00666471964965323 179.511609811995 0.00666471964965324 179.511609811994 0.960420138984453 179.009765890212 
15.15                          0.955987866542032 173.947537718694 0.00694127970281105 179.512817154505 0.00694127970281105 179.512817154505 0.959418267453695 177.972362756567 
15.2                           0.95481071660292 172.852013203449 0.00724094819448388 179.517523911095 0.00724094819448386 179.517523911095 0.958368523057391 176.922931146656 
15.25                          0.953575193262287 171.741730292554 0.00756617919425264 179.522722198176 0.00756617919425263 179.522722198176 0.957267345552564 175.860893913158 
15.3                           0.952276879083208 170.615952423029 0.00791972055001715 179.525142954427 0.00791972055001713 179.525142954427 0.956110818542799 174.785631595548 
15.35                          0.950910909189844 169.473888850856 0.00830465331065437 179.521258300936 0.00830465331065434 179.521258300936 0.954894624610506 173.696478488834 
15.4                           0.949471914256523 168.314689576926 0.00872443724483356 179.507286013571 0.00872443724483353 179.50728601357  0.953613993613538 172.592718268693 
15.45                          0.9479539547166  167.137439696581 0.00918296354794465 179.479195784625 0.00918296354794464 179.479195784625 0.95226364292446 171.473579115472 
15.5                           0.94635044460563 165.941153097828 0.00968461604633456 179.432716801955 0.00968461604633458 179.432716801955 0.950837708140883 170.338228271548 
15.55                          0.944654063125992 164.724765423088 0.0102343424712087 179.36334602275  0.0102343424712087 179.36334602275  0.949329662488004 169.185765957596 
15.6                           0.942856651617134 163.487126197846 0.0108377376939484 179.266356371654 0.0108377376939484 179.266356371654 0.947732222755614 168.015218563336 
15.65                          0.940949093117932 162.22699001698  0.0115011412029902 179.136803954546 0.0115011412029901 179.136803954546 0.946037239142785 166.825531017333 
15.7                           0.938921171091048 160.943006665755 0.0122317515756246 178.969533254056 0.0122317515756246 178.969533254056 0.944235565801157 165.615558228577 
15.75                          0.936761403112869 159.633710038025 0.013037761275677 178.759179163058 0.013037761275677 178.759179163058 0.942316908142258 164.384055480123 
15.8                           0.934456844377372 158.297505699461 0.0139285158141049 178.500164617621 0.0139285158141049 178.500164617621 0.940269642067889 163.129667642677 
15.85                          0.931992854668535 156.932656929867 0.0149147021735836 178.186692508219 0.0149147021735836 178.186692508219 0.938080599146784 161.850917064607 
15.9                           0.929352820960483 155.537269067501 0.0160085724558885 177.812730471301 0.0160085724558885 177.812730471301 0.935734810334151 160.546189986282 
15.95                          0.926517825928053 154.10927197297  0.0172242100050583 177.371987083698 0.0172242100050584 177.371987083698 0.933215199035085 159.213721323602 
16                             0.923466250293076 152.646400435359 0.0185778468399621 176.857877888566 0.0185778468399621 176.857877888566 0.930502212049989 157.851577672759 
16.05                          0.920173293969959 151.146172366638 0.0200882431536528 176.263479560336 0.0200882431536529 176.263479560336 0.927573374087048 156.457638412781 
16.1                           0.916610397257873 149.605864684242 0.0217771419644944 175.5814703534   0.0217771419644945 175.5814703534   0.924402747932833 155.029574835781 
16.15                          0.912744538678786 148.022486885288 0.0236698147940305 174.804054760997 0.0236698147940305 174.804054760997 0.920960277856635 153.56482733496  
16.2                           0.908537380281941 146.392752499556 0.0257957175425005 173.922870024974 0.0257957175425006 173.922870024974 0.917210988180893 152.060580855555 
16.25                          0.903944224124568 144.713048919865 0.0281892795387157 172.928871776341 0.0281892795387157 172.928871776341 0.913114001961091 150.513739108306 
16.3                           0.898912735034526 142.979406622786 0.0308908529758402 171.812195652307 0.0308908529758402 171.812195652307 0.908621336192592 148.920898528113 
16.35                          0.893381374635491 141.187469628312 0.0339478543619833 170.56199124568  0.0339478543619833 170.56199124568  0.903676419816382 147.278323741538 
16.4                           0.887277480258662 139.332470390762 0.0374161336610892 169.166224244324 0.0374161336610892 169.166224244324 0.898212269223664 145.581927557378 
16.45                          0.880514910736466 137.409214460073 0.0413616093719187 167.611442210092 0.0413616093719187 167.611442210091 0.892149243754147 143.827260484977 
16.5                           0.872991171462618 135.41208366914  0.0458622068256468 165.882499315322 0.0458622068256467 165.882499315322 0.885392292850637 142.009517940546 
16.55                          0.864583928336878 133.335072025362 0.0510101287640956 163.962235838622 0.0510101287640955 163.962235838622 0.87782760142324 140.123578289647 
16.6                           0.855146833828958 131.171877069976 0.0569144653221819 161.831109912137 0.0569144653221818 161.831109912136 0.869318549328999 138.164092735327 
16.65                          0.844504636459636 128.916083019603 0.0637041039141809 159.466782919017 0.0637041039141809 159.466782919016 0.859700941431475 136.125660401272 
16.7                           0.83244766061963 126.561493280773 0.0715308101761273 156.843667739401 0.0715308101761272 156.843667739401 0.848777567421028 134.003141202581 
16.75                          0.818725985631555 124.102703030568 0.0805721905004672 153.932463437715 0.0805721905004671 153.932463437714 0.836312370778532 131.792188771051 
16.8                           0.803044121924879 121.536053240005 0.0910339721494446 150.699725141748 0.0910339721494445 150.699725141748 0.822024939110543 129.49013059006  
16.85                          0.785057841598747 118.861182970577 0.103150590583437 147.107559794551 0.103150590583437 147.107559794551 0.805586828752926 127.097388161997 
16.9                           0.764376314692873 116.083503552108 0.117182391397772 143.113604823951 0.117182391397772 143.113604823951 0.786622637361898 124.619720431315 
16.95                          0.740575141493601 113.218055045462 0.133406802245996 138.67154487204  0.133406802245996 138.67154487204  0.764721034062012 122.071683731962 
17                             0.713229504528785 110.295343027638 0.152099701826453 133.732552018978 0.152099701826454 133.732552018978 0.739464380631408 119.481797900636 
17.05                          0.681981263505691 107.369786445443 0.173502333417451 128.24817567445  0.173502333417452 128.24817567445  0.710489894140467 116.899885626462 
17.1                           0.646657669221721 104.531047315813 0.197769561503471 122.175286977567 0.197769561503471 122.175286977567 0.677598832386378 114.406646774454 
17.15                          0.607457402142987 101.917098087748 0.224899063722348 115.483539232966 0.224899063722349 115.483539232966 0.640928026473512 112.124184080689 
17.2                           0.565201116483405 99.7241448050672 0.254650683125689 108.165186582255 0.25465068312569 108.165186582255 0.601180137275913 110.222972017079 
17.25                          0.521592486620529 98.2008064104129 0.286481175360528 100.245780571306 0.286481175360529 100.245780571306 0.559861116773776 108.914763629396 
17.3                           0.479341554236212 97.602819665737  0.319535559856555 91.7924008825412 0.319535559856556 91.7924008825411 0.519389782101562 108.413634618776 
17.35                          0.441896886586331 98.0819351344369 0.352735549671356 82.9147059768493 0.352735549671356 82.9147059768492 0.482861742959168 108.848612386045 
17.4                           0.412556307838544 99.5234252616787 0.384970547698414 73.755006936904  0.384970547698414 73.755006936904  0.453290165527233 110.143338578682 
17.45                          0.393111519642089 101.45143170589  0.415334830074418 64.4677744373501 0.415334830074418 64.4677744373501 0.43246951559856 111.947057140899 
17.5                           0.382850698190483 103.165448063923 0.443311429889061 55.1945935517409 0.443311429889062 55.194593551741  0.420109207056311 113.725316262678 
17.55                          0.378808857856928 104.060986323062 0.468824723148323 46.0433606803309 0.468824723148324 46.043360680331  0.413932418336476 114.987031395271 
17.6                           0.377077078622883 103.852052509168 0.492157640987889 37.0780460423244 0.49215764098789 37.0780460423246 0.410670145424069 115.46676191775  
17.65                          0.374099354627035 102.55405210096  0.513793488094136 28.3198000095353 0.513793488094137 28.3198000095355 0.407173070002947 115.144993738083 
17.7                           0.367288818000511 100.348452294785 0.534254245705878 19.7558098019518 0.534254245705879 19.7558098019519 0.401047093575392 114.164035565737 
17.75                          0.355061419258926 97.4716014627019 0.553979069087514 11.3511994971227 0.553979069087515 11.3511994971228 0.39079318567397 112.74186320667  
17.8                           0.336634102956045 94.1679282766123 0.573253274505997 3.06052564505303 0.573253274505998 3.06052564505317 0.375703015143672 111.127759830386 
17.85                          0.311820484147291 90.69346972285   0.592179601459931 -5.16276322441368 0.592179601459932 -5.16276322441362 0.355721587200203 109.596736406659 
17.9                           0.28091338145011 87.3558174793125 0.610680061665325 -13.3592618013948 0.610680061665325 -13.3592618013948 0.331376515742191 108.468328637671 
17.95                          0.244675942168177 84.598123631901  0.628520365207263 -21.5587614070532 0.628520365207262 -21.5587614070531 0.303801461272957 108.13711398195  
18                             0.204469440378719 83.1736529330574 0.645352938040936 -29.7774016769978 0.645352938040936 -29.7774016769977 0.274847615472906 109.097352405156 
18.05                          0.162650200191762 84.538779941371  0.660775522636338 -38.0167349739894 0.660775522636336 -38.0167349739893 0.247239610195917 111.915226335912 
18.1                           0.123708626739812 91.6761092541882 0.674399803209667 -46.2646958863981 0.674399803209665 -46.264695886398 0.224612978670198 117.038255305038 
18.15                          0.097007257676582 109.232632165715 0.685920131954137 -54.4983704460654 0.685920131954135 -54.4983704460652 0.211004095220502 124.325427919638 
18.2                           0.0961046793377701 134.498060985901 0.695169336377846 -62.6881937403119 0.695169336377844 -62.6881937403117 0.209325504009539 132.578749117105 
18.25                          0.120803329789475 152.149742876806 0.702149645585443 -70.802892586753 0.702149645585442 -70.8028925867528 0.219581456047234 139.950504559188 
18.3                           0.157193188770406 159.121169598608 0.707032710573113 -78.8143049610906 0.707032710573112 -78.8143049610903 0.238872022467199 145.143946956366 
18.35                          0.195921998958273 160.024909935456 0.710131231067193 -86.7012690845293 0.710131231067193 -86.7012690845291 0.263227733560036 147.91943089843  
18.4                           0.232808008779465 157.847248120533 0.711851902397697 -94.4520702495298 0.711851902397697 -94.4520702495297 0.289186543734306 148.663730817354 
18.45                          0.265910531325673 154.01109058641  0.712642286731016 -102.065331493876 0.712642286731017 -102.065331493876 0.314283500820411 147.89903811668  
18.5                           0.294280340443831 149.205472900506 0.712942475937646 -109.549574960706 0.712942475937646 -109.549574960706 0.336944087270016 146.070074881428 
18.55                          0.317483387057413 143.78032480063  0.713147972744218 -116.921865677196 0.713147972744218 -116.921865677196 0.356245210232661 143.504489896034 
18.6                           0.335386769859044 137.916397063103 0.713585547032565 -124.20597161304 0.713585547032564 -124.20597161304 0.371708444906521 140.430805183907 
18.65                          0.348045390366972 131.702443679653 0.714500550099108 -131.430388311875 0.714500550099106 -131.430388311875 0.383152121806011 137.005334471432 
18.7                           0.355637845427058 125.172883229355 0.716052710575678 -138.626452193247 0.716052710575676 -138.626452193247 0.39059346688834 133.334557138235 
18.75                          0.358432918090136 118.327269959652 0.718317405591466 -145.82665476534 0.718317405591462 -145.826654765341 0.394188012296553 129.491095211088 
18.8                           0.356778249659423 111.140670428844 0.721290158363996 -153.063194965514 0.721290158363991 -153.063194965514 0.394195587097853 125.524232114941 
18.85                          0.351106187727882 103.569178839546 0.724893104683783 -160.366772739506 0.724893104683778 -160.366772739506 0.390964319462955 121.466077545312 
18.9                           0.341952932590063 95.5528706750082 0.728983027486164 -167.765626663275 0.72898302748616 -167.765626663275 0.384925294511065 117.334047973514 
18.95                          0.329987136838506 87.0179466830161 0.733361063201622 -175.284839926794 0.733361063201619 -175.284839926794 0.376590964130903 113.129883673523 
19                             0.316043146578794 77.8802016968651 0.737784210637657 177.054031949121 0.737784210637655 177.054031949121 0.366550578429017 108.835166271811 
19.05                          0.301151685485096 68.0531790761234 0.741978271103648 169.232937824884 0.741978271103648 169.232937824884 0.355456638441721 104.403401046587 
19.1                           0.286556228147466 57.4660983217225 0.74565087221574 161.236843589486 0.745650872215742 161.236843589486 0.343998901068872 99.74937621719   
19.15                          0.273696395640931 46.0971007383723 0.748501997257061 153.052759087205 0.748501997257065 153.052759087205 0.332868164062192 94.7378164265627 
19.2                           0.264133998990653 34.0218431848048 0.750228374117142 144.668355536029 0.750228374117147 144.668355536029 0.32272140407086 89.1751048500822 
19.25                          0.259405453563198 21.4601894237557 0.75051774535321 136.070397366341 0.750517745353216 136.07039736634  0.314170679917558 82.8094169635063 
19.3                           0.260824050903803 8.78051675606402 0.749030062287468 127.243396214301 0.749030062287473 127.2433962143   0.307824179732796 75.3453345130301 
19.35                          0.269316917194115 -3.57589209571311 0.745365581234708 118.169089238142 0.745365581234712 118.169089238141 0.304398670231381 66.4790536704461 
19.4                           0.285393156087298 -15.2315565115794 0.73902515382402 108.827509115193 0.739025153824021 108.827509115192 0.30488750393027 55.9599652104224 
19.45                          0.309242294175534 -25.989721613671 0.729375952905184 99.200476946534  0.729375952905184 99.200476946533  0.310702663118448 43.6795582112625 
19.5                           0.340836661644006 -35.8637751189444 0.715645795993168 89.2781703876184 0.715645795993166 89.2781703876177 0.323634605593795 29.7674012370125 
19.55                          0.379901813591737 -45.0216937229388 0.696977549964524 79.0687618745338 0.696977549964521 79.0687618745333 0.3454726770624  14.6346964862812 
19.6                           0.425736035246023 -53.6926549621625 0.672572631792596 68.6097449968977 0.672572631792595 68.6097449968976 0.377313948537422 -1.10264610137957 
19.65                          0.476995958312436 -62.0805528078081 0.641925452191821 57.9775699618572 0.641925452191823 57.9775699618575 0.418893446018917 -16.8043974252031 
19.7                           0.531626985305829 -70.3096432657641 0.605092838660157 47.2905651459709 0.605092838660166 47.2905651459713 0.468360381695539 -31.9680846147785 
19.75                          0.587063803875402 -78.4097784731034 0.562879787023347 36.7007116824264 0.562879787023362 36.7007116824269 0.522646800244128 -46.2798085954183 
19.8                           0.64067381624811 -86.3348202324246 0.51681668199761 26.37396402253   0.516816681997629 26.3739640225303 0.57822261865102 -59.5774409875669 
19.85                          0.690258969842366 -93.9986853755769 0.468894830244068 16.4648276701802 0.46889483024409 16.4648276701801 0.631885698217536 -71.7958668104995 
19.9                           0.734394430059711 -101.311604535828 0.421165149926657 7.09435931234901 0.42116514992668 7.09435931234817 0.681297923628994 -82.9301039609999 
19.95                          0.772495663732943 -108.204715832857 0.375373919113775 -1.66137251058987 0.375373919113796 -1.66137251059131 0.725154059132504 -93.0158034980724 
20                             0.804662532607873 -114.639887975674 0.33275857347525 -9.77111745223337 0.332758573475268 -9.77111745223551 0.763050978682373 -102.117063484467 
20.05                          0.83142901608149 -120.608288443994 0.294019131524466 -17.2401790565455 0.294019131524481 -17.2401790565482 0.795213593918109 -110.315949942564 
20.1                           0.853529499006097 -126.123341481908 0.259405999523071 -24.0990812880275 0.259405999523082 -24.0990812880307 0.822215725352075 -117.70299025386 
20.15                          0.871733371327156 -131.212577091028 0.228851231624996 -30.3929202229001 0.228851231625004 -30.3929202229035 0.844767394701931 -124.369521897409 
20.2                           0.886751405757717 -135.910754320563 0.202093209386945 -36.1731548868128 0.202093209386951 -36.1731548868165 0.86358209400344 -130.402439481581 
20.25                          0.89919558147055 -140.254977834878 0.178772950606476 -41.4921013326236 0.17877295060648 -41.4921013326272 0.879308435548965 -135.881195350516 
20.3                           0.909571208773809 -144.281647909441 0.15849912305467 -46.3996691743894 0.158499123054672 -46.3996691743928 0.892503884509244 -140.876525403097 
20.35                          0.918285262372236 -148.024785293171 0.140887309880943 -50.94169442844  0.140887309880943 -50.9416944284432 0.903632038368185 -145.450310662723 
20.4                           0.925660953051468 -151.51526993169 0.125581009759393 -55.159295927908 0.125581009759393 -55.1592959279109 0.913071098933538 -149.656090218362 
20.45                          0.931953232780841 -154.780634486131 0.112260890512008 -59.0888323758148 0.112260890512008 -59.0888323758172 0.921126382089258 -153.539887358373 
20.5                           0.937362836122985 -157.845166374352 0.100647071943337 -62.7621788803281 0.100647071943337 -62.7621788803301 0.928043191990732 -157.141138143326 
20.55                          0.942048048208858 -160.730162637574 0.0904976082285738 -66.207149394977 0.0904976082285733 -66.2071493949786 0.93401843209167 -160.493603748214 
20.6                           0.946134157226692 -163.454245272554 0.081605135064492 -69.4479645044705 0.0816051350644915 -69.4479645044717 0.939210414118588 -163.626207526162 
20.65                          0.94972086482082 -166.033685560776 0.0737928312471985 -72.5057102151625 0.0737928312471982 -72.5057102151633 0.943746850087624 -166.56377335166 
20.7                           0.952888016827869 -168.482710913814 0.0669103270914788 -75.3987611922048 0.0669103270914786 -75.3987611922052 0.947731230338066 -169.327661522734 
20.75                          0.955700004354861 -170.813782347919 0.060829879341032 -78.1431578343222 0.0608298793410321 -78.1431578343222 0.951247854784707 -171.936308456201 
20.8                           0.958209135093375 -173.037838841858 0.05544295090791 -80.7529352745997 0.0554429509079103 -80.7529352745993 0.954365778558132 -174.405680697867 
20.85                          0.960458216914333 -175.164509114765 0.0506572334003065 -83.2404068082693 0.0506572334003071 -83.2404068082686 0.957141899779769 -176.74965495236 
20.9                           0.962482542702454 -177.202293411125 0.0463940981947351 -85.6164062138634 0.0463940981947357 -85.6164062138627 0.959623377022865 -178.980335438788 
20.95                          0.964311421142953 -179.158718682709 0.0425864373998104 -87.8904940553208 0.0425864373998113 -87.8904940553198 0.961849526050246 178.891681233395 
21                             0.965969363091297 178.959529306817 0.0391768471296305 -90.0711329747686 0.0391768471296314 -90.0711329747675 0.963853312952677 176.857084826317 
21.05                          0.967477006118774 177.146493625225 0.0361161047924571 -92.1658365765257 0.0361161047924581 -92.1658365765244 0.965662534425126 174.907666381846 
21.1                           0.968851839328618 175.396850574714 0.0333618954221265 -94.1812959656701 0.0333618954221276 -94.1812959656688 0.967300755085027 173.036163020015 
21.15                          0.970108775142087 173.705828250774 0.0308777470919141 -96.1234874470372 0.0308777470919152 -96.1234874470357 0.968788055564386 171.236127450095 
21.2                           0.971260603245934 172.069137028899 0.0286321408893115 -97.9977643659319 0.0286321408893126 -97.9977643659308 0.970141632675674 169.501817931851 
21.25                          0.972318353305017 170.482910094116 0.0265977661531181 -99.8089356030576 0.0265977661531193 -99.8089356030564 0.97137628344465 167.828105187728 
21.3                           0.973291586632626 168.943652429448 0.0247508963896536 -101.561332829681 0.0247508963896547 -101.56133282968 0.972504797549045 166.210393396343 
21.35                          0.974188632215648 167.448196937766 0.0230708653925848 -103.258868283174 0.0230708653925858 -103.258868283173 0.973538277167295 164.644552913619 
21.4                           0.975016778893988 165.993666589895 0.0215396265905714 -104.905084532187 0.0215396265905723 -104.905084532186 0.97448639901285 163.126862789022 
21.45                          0.975782432784585 164.577441674802 0.0201413815862641 -106.503197457868 0.0201413815862649 -106.503197457867 0.975357630091161 161.653961487481 
21.5                           0.976491246991529 163.197131380026 0.0188622662959075 -108.056133475778 0.0188622662959083 -108.056133475778 0.976159406228513 160.222804506904 
21.55                          0.97714822908716 161.850549057068 0.0176900851215286 -109.566561855814 0.0176900851215293 -109.566561855814 0.976898280503651 158.830627808806 
21.6                           0.977757830660466 160.53569063125  0.0166140852542736 -111.036922858848 0.0166140852542742 -111.036922858848 0.977580047228187 157.47491616516  
21.65                          0.97832402231697 159.250715702486 0.0156247645776194 -112.469452294007 0.0156247645776198 -112.469452294007 0.978209845967364 156.153375676226 
21.7                           0.978850356810608 157.993930955412 0.0147137077645358 -113.86620300525 0.0147137077645362 -113.86620300525 0.978792249191357 154.863909838297 
21.75                          0.97934002244245 156.763775557085 0.0138734460867946 -115.229063716827 0.0138734460867948 -115.229063716827 0.9793313364403  153.60459864219  
21.8                           0.979795888435654 155.558808270201 0.0130973372138874 -116.559775601364 0.0130973372138876 -116.559775601364 0.979830757329151 152.373680267175 
21.85                          0.980220543662676 154.377696051155 0.0123794619034244 -117.859946879433 0.0123794619034245 -117.859946879433 0.980293785277653 151.169535004235 
21.9                           0.980616329838099 153.21920393681  0.0117145349990751 -119.131065713498 0.0117145349990751 -119.131065713498 0.980723363500104 149.990671099804 
21.95                          0.980985370082481 152.08218605281  0.0110978285762129 -120.37451162066 0.0110978285762128 -120.37451162066 0.981122144509722 148.835712258661 
22                             0.98132959359711 150.965577600491 0.0105251054258428 -121.591565596227 0.0105251054258427 -121.591565596227 0.981492524167858 147.703386584192 
22.05                          0.981650757057175 149.868387699878 0.00999256135749606 -122.783419112824 0.00999256135749582 -122.783419112824 0.981836671127446 146.592516767288 
22.1                           0.981950463224479 148.789692983459 0.00949677504243195 -123.951182136689 0.00949677504243169 -123.951182136689 0.982156552373729 145.502011362744 
22.15                          0.982230177194916 147.728631849973 0.00903466431855278 -125.0958902832  0.00903466431855247 -125.095890283199 0.982453955446471 144.430857015274 
22.2                           0.982491240626221 146.684399299809 0.0086034480451164 -126.218511217057 0.00860344804511604 -126.218511217057 0.982730507830885 143.37811151678  
22.25                          0.982734884234736 145.656242284081 0.00820061273450312 -127.319950388354 0.00820061273450277 -127.319950388353 0.982987693925151 142.342897593034 
22.3                           0.982962238803426 144.643455508392 0.00782388330475297 -128.401056183617 0.00782388330475258 -128.401056183616 0.98322686992715 141.32439733189  
22.35                          0.983174344905174 143.645377639944 0.00747119739426162 -129.462624560579 0.00747119739426124 -129.462624560577 0.983449276929197 140.321847177017 
22.4                           0.983372161513863 142.661387873185 0.00714068276212011 -130.505403226452 0.0071406827621197 -130.505403226451 0.983656052465011 139.334533421253 
22.45                          0.983556573649578 141.690902814817 0.00683063736673817 -131.53009541188 0.0068306373667378 -131.530095411878 0.983848240716104 138.361788142287 
22.5                           0.983728399182559 140.73337365381  0.00653951177377597 -132.537363286088 0.0065395117737756 -132.537363286086 0.984026801553915 137.402985530771 
22.55                          0.983888394902344 139.788283586274 0.00626589359380078 -133.527831053058 0.00626589359380042 -133.527831053055 0.984192618568172 136.457538567279 
22.6                           0.984037261943354 138.855145468601 0.00600849369196602 -134.502087763632 0.00600849369196569 -134.50208776363 0.984346506210313 135.524896009972 
22.65                          0.984175650645329 137.933499675495 0.00576613394758923 -135.460689874169 0.0057661339475889 -135.460689874168 0.984489216162524 134.60453965954  
22.7                           0.984304164916272 137.02291214214  0.00553773637179953 -136.404163578638 0.00553773637179925 -136.404163578636 0.984621443027572 133.695981872023 
22.75                          0.984423366156366 136.12297257221  0.00532231341726843 -137.333006937849 0.00532231341726819 -137.333006937848 0.984743829421554 132.798763293625 
22.8                           0.984533776793592 135.233292795438 0.0051189593361289 -138.247691826712 0.00511895933612871 -138.247691826711 0.984856970540613 131.912450794694 
22.85                          0.984635883475126 134.353505260282 0.00492684246110965 -139.14866571792 0.00492684246110949 -139.148665717919 0.984961418263219 131.036635582678 
22.9                           0.98473013995297 133.483261648826 0.00474519830114888 -140.036353318393 0.00474519830114876 -140.036353318393 0.985057684841596 130.170931476175 
22.95                          0.984816969697385 132.622231602424 0.00457332335671306 -140.911158072901 0.004573323356713 -140.911158072901 0.985146246228941 129.31497332422  
23                             0.984896768267559 131.770101547837 0.00441056957207116 -141.773463547676 0.00441056957207115 -141.773463547676 0.98522754508318 128.468415556701 
