! Touchstone file exported from HFSS 3D Layout Design 2026.1.0
!        File:           D:/Work/SIM/ADS_AUTO_SIM/projects/RFSOC_RF/TX_Fillter.aedt
!        Generated:      11:27:02 PM Aug 30, 2026
!        Design:         TX_BAND1_MCFIL_R7_CNN018
!        Project:        TX_Fillter
!
# GHz S MA R 50.000000
! Terminal data exported
! Port[1] = Port1
! Port[2] = Port2
14                             0.963184369110093 172.847081506185 0.00568096884089388 174.261105795629 0.00568096884089387 174.261105795629 0.964959463782643 175.456972675036 
14.05                          0.962436804029218 171.812072004781 0.00582222143904045 173.823187191368 0.00582222143904053 173.823187191368 0.964258479711764 174.440199370708 
14.1                           0.961664706603357 170.767321398867 0.00597105256281158 173.396485414504 0.00597105256281176 173.396485414504 0.963534319868063 173.414299370276 
14.15                          0.960866901122836 169.712500271641 0.00612804461160282 172.980615402457 0.00612804461160307 172.980615402457 0.962785848005036 172.378959833564 
14.2                           0.960042137444987 168.647263328482 0.00629383264136209 172.575114334695 0.00629383264136242 172.575114334695 0.962011854148389 171.333852285911 
14.25                          0.959189085081476 167.57124842481  0.0064691096038155 172.179435763822 0.00646910960381585 172.179435763822 0.96121104860775 170.278631632898 
14.3                           0.958306326715992 166.484075520523 0.00665463214946716 171.792943702582 0.00665463214946754 171.792943702582 0.960382055400532 169.212935098728 
14.35                          0.957392351087365 165.385345554369 0.00685122706100555 171.414906726175 0.00685122706100597 171.414906726175 0.959523405019968 168.136381081194 
14.4                           0.956445545164615 164.274639230886 0.00705979839271998 171.044492155654 0.00705979839272039 171.044492155654 0.958633526470239 167.048567915385 
14.45                          0.955464185530553 163.151515711785 0.00728133540189337 170.680760393627 0.00728133540189379 170.680760393627 0.957710738481141 165.949072537424 
14.5                           0.954446428879181 162.015511202734 0.00751692137012987 170.32265948751  0.00751692137013028 170.32265948751  0.956753239802712 164.83744903859  
14.55                          0.953390301519021 160.866137425549 0.00776774342647217 169.969019997717 0.00776774342647259 169.969019997717 0.955759098466242 163.713227099057 
14.6                           0.952293687759252 159.702879964657 0.00803510350029042 169.618550248068 0.00803510350029079 169.618550248068 0.954726239881951 162.57591028931  
14.65                          0.951154317037913 158.525196475457 0.00832043055066151 169.269832032738 0.00832043055066194 169.269832032737 0.953652433624836 161.424974225879 
14.7                           0.949969749630903 157.332514740803 0.00862529424074859 168.921316847985 0.00862529424074896 168.921316847984 0.952535278738326 160.259864566514 
14.75                          0.948737360756581 156.124230560245 0.0089514202510565 168.571322707227 0.00895142025105679 168.571322707226 0.951372187359912 159.079994828159 
14.8                           0.947454322862856 154.89970545486  0.0093007074549914 168.218031584576 0.00930070745499168 168.218031584575 0.950160366443134 157.884744009105 
14.85                          0.946117585850929 153.658264168525 0.00967524721460614 167.859487514533 0.00967524721460638 167.859487514532 0.948896797315345 156.67345399446  
14.9                           0.94472385495147 152.399191944179 0.0100773450946063 167.493595354166 0.0100773450946065 167.493595354166 0.947578212769744 155.445426721552 
14.95                          0.943269565923891 151.121731551057 0.0105095453396194 167.118120189025 0.0105095453396195 167.118120189025 0.946201071341812 154.199921078983 
15                             0.94175085719609 149.825080036014 0.0109746585145461 166.730687335448 0.0109746585145462 166.730687335447 0.944761528363398 152.936149509837 
15.05                          0.94016353849915 148.508385168734 0.0114757927718984 166.328782860536 0.0114757927718984 166.328782860536 0.943255403320244 151.653274285823 
15.1                           0.938503055476893 147.17074154699  0.0120163892849954 165.909754507386 0.0120163892849954 165.909754507386 0.941678142958883 150.350403414986 
15.15                          0.936764449661624 145.811186323949 0.0126002624736483 165.470812878055 0.0126002624736482 165.470812878055 0.94002477949383 149.0265861409   
15.2                           0.934942313101969 144.428694514847 0.0132316457517732 165.009032691055 0.0132316457517731 165.009032691055 0.938289883152848 147.680807985907 
15.25                          0.933030736802848 143.022173835191 0.0139152436468815 164.521353894712 0.0139152436468814 164.521353894712 0.936467508162884 146.311985284978 
15.3                           0.931023251987123 141.590459016768 0.0146562912827348 164.004582383336 0.0146562912827346 164.004582383336 0.934551131117522 144.918959149996 
15.35                          0.928912763008006 140.132305541368 0.0154606223822821 163.455390030452 0.0154606223822819 163.455390030452 0.93253358047265 143.500488796721 
15.4                           0.926691470524471 138.646382724974 0.0163347471425933 162.870313722772 0.016334747142593 162.870313722772 0.930406955683695 142.055244158265 
15.45                          0.924350783290996 137.131266077528 0.0172859415618025 162.245753050296 0.0172859415618023 162.245753050296 0.92816253421659 140.581797699636 
15.5                           0.921881216598184 135.585428855079 0.0183223500657579 161.577966281802 0.0183223500657577 161.577966281802 0.925790664325253 139.078615337782 
15.55                          0.919272275020681 134.007232712566 0.0194531035955167 160.863064230474 0.0194531035955164 160.863064230474 0.923280641078128 137.544046360687 
15.6                           0.91651231666913 132.394917356723 0.0206884556831094 160.09700159067  0.0206884556831091 160.097001590671 0.920620562619636 135.976312227709 
15.65                          0.913588395586481 130.746589090382 0.0220399394696627 159.275565302741 0.0220399394696624 159.275565302742 0.917797163050658 134.373494121813 
15.7                           0.910486078255435 129.060208132361 0.0235205491147007 158.39435947689  0.0235205491147004 158.394359476891 0.914795617582772 132.733519113453 
15.75                          0.907189229368733 127.333574592582 0.0251449496153306 157.44878637779  0.0251449496153304 157.44878637779  0.911599314737053 131.054144786607 
15.8                           0.90367976102903 125.564312981914 0.0269297197043796 156.434022937457 0.0269297197043794 156.434022937457 0.908189589288351 129.332942171683 
15.85                          0.899937338357999 123.749855143377 0.0288936332289303 155.34499222336  0.0288936332289302 155.34499222336  0.904545408363939 127.567276830393 
15.9                           0.895939033069756 121.887421510293 0.0310579852196341 154.176329241045 0.0310579852196339 154.176329241045 0.900643001551177 125.754287948408 
15.95                          0.891658914865567 119.974000634119 0.0334469697290199 152.922340395748 0.0334469697290198 152.922340395749 0.896455424010601 123.890865318907 
16                             0.887067568502946 118.006326989977 0.0360881174058794 151.576955877181 0.0360881174058793 151.576955877182 0.891952039389475 121.973624153516 
16.05                          0.882131522062997 115.980857175753 0.0390128016119759 150.133674169935 0.0390128016119758 150.133674169935 0.887097906758741 119.998877750749 
16.1                           0.87681256929401 113.893744792548 0.0422568225540073 148.585497836771 0.0422568225540073 148.585497836771 0.881853052853267 117.962608207009 
16.15                          0.871066966011161 111.740814562153 0.0458610791936663 146.924859687296 0.0458610791936662 146.924859687296 0.876171607636164 115.860435603139 
16.2                           0.864844477547648 109.517536648027 0.0498723382818762 145.143538453144 0.0498723382818761 145.143538453145 0.870000777790043 113.68758648711  
16.25                          0.858087251526077 107.21900276937  0.0543441082183835 143.232563179576 0.0543441082183836 143.232563179576 0.863279629500037 111.438863070507 
16.3                           0.85072848839767 104.839906635541 0.0593376217557094 141.182105769705 0.0593376217557093 141.182105769705 0.855937649484742 109.108615466024 
16.35                          0.842690882433768 102.374532630096 0.0649229246117809 138.981361569661 0.0649229246117809 138.98136156966  0.847893052821659 106.690720667719 
16.4                           0.833884810124026 99.8167587591932 0.0711800549756423 136.618418693775 0.0711800549756422 136.618418693775 0.83905080972471 104.178574039543 
16.45                          0.824206254529192 97.1600829654465 0.078200278961061 134.080118156136 0.0782002789610609 134.080118156136 0.829300374450853 101.565102158637 
16.5                           0.813534478396227 94.3976864509088 0.0860873153788439 131.351909085794 0.0860873153788438 131.351909085794 0.818513123469527 98.8428104335521 
16.55                          0.801729504225438 91.5225542935821 0.0949584343578221 128.417706764502 0.094958434357822 128.417706764502 0.806539555711234 96.0038856634594 
16.6                           0.788629538970929 88.5276832634    0.104945241258818 125.259766492671 0.104945241258818 125.25976649267  0.793206388675804 93.0403835753489 
16.65                          0.774048613846832 85.4064205115421 0.116193851487273 121.858594073997 0.116193851487272 121.858594073997 0.778313820550206 89.9445456677708 
16.7                           0.757774922620642 82.1529961610006 0.128864014676659 118.192924839537 0.128864014676659 118.192924839537 0.761633448550947 86.7093100828471 
16.75                          0.73957066907064 78.7633393327857 0.143126553464289 114.239818381605 0.143126553464288 114.239818381605 0.742907673959155 83.3291097391622 
16.8                           0.719174712857018 75.2363020356756 0.159158249781004 109.974935835023 0.159158249781004 109.974935835023 0.72185192482627 79.8010896635143 
16.85                          0.696309957044966 71.575458448769  0.17713307454799 105.373089580455 0.17713307454799 105.373089580455 0.698161716487087 76.1269257643665 
16.9                           0.670698225817636 67.7916946097052 0.19720850137048 100.409177706189 0.19720850137048 100.409177706189 0.671527428986446 72.315488353868  
16.95                          0.642086197937195 63.9068437181037 0.219505742080967 95.0596282683927 0.219505742080967 95.0596282683929 0.641660575878856 68.3866594811953 
17                             0.610286431730935 59.9586282992323 0.244083371053885 89.3044642667537 0.244083371053886 89.3044642667539 0.608335919975178 64.376667049591  
17.05                          0.575236950701554 56.0070878532945 0.270905326186713 83.1300333104191 0.270905326186714 83.1300333104192 0.571453383234061 60.3453045197866 
17.1                           0.537080209953917 52.1423960061055 0.299806969890224 76.5322962282022 0.299806969890225 76.5322962282023 0.531121293694172 56.3852883757127 
17.15                          0.496256385269651 48.4933138229299 0.330466597666382 69.520319856304  0.330466597666383 69.5203198563041 0.487757065478594 52.633608580477  
17.2                           0.453596263833838 45.2341378409096 0.362393347763006 62.1193010927779 0.362393347763007 62.119301092778  0.442192565070247 49.2836855319308 
17.25                          0.410386510222055 42.5852933769872 0.394943476384696 54.3721757018497 0.394943476384697 54.3721757018497 0.395760305410249 46.5945866630176 
17.3                           0.368367335898568 40.7980247706988 0.427372501011822 46.3388332048405 0.427372501011822 46.3388332048405 0.35032513331159 44.8875949016695 
17.35                          0.329612839547114 40.1077207375435 0.458919702651854 38.0923583970374 0.458919702651854 38.0923583970373 0.308212952303873 44.5085161218567 
17.4                           0.29624365389862 40.6407841229213 0.488907377252376 29.7125573049506 0.488907377252376 29.7125573049506 0.271966440913142 45.7195455187412 
17.45                          0.26995483188313 42.2874720226288 0.516827833831941 21.277995968306  0.51682783383194 21.2779959683061 0.243840542733461 48.4989684000606 
17.5                           0.251462241326417 44.6218106487821 0.542393485121031 12.8583779176091 0.542393485121031 12.8583779176091 0.225044446048987 52.3401040187995 
17.55                          0.240161711521509 46.9893329469988 0.565539322920418 4.5089526752931  0.565539322920417 4.50895267529321 0.215083189654614 56.3046969979132 
17.6                           0.234305936730147 48.7595559112789 0.586384535044684 -3.73213525223737 0.586384535044682 -3.73213525223723 0.211820987929177 59.4397491401129 
17.65                          0.231633410036339 49.5496031516011 0.605171460280074 -11.8436269431811 0.605171460280073 -11.8436269431809 0.212360327152135 61.1960076147813 
17.7                           0.230024875197631 49.2651949379346 0.622201525986069 -19.8188368918162 0.622201525986069 -19.818836891816 0.214025210899552 61.4875871522088 
17.75                          0.227865773784315 48.006882863475  0.637781948470476 -27.662265800508 0.637781948470475 -27.6622658005079 0.214856156632809 60.501940413544  
17.8                           0.224110826718302 45.9603943734024 0.6521890779222  -35.3860185401181 0.652189077922199 -35.386018540118 0.213643631110675 58.512473055611  
17.85                          0.218194374513391 43.3282885419207 0.665648165011222 -43.0066013804657 0.665648165011222 -43.0066013804657 0.209765015040723 55.7820926477387 
17.9                           0.209903773923384 40.3024600928311 0.678326181964709 -50.5423707196258 0.678326181964709 -50.5423707196258 0.203001209302289 52.5345372010819 
17.95                          0.199269573658537 37.06128832764   0.690333554373599 -58.0116896556452 0.690333554373599 -58.0116896556452 0.193393766804785 48.9576531784238 
18                             0.186486363115513 33.7794038604548 0.701731161470587 -65.431728254282 0.701731161470586 -65.4317282542822 0.181148357683431 45.2188591200268 
18.05                          0.171862719317821 30.6450302559409 0.712539878066991 -72.8177940532594 0.71253987806699 -72.8177940532596 0.166574934202935 41.4863784927298 
18.1                           0.15579619169447 27.8851802256332 0.722750795170591 -80.1830715696831 0.722750795170589 -80.1830715696832 0.15005510310627 37.9579057910842 
18.15                          0.13877272198222 25.8030082500367 0.732334908622018 -87.5386607688597 0.732334908622016 -87.5386607688599 0.13203264736887 34.9054154256163 
18.2                           0.121397182638214 24.8344340805902 0.741251509097506 -94.8938213071935 0.741251509097503 -94.8938213071937 0.113032629407636 32.7563811296493 
18.25                          0.104473019371418 25.626742602399  0.749454803604506 -102.256345763581 0.749454803604503 -102.256345763581 0.093734144309122 32.2556683400289 
18.3                           0.0891585295035903 29.098347265568  0.756898510249682 -109.632999201707 0.756898510249679 -109.632999201707 0.0751704895916793 34.7890430432944 
18.35                          0.0771846852070015 36.2536415842515 0.763538335637906 -117.029974401004 0.763538335637903 -117.029974401004 0.0592333688083424 42.8409429846605 
18.4                           0.0708441918506084 47.1857595355949 0.769332385515283 -124.45332257223 0.769332385515281 -124.45332257223 0.0495296539541845 59.0855298142056 
18.45                          0.0720173863782752 59.5300952395763 0.774239675861953 -131.909328669366 0.774239675861952 -131.909328669366 0.0504076268366055 79.8075362711505 
18.5                           0.0806187824187802 69.5369464166394 0.778216999332797 -139.404808351635 0.778216999332797 -139.404808351635 0.0616767091957996 94.6318925361303 
18.55                          0.0948521400205748 75.4141175847075 0.78121445973783 -146.947309668886 0.781214459737831 -146.947309668886 0.0791500245882598 100.998821391403 
18.6                           0.112842161286071 77.5746652128553 0.783170023294918 -154.545205946528 0.78317002329492 -154.545205946528 0.0997546774536453 101.757056576791 
18.65                          0.133385913925955 77.0306809382794 0.784003468943243 -162.207666633958 0.784003468943246 -162.207666633958 0.122115690975464 99.2396344593991 
18.7                           0.155874999703794 74.6171584565297 0.783610179811388 -169.944490055129 0.783610179811391 -169.944490055129 0.145720860935818 94.719652349248  
18.75                          0.180071458199814 70.895291854775  0.781855337315675 -177.765776854736 0.781855337315679 -177.765776854737 0.17045359334515 88.8748810335814 
18.8                           0.205945509732915 66.2244695898203 0.778569287695109 174.318582643467 0.778569287695113 174.318582643466 0.196391171248693 82.0873405143963 
18.85                          0.233573490563082 60.8355255331481 0.773545159460306 166.299636654824 0.773545159460309 166.299636654824 0.223707313823323 74.5904386751948 
18.9                           0.263068991195273 54.8804661922539 0.766540190656208 158.170340103334 0.766540190656209 158.170340103334 0.252611731180108 66.5405990639541 
18.95                          0.294529827711016 48.4636907310974 0.757282578252696 149.926767785614 0.757282578252698 149.926767785614 0.283301512699611 58.0534426038275 
19                             0.327992848918346 41.6616514332916 0.745485789280482 141.569537393171 0.745485789280482 141.569537393171 0.315915803187104 49.2227685403845 
19.05                          0.363394750993865 34.5356068260323 0.730871870013119 133.105342396301 0.730871870013119 133.105342396301 0.350492904178982 40.1307962365446 
19.1                           0.400541211221004 27.1401178017032 0.713204011395598 124.54840939959  0.713204011395597 124.548409399591 0.386933419055385 30.853789750819  
19.15                          0.439089298096671 19.5286597183943 0.692326277224953 115.921606900899 0.692326277224953 115.921606900899 0.424975795750372 21.4651271202503 
19.2                           0.478548925825186 11.7569858428748 0.668205219890736 107.256877682377 0.668205219890737 107.256877682378 0.464191408156865 12.0367967076192 
19.25                          0.518307419890093 3.88451443414116 0.640965043910278 98.5946906721507 0.64096504391028 98.5946906721511 0.504004473308497 2.63971727818748 
19.3                           0.557676846235838 -4.02607404604024 0.610906600620897 89.9823441239593 0.6109066006209  89.9823441239598 0.543737392800969 -6.6569764743945 
19.35                          0.595957665426735 -11.9107324578799 0.578502316659719 81.4711933302768 0.578502316659724 81.4711933302773 0.582675543833646 -15.7875424059721 
19.4                           0.632506868309384 -19.7069370726793 0.54436450377854 73.1131567287051 0.544364503778544 73.1131567287056 0.620139522940527 -24.6918402887583 
19.45                          0.666796707686629 -27.356911737713 0.509191770625789 64.9570666874101 0.509191770625794 64.9570666874105 0.655550173098215 -33.3176809761673 
19.5                           0.698452784202814 -34.8105082353121 0.473704440942647 57.0454811221686 0.47370444094265 57.0454811221688 0.688473928849443 -41.6227972825278 
19.55                          0.727266519331223 -42.0272228195519 0.438582259770292 49.4124357681439 0.438582259770295 49.4124357681441 0.718642202789414 -49.5760241460267 
19.6                           0.753184118100823 -48.9771034599564 0.404415499937581 42.0823568362483 0.404415499937582 42.0823568362484 0.745945887918289 -57.1575010078643 
19.65                          0.776279156041929 -55.6405870383001 0.37167538398784 35.0700787037875 0.371675383987839 35.0700787037875 0.770411584568373 -64.3579559717027 
19.7                           0.79671761015866 -62.0075090228766 0.340704077652439 28.3817142504837 0.340704077652437 28.3817142504837 0.792168357537236 -71.1773095116145 
19.75                          0.814722954175838 -68.0756130143406 0.311720437801618 22.0160444266913 0.311720437801615 22.0160444266914 0.81141298995322 -77.6229066214779 
19.8                           0.830546267960075 -73.8488706096106 0.284835947896443 15.9661128196067 0.284835947896439 15.9661128196069 0.828379186464051 -83.7076638763587 
19.85                          0.844443542192631 -79.3358466794462 0.260075460115187 10.2207875583884 0.260075460115181 10.2207875583887 0.843313398370992 -89.4483422720801 
19.9                           0.856660287402613 -84.5482541252224 0.237398619784195 4.7661445823864  0.237398619784189 4.76614458238686 0.856457766366778 -94.8640682318047 
19.95                          0.867422381422897 -89.4997631183615 0.216719380722814 -0.413394279944935 0.216719380722808 -0.413394279944275 0.868039369781578 -99.9751498145627 
20                             0.876931652795263 -94.2050739364996 0.197922345941139 -5.33417885778689 0.197922345941133 -5.334178857786  0.878264417860278 -104.802183140401 
20.05                          0.885364726462978 -98.6792297592751 0.180875604185219 -10.0126813260886 0.180875604185213 -10.0126813260875 0.887315962072861 -109.365414806731 
20.1                           0.892873909644272 -102.937130930005 0.165440287322229 -14.4650425495882 0.165440287322223 -14.4650425495869 0.895353906719152 -113.684314153629 
20.15                          0.899589208043397 -106.993208968301 0.151477336741487 -18.7067732451809 0.151477336741481 -18.7067732451794 0.90251637933996 -117.777308346143 
20.2                           0.905620849510462 -110.861221808202 0.138852041620775 -22.752572195179 0.13885204162077 -22.7525721951773 0.908921798422911 -121.661638206778 
20.25                          0.911061920448965 -114.554137719637 0.127436881945479 -26.6162296193317 0.127436881945475 -26.6162296193299 0.914671203137078 -125.353300022462 
20.3                           0.91599088566017 -118.08408197695 0.117113131937569 -30.3105903234095 0.117113131937565 -30.3105903234077 0.919850579346476 -128.86704609137 
20.35                          0.920473874001227 -121.462326444395 0.107771589377122 -33.8475572640917 0.107771589377119 -33.8475572640898 0.924533033920254 -132.216423530319 
20.4                           0.924566683040273 -124.699307393934 0.0993127110872186 -37.2381212423263 0.0993127110872157 -37.2381212423245 0.928780746459521 -135.413836445185 
20.45                          0.928316497867812 -127.804660964606 0.0916463622316065 -40.4924064686012 0.0916463622316041 -40.4924064685995 0.932646675205968 -138.470620942561 
20.5                           0.93176334202547 -130.787268804534 0.0846913289159983 -43.6197248219061 0.0846913289159965 -43.6197248219045 0.936176021428716 -141.397125764906 
20.55                          0.934941289207445 -133.655308764194 0.0783746989249078 -46.6286339064821 0.0783746989249063 -46.6286339064805 0.939407471038182 -144.202793755348 
20.6                           0.937879467837979 -136.416307200888 0.0726311821737402 -49.5269956635588 0.0726311821737392 -49.5269956635576 0.942374238510732 -146.896241094608 
20.65                          0.940602890017729 -139.077190660367 0.0674024182908404 -52.3220334692407 0.0674024182908398 -52.3220334692398 0.945104939759197 -149.485332469951 
20.7                           0.943133133665448 -141.64433554715 0.0626363015420597 -55.0203864683546 0.0626363015420594 -55.0203864683541 0.947624319503983 -151.977251171875 
20.75                          0.945488903163238 -144.123614978022 0.0582863412971375 -57.6281604545711 0.0582863412971375 -57.6281604545709 0.949953856324474 -154.378563674881 
20.8                           0.947686490130904 -146.520442407988 0.054311068009819 -60.1509749830807 0.0543110680098192 -60.1509749830809 0.952112265697924 -156.695278624466 
20.85                          0.949740152471665 -148.839811879527 0.050673489171598 -62.5940066480363 0.0506734891715985 -62.594006648037 0.954115918414251 -158.932900382224 
20.9                           0.951662426716598 -151.086334914567 0.0473405961055701 -64.9620286124399 0.0473405961055708 -64.9620286124412 0.955979189025902 -161.096477417362 
20.95                          0.953464386005197 -153.264274172863 0.0442829202101441 -67.2594465715584 0.0442829202101448 -67.2594465715602 0.957714746559206 -163.190645906258 
21                             0.95515585376928 -155.377574061007 0.0414741359234475 -69.4903313823702 0.0414741359234484 -69.4903313823725 0.959333797609671 -165.219668933347 
21.05                          0.956745581301736 -157.429888507411 0.0388907069603066 -71.6584486150895 0.0388907069603076 -71.6584486150924 0.960846290160339 -167.187471691342 
21.1                           0.95824139584238 -159.424606130414 0.0365115720651607 -73.7672852882654 0.0365115720651618 -73.7672852882689 0.96226108497148 -169.097673066906 
21.15                          0.959650324550373 -161.364873026058 0.0343178664804042 -75.8200740430465 0.0343178664804053 -75.8200740430504 0.963586100155598 -170.953613976194 
21.2                           0.960978698708624 -163.253613393831 0.0322926754500058 -77.8198149995128 0.032292675450007 -77.8198149995172 0.964828433536443 -172.75838278787 
21.25                          0.962232241678428 -165.093548206042 0.0304208162946126 -79.7692955215863 0.0304208162946138 -79.7692955215911 0.965994466559463 -174.514838142283 
21.3                           0.963416143455684 -166.88721211155 0.028688645860981 -81.6711080989461 0.0286886458609822 -81.6711080989513 0.967089952842422 -176.225629446406 
21.35                          0.964535124143172 -168.636968748765 0.0270838904354769 -83.5276665359374 0.0270838904354781 -83.527666535943 0.968120093901745 -177.893215296046 
21.4                           0.965593488221264 -170.345024627112 0.0255954954993708 -85.3412206194484 0.0255954954993719 -85.3412206194541 0.969089604139536 -179.519880050473 
21.45                          0.966595171151522 -172.013441720979 0.0242134929809523 -87.1138694206502 0.0242134929809534 -87.1138694206561 0.970002766809245 178.892251239753 
21.5                           0.967543779567317 -173.644148905875 0.0229288839193181 -88.8475733695926 0.022928883919319 -88.8475733695983 0.970863482378785 177.3411993731   
21.55                          0.968442626079427 -175.238952353391 0.0217335346936263 -90.544165227045 0.0217335346936272 -90.5441652270505 0.971675310465851 175.825118846898 
21.6                           0.969294759541731 -176.79954498943 0.0206200851883822 -92.205360064678 0.020620085188383 -92.2053600646832 0.972441506320691 174.34228687595  
21.65                          0.970102991474108 -178.327515109275 0.0195818674600428 -93.8327643526659 0.0195818674600435 -93.8327643526706 0.973165052668318 172.891093455154 
21.7                           0.970869919219442 -179.824354233173 0.0186128336438572 -95.4278842429659 0.0186128336438577 -95.42788424297  0.973848687588138 171.470032355544 
21.75                          0.971597946313894 178.708535722738 0.0177074919938058 -96.9921331268212 0.0177074919938062 -96.9921331268242 0.974494928998851 170.077692955729 
21.8                           0.97228930046978 177.26983589324  0.0168608500844303 -98.5268385363176 0.0168608500844305 -98.5268385363196 0.975106096225653 168.712752821805 
21.85                          0.972946049505153 175.85830446876  0.0160683643229716 -100.03324845202 0.0160683643229717 -100.033248452021 0.975684329051746 167.37397095862  
21.9                           0.973570115500584 174.472771204462 0.0153258950252727 -101.51253707169 0.0153258950252727 -101.512537071689 0.976231604593955 166.060181663935 
21.95                          0.974163287419546 173.112132385788 0.0146296664009532 -102.965810088779 0.0146296664009529 -102.965810088777 0.976749752290622 164.770288924636 
22                             0.974727232392387 171.775346207514 0.0139762308739459 -104.394109523691 0.0139762308739454 -104.394109523686 0.977240467246847 163.503261300915 
22.05                          0.975263505833672 170.461428527837 0.0133624372349602 -105.798418145596 0.0133624372349596 -105.798418145589 0.977705322146196 162.25812725025  
22.1                           0.975773560537618 169.169448962938 0.012785402184037 -107.179663517872 0.0127854021840361 -107.179663517863 0.978145777907825 161.033970848265 
22.15                          0.976258754875376 167.898527291033 0.0122424848751929 -108.538721695819 0.0122424848751918 -108.538721695807 0.978563193242613 159.829927868182 
22.2                           0.976720360200425 166.647830137984 0.0117312641221927 -109.876420601217 0.0117312641221913 -109.876420601203 0.978958833240548 158.645182184679 
22.25                          0.97715956755359 165.416567919405 0.0112495179655935 -111.19354309441 0.0112495179655919 -111.193543094392 0.9793338771035  157.478962471554 
22.3                           0.977577493746841 164.203992016635 0.010795205337141 -112.490829760836 0.0107952053371391 -112.490829760815 0.979689425122241 156.330539165841 
22.35                          0.977975186894479 163.009392166181 0.0103664495890142 -113.768981425288 0.0103664495890121 -113.768981425264 0.980026504983505 155.199221673831 
22.4                           0.97835363145146 161.832094044243 0.00996152368289997 -115.028661403477 0.00996152368289758 -115.02866140345 0.980346077481782 154.08435579698  
22.45                          0.978713752811003 160.671457029662 0.00957883685792625 -116.27049749678 0.00957883685792361 -116.27049749675 0.980649041701034 152.985321357922 
22.5                           0.979056421507139 159.526872130244 0.00921692261753704 -117.495083732146 0.00921692261753421 -117.495083732114 0.980936239723384 151.901530008803 
22.55                          0.979382457062338 158.397760058831 0.00887442789382195 -118.702981845051 0.00887442789381897 -118.702981845017 0.981208460914794 150.832423205887 
22.6                           0.979692631515534 157.283569446758 0.00855010326395453 -119.894722498993 0.00855010326395134 -119.894722498958 0.981466445831735 149.777470336018 
22.65                          0.979987672661777 156.183775183468 0.00824279410752305 -121.070806230281 0.00824279410751975 -121.070806230245 0.98171088978761 148.736166981861 
22.7                           0.980268267031152 155.097876872107 0.00795143260589717 -122.231704101653 0.00795143260589389 -122.231704101617 0.981942446113177 147.708033314162 
22.75                          0.980535062631529 154.025397391818 0.00767503049557335 -123.377858042613 0.00767503049557013 -123.377858042579 0.982161729141268 146.692612600351 
22.8                           0.980788671476984 152.9658815583   0.00741267249685031 -124.509680848153 0.00741267249684733 -124.509680848121 0.982369316942713 145.689469819819 
22.85                          0.98102967192141 151.91889487494  0.00716351034736012 -125.627555800817 0.00716351034735749 -125.62755580079 0.982565753837337 144.698190377133 
22.9                           0.981258610814734 150.884022367509 0.00692675737702874 -126.731835873974 0.00692675737702672 -126.731835873954 0.982751552701336 143.718378905219 
22.95                          0.981476005497389 149.860867496005 0.00670168356707512 -127.822842466734 0.00670168356707392 -127.822842466722 0.982927197089997 142.749658151288 
23                             0.981682345647061 148.849051137803 0.00648761104074726 -128.900863613705 0.00648761104074723 -128.900863613705 0.983093143192755 141.791667938947 
