! Touchstone file exported from HFSS 3D Layout Design 2026.1.0
!        File:           D:/Work/ADS/HFSS_VERDICT/hfss_sma_connector_cpw.aedt
!        Generated:      07:53:57 PM Aug  5, 2026
!        Design:         IDEAL_50R_CPW_30MM
!        Project:        hfss_sma_connector_cpw
!
! Variables:
!        $sma_Base_D = 6.25mm
!        $sma_Base_L = 8mm
!        $sma_Feet_L = 4mm
!        $sma_Feet_W = 1mm
!        $sma_Front_L = 1.5mm
!        $sma_Front_W = 6.5mm
!        $sma_Hole_D = 1.25mm
!        $sma_PTFE_D = 4.2mm
!        $sma_Pin_D = 0.95mm
!        $sma_Pin_P = 1.7mm
!
# GHz S MA R 50.000000
! Terminal data exported
! Port[1] = Port1
! Port[2] = Port2
0.5                            0.0532046593771648 -124.808534336495 0.988463323117114 -33.2427949783855 0.988463323117114 -33.2427949783855 0.0532117143358076 -123.543679123264 
0.6                            0.0619265482669756 -131.849824541498 0.986417472814997 -39.8004794889297 0.986417472814996 -39.8004794889297 0.0619251961431816 -130.320265560266 
0.7                            0.0697578902105554 -138.78809482174 0.984421215057523 -46.3427392808949 0.984421215057522 -46.3427392808948 0.0697431127308875 -136.986964177942 
0.8                            0.0766214205434484 -145.650347558328 0.982483367140094 -52.8710757884744 0.982483367140094 -52.8710757884743 0.0765888379392985 -143.56920801546 
0.9                            0.0824502521765623 -152.454539852411 0.980620888802567 -59.3868376236865 0.980620888802567 -59.3868376236864 0.0823963719231974 -150.083484442009 
1                              0.0871884613466893 -159.213085319659 0.978852481682823 -65.8915240654181 0.978852481682824 -65.891524065418 0.0871107131904259 -156.540561758924 
1.1                            0.0907919668621336 -165.934876536949 0.97719451525093 -72.3868251272756 0.97719451525093 -72.3868251272756 0.0906886661030328 -162.947302876612 
1.2                            0.0932292190974058 -172.626547651228 0.975658856859841 -78.8745708348248 0.975658856859841 -78.8745708348248 0.0930995454500289 -169.307750981229 
1.3                            0.0944815865052149 -179.293261534833 0.974251899740204 -85.3566568757481 0.974251899740203 -85.3566568757481 0.0943256151837681 -175.62372784477 
1.4                            0.0945434870903783 174.0608211139   0.972974286061415 -91.8349696675249 0.972974286061414 -91.8349696675249 0.0943622776031839 178.104943836735 
1.5                            0.0934223531725663 167.432287682746 0.971821035819251 -98.3113172095431 0.97182103581925 -98.3113172095431 0.0932180880013695 171.880545482178 
1.6                            0.0911385052731814 160.818365445718 0.970781934809049 -104.787366786971 0.970781934809048 -104.787366786971 0.0909146703363258 165.707903711629 
1.7                            0.0877249801360167 154.216915839019 0.969842114140333 -111.264589645062 0.969842114140333 -111.264589645062 0.0874865886130214 159.595251772736 
1.8                            0.0832273251671182 147.626510239657 0.968982790594799 -117.744213189325 0.968982790594798 -117.744213189325 0.0829812060339405 153.555718626909 
1.9                            0.0777033440800222 141.046590888572 0.968182148860411 -124.227181901531 0.968182148860411 -124.227181901531 0.0774585515665359 147.609884259567 
2                              0.0712227591660752 134.477757669849 0.967416344836982 -130.714128569412 0.967416344836982 -130.714128569412 0.0709912239632343 141.790324196629 
2.1                            0.0638667454454248 127.922295636798 0.966660600975169 -137.205357499638 0.966660600975169 -137.205357499638 0.0636644215230985 136.15018153406  
2.2                            0.0557272912634765 121.385239512467 0.965890354374465 -143.700841131063 0.965890354374465 -143.700841131063 0.0555763611342732 130.780640659572 
2.3                            0.0469063488667071 114.87679242383  0.96508240891733 -150.200230943136 0.96508240891733 -150.200230943136 0.0468398688715208 125.85029300848  
2.4                            0.0375147592304837 108.41870218394  0.964216035941431 -156.702882833049 0.964216035941431 -156.702882833049 0.0375876663546859 121.706414749534 
2.5                            0.0276709834762781 102.064967127396 0.963273965152657 -163.207896292683 0.963273965152657 -163.207896292683 0.0279911123268067 119.188676229807 
2.6                            0.0174998781549593 95.9965403742324 0.962243209457361 -169.714165836114 0.962243209457361 -169.714165836114 0.0183435396814745 120.909879245346 
2.7                            0.00713436809390007 91.4476811567288 0.961115674400136 -176.220442296528 0.961115674400136 -176.220442296528 0.00964655974176195 138.955997704297 
2.8                            0.00334797761834935 -105.843320861727 0.959888514589552 177.274599089621 0.959888514589552 177.274599089621 0.0080130432847875 -155.752576841292 
2.9                            0.0137084990145177 -106.879500844993 0.958564214931654 170.772287392086 0.958564214931654 170.772287392086 0.0158164930893885 -126.918704188579 
3                              0.0238961982545355 -112.67139885698 0.957150392212712 164.273885316209 0.957150392212712 164.273885316209 0.0253069129064967 -122.870899857014 
3.1                            0.0337695110628657 -118.912681035144 0.955659330804417 157.780522946454 0.955659330804417 157.780522946454 0.0348501469703646 -124.589681294409 
3.2                            0.0432070720580212 -125.282765845019 0.954107283176268 151.29313939511  0.954107283176268 151.29313939511  0.0440802122857174 -128.321958214823 
3.3                            0.0520953375755531 -131.701621667349 0.952513579882277 144.812435307913 0.952513579882276 144.812435307913 0.0528148394345311 -132.965808938223 
3.4                            0.0603292255187377 -138.139631858768 0.950899603586169 138.338838461087 0.950899603586168 138.338838461087 0.0609230090867943 -138.089431173189 
3.5                            0.0678131015675223 -144.583323012674 0.949287686936429 131.872483860515 0.949287686936428 131.872483860515 0.0682976402434811 -143.489816210301 
3.6                            0.0744616296909695 -151.025794408528 0.947699994748968 125.41320889789  0.947699994748967 125.41320889789  0.0748480031828499 -149.058811807601 
3.7                            0.0802004374078381 -157.46327980244 0.946157447575146 118.960563297982 0.946157447575146 118.960563297982 0.0804972609427017 -154.733174975278 
3.8                            0.0849666093618423 -163.893669208969 0.94467873725726 112.513832858365 0.94467873725726 112.513832858365 0.0851816125340941 -160.473000523771 
3.9                            0.0887090383872898 -170.31576772952 0.943279476587003 106.07207537251  0.943279476587003 106.07207537251  0.0888499850062315 -166.251284883554 
4                              0.0913886660260993 -176.728862441643 0.941971515728405 99.6341666549092 0.941971515728404 99.6341666549092 0.0914639202083441 -172.048360556516 
4.1                            0.0929786411170795 176.867575415684 0.940762448499768 93.1988542529584 0.940762448499767 93.1988542529584 0.0929975324775581 -177.848626624409 
4.2                            0.0934644180401358 170.47413259019  0.939655322507435 86.7648162237893 0.939655322507433 86.7648162237893 0.0934374960379307 176.361601989327 
4.3                            0.0928438070674526 164.091684826635 0.938648558771723 80.3307222587574 0.938648558771723 80.3307222587574 0.0927830503026245 170.595731437509 
4.4                            0.0911269794334514 157.72165105123  0.937736078910128 73.8952944370893 0.937736078910126 73.8952944370894 0.0910460205346074 164.868381472753 
4.5                            0.0883364204341784 151.366309739421 0.936907630995954 67.4573649699933 0.936907630995952 67.4573649699933 0.088250854528439 159.197031949617 
4.6                            0.0845068162292662 145.029236441423 0.93614929866815 61.0159284497107 0.936149298668149 61.0159284497106 0.0844346816063741 153.604164243988 
4.7                            0.0796848550887299 138.715966169841 0.935444171734648 54.5701863427908 0.935444171734647 54.5701863427907 0.0796474169550379 148.120413014682 
4.8                            0.0739289227285938 132.435079696562 0.934773150309727 48.1195817659632 0.934773150309726 48.1195817659631 0.0739519765898096 142.789649244944 
4.9                            0.0673086758282603 126.200124689193 0.934115848558586 41.6638229605139 0.934115848558585 41.6638229605139 0.0674247675586042 137.67781776303  
5                              0.0599044916908556 120.033290164074 0.933451558694897 35.2028943389744 0.933451558694896 35.2028943389744 0.0601568545492446 132.889451537368 
5.1                            0.0518068266629704 113.973095867463 0.932760231476404 28.7370545120681 0.932760231476403 28.7370545120681 0.0522568068777349 128.601060295834 
5.2                            0.0431156111085115 108.092404766369 0.932023426671145 22.2668213008642 0.932023426671144 22.2668213008642 0.043857937613425 125.135226344709 
5.3                            0.0339401315122534 102.547591639583 0.931225186435373 15.7929443746676 0.931225186435372 15.7929443746676 0.0351382065351078 123.144942206476 
5.4                            0.0244013132172984 97.7468875506387 0.930352786753752 9.31636679437508 0.930352786753751 9.31636679437512 0.026382569359154 124.139399969579 
5.5                            0.0146485994268235 95.1976369520994 0.929397327307554 2.83817734084543 0.929397327307553 2.83817734084543 0.0182175266294138 132.166484665296 
5.6                            0.00509396946805159 107.95396563194  0.92835412829322 -3.64044397819   0.92835412829322 -3.64044397818986 0.0125673759678053 157.320275553334 
5.7                            0.00605749704097852 -131.215699959699 0.92722291337717 -10.1182844648411 0.92722291337717 -10.118284464841 0.0134403385301357 -164.035239777166 
5.8                            0.0156308457636062 -122.741083400644 0.926007770363059 -16.5941583138418 0.92600777036306 -16.5941583138417 0.0199215589515523 -144.050603236193 
5.9                            0.0252368531626946 -125.683352362951 0.9247168942314  -23.0669642092207 0.924716894231402 -23.0669642092206 0.0281818447631379 -138.288058487267 
6                              0.0345503195098492 -130.561981260747 0.923362129845554 -29.5357380560029 0.923362129845555 -29.5357380560028 0.0367660298838209 -138.174235487757 
6.1                            0.0434335977470163 -136.102018696174 0.921958342716126 -35.9996982938373 0.921958342716127 -35.9996982938373 0.0451785728016853 -140.538999231527 
6.2                            0.0517754312508478 -141.940127904249 0.920522654904164 -42.4582817062254 0.920522654904166 -42.4582817062252 0.0531795673658201 -144.161218409249 
6.3                            0.0594772348846197 -147.933206174486 0.919073588873692 -48.9111682042019 0.919073588873694 -48.9111682042018 0.0606155140750016 -148.494048844947 
6.4                            0.0664510450694327 -154.013203569138 0.917630164704069 -55.3582936792576 0.917630164704072 -55.3582936792575 0.0673719882000094 -153.259823605871 
6.5                            0.0726194675935163 -160.143405882351 0.916210995728093 -61.7998506407417 0.916210995728094 -61.7998506407416 0.0733577482505157 -158.303104747252 
6.6                            0.0779160226903681 -166.302078476056 0.914833424841499 -68.236276938478 0.914833424841502 -68.236276938478 0.0784986417826611 -163.529813816942 
6.7                            0.0822855054743276 -172.475354351433 0.91351273907232 -74.6682333928099 0.913512739072323 -74.6682333928099 0.0827350456680779 -168.879091494311 
6.8                            0.085684256786605 -178.653759818269 0.912261494188779 -81.0965715945666 0.912261494188782 -81.0965715945667 0.0860207215188491 -174.309046136048 
6.9                            0.0880803217686862 175.169667865347 0.91108897478088 -87.5222934904652 0.911088974780881 -87.5222934904652 0.0883222792356222 -179.788931014625 
7                              0.0894535028407113 169.000518094695 0.910000808843847 -93.9465046379756 0.910000808843847 -93.9465046379756 0.0896189129753982 174.705505912668 
7.1                            0.0897953249088056 162.843792388617 0.908998749700239 -100.370363205851 0.908998749700239 -100.370363205851 0.0899022598085373 169.195052392866 
7.2                            0.0891089337677503 156.704544794582 0.908080632205645 -106.795026922192 0.908080632205645 -106.795026922192 0.0891763101908985 163.699257892899 
7.3                            0.0874089474200658 150.588510181283 0.907240504511695 -113.221600239234 0.907240504511693 -113.221600239234 0.0874573358910039 158.238347230578 
7.4                            0.084721276149174 144.502835919546 0.906468931025097 -119.651083996882 0.906468931025094 -119.651083996882 0.0847738222189581 152.835194493066 
7.5                            0.0810829221015934 138.457057628082 0.905753456388106 -126.084329823688 0.905753456388105 -126.084329823688 0.0811664114423803 147.517742907901 
7.6                            0.0765417647856223 132.464538758601 0.905079214148214 -132.522001407118 0.905079214148213 -132.522001407118 0.0766878944999421 142.322404159021 
7.7                            0.0711563386745807 126.544771026376 0.904429657238607 -138.964544583121 0.904429657238604 -138.964544583121 0.071403344274529 137.29932944879  
7.8                            0.0649956199815705 120.727323198857 0.903787380589172 -145.412167925171 0.903787380589172 -145.412167925171 0.0653905972551109 132.521222283042 
7.9                            0.0581388781246879 115.05913267776  0.903134999467092 -151.864835144272 0.903134999467092 -151.864835144272 0.0587415365379818 128.099077638123 
8                              0.050675758359235 109.619125181936 0.902456041036352 -158.322270138912 0.902456041036353 -158.322270138912 0.0515652070353775 124.212222565919 
8.1                            0.0427070880696202 104.550616185304 0.90173580179733 -164.783974962599 0.90173580179733 -164.783974962598 0.0439952838351234 121.169974462925 
8.2                            0.0343479779190396 100.143092486172 0.90096212073982 -171.249260323403 0.900962120739822 -171.249260323403 0.0362086820561018 119.54873987451  
8.3                            0.0257391495918471 97.0793682311793 0.900126017862127 -177.717287525046 0.900126017862127 -177.717287525046 0.0284757161929113 120.52104308689  
8.4                            0.017096383559167 97.4131663613742 0.899222150620763 175.812879956206 0.899222150620761 175.812879956206 0.0213085412453061 126.649308567828 
8.5                            0.00904456027702426 110.441431275699 0.898249047014365 169.342217741255 0.898249047014365 169.342217741255 0.015890291902547 142.946193328586 
8.6                            0.00596620048831036 174.919515136056 0.897209083131567 162.871677735129 0.897209083131568 162.871677735129 0.0145050288831023 170.691999424874 
8.7                            0.0122447489067626 -147.94214293563 0.896108184495818 156.402124757019 0.896108184495814 156.402124757019 0.0180039746521679 -166.410371606814 
8.8                            0.0203261754801077 -142.854703495013 0.89495524352149 149.934276429273 0.89495524352149 149.934276429273 0.0241381751873213 -155.967377485341 
8.9                            0.028397381906188 -144.398213255301 0.89376125881661 143.468650251133 0.893761258816608 143.468650251133 0.0311124667161666 -152.879239148888 
9                              0.0361224108429048 -148.094508052908 0.892538214938298 137.005521716427 0.892538214938298 137.005521716427 0.0381622920932415 -153.406429078657 
9.1                            0.0433466072542418 -152.727371877981 0.891297732781382 130.544897111942 0.891297732781378 130.544897111941 0.0449381229645298 -155.824450594834 
9.2                            0.0499626992700547 -157.839274457774 0.890049530708679 124.086504286809 0.890049530708679 124.086504286809 0.051242985499394 -159.318609483783 
9.3                            0.055885429488033 -163.220176158293 0.888799744945371 117.629804247781 0.88879974494537 117.629804247781 0.056946445523991 -163.468045269297 
9.4                            0.0610447257117224 -168.759775549964 0.887549165259211 111.174025939015 0.887549165259213 111.174025939015 0.0619545136999553 -168.03533563261 
9.5                            0.065383424926626 -174.39406959102 0.886291449489479 104.718226019874 0.886291449489484 104.718226019873 0.0661982227033044 -172.875645520005 
9.6                            0.0688563680681077 179.917279571869 0.885011389170045 98.2613748481521 0.885011389170053 98.261374848152  0.0696290867727889 -177.894243782306 
9.7                            0.0714299745374375 174.201785388449 0.883683309263009 91.8024691687073 0.883683309263018 91.8024691687072 0.0722172352740066 176.974856498451 
9.8                            0.0730820294346937 168.479926395714 0.882269698307456 85.340671130459  0.882269698307466 85.3406711304588 0.0739505068552489 171.780296435386 
9.9                            0.0738016109638139 162.768603682818 0.880720180592008 78.8754721195999 0.880720180592015 78.8754721195996 0.0748337173206445 166.559739307808 
10                             0.0735891425838246 157.083491979505 0.878970957442315 72.4068784095759 0.878970957442315 72.4068784095759 0.074887712726609 161.34354577036  
