! Touchstone file exported from HFSS 3D Layout Design 2026.1.0
!        File:           D:/Work/SIM/ADS_AUTO_SIM/projects/RFSOC_RF/TX_Fillter.aedt
!        Generated:      02:22:38 AM Aug 31, 2026
!        Design:         TX_BAND1_MCFIL_R29_CNN046
!        Project:        TX_Fillter
!
# GHz S MA R 50.000000
! Terminal data exported
! Port[1] = Port1
! Port[2] = Port2
14                             0.974036406505898 -162.424411857191 0.0036813448323426 -176.532023888996 0.0036813448323426 -176.532023888996 0.973546011386344 -162.43443021726 
14.05                          0.973563713813181 -163.285569500946 0.00375540952579432 -176.89767242615 0.00375540952579432 -176.897672426151 0.97305502912426 -163.313192728577 
14.1                           0.973076157487316 -164.152494757784 0.00383309898248859 -177.242489069379 0.0038330989824886 -177.24248906938 0.972548403229836 -164.198034983363 
14.15                          0.972573000165791 -165.025367727224 0.00391470315142104 -177.566090097987 0.00391470315142104 -177.566090097987 0.972025349441508 -165.089146422464 
14.2                           0.97205345509912 -165.904378045456 0.00400054065782821 -177.868138851274 0.00400054065782821 -177.868138851274 0.97148503039055 -165.986726628181 
14.25                          0.9715166819959  -166.789725516248 0.00409096196567797 -178.148354373149 0.00409096196567797 -178.14835437315 0.970926551087291 -166.890986003719 
14.3                           0.970961782444957 -167.68162079271 0.00418635291256314 -178.406520904625 0.00418635291256313 -178.406520904626 0.970348953943669 -167.802146508102 
14.35                          0.97038779486382 -168.580286114833 0.00428713866301009 -178.642498235608 0.00428713866301007 -178.642498235608 0.969751213276066 -168.720442452006 
14.4                           0.969793688915736 -169.485956108259 0.00439378813230988 -178.856232910732 0.00439378813230986 -178.856232910732 0.96913222922449 -169.646121360552 
14.45                          0.969178359329272 -170.39887865039 0.00450681894000832 -179.047770263533 0.00450681894000832 -179.047770263533 0.968490821015139 -170.579444909829 
14.5                           0.968540619045131 -171.319315810623 0.00462680296033262 -179.217267228895 0.00462680296033261 -179.217267228895 0.967825719482809 -171.520689944683 
14.55                          0.967879191603752 -172.247544872325 0.00475437254630129 -179.365005855532 0.00475437254630128 -179.365005855533 0.967135558757405 -172.470149586239 
14.6                           0.967192702674514 -173.183859445024 0.00489022751533048 -179.491407408517 0.0048902275153305 -179.491407408517 0.966418867004436 -173.428134438615 
14.65                          0.966479670612312 -174.128570676373 0.00503514299713815 -179.597046917226 0.00503514299713818 -179.597046917226 0.96567405609273 -174.394973905473 
14.7                           0.965738495909778 -175.082008574558 0.00518997826005946 -179.682667987499 0.00518997826005948 -179.6826679875  0.96489941004293 -175.371017628352 
14.75                          0.964967449392757 -176.044523453184 0.00535568665000974 -179.74919765971 0.00535568665000974 -179.749197659711 0.964093072087321 -176.356637060252 
14.8                           0.964164658982378 -177.016487512155 0.00553332679785968 -179.797761058805 0.00553332679785968 -179.797761058805 0.963253030144348 -177.352227189644 
14.85                          0.963328094818389 -177.998296569811 0.00572407527664344 -179.829695550444 0.00572407527664346 -179.829695550444 0.962377100479089 -178.358208432058 
14.9                           0.962455552504435 -178.990371963534 0.00592924092068077 -179.846564092063 0.00592924092068078 -179.846564092063 0.961462909282888 -179.375028708639 
14.95                          0.961544634195645 -179.993162638279 0.00615028105541605 -179.850167451993 0.00615028105541605 -179.850167451994 0.960507871860151 179.59683426635  
15                             0.960592727200812 178.992852554931 0.00638881993084226 -179.842554967145 0.00638881993084226 -179.842554967145 0.959509169056367 178.556870464155 
15.05                          0.95959697971407 177.967162325577 0.00664666970432878 -179.826033523327 0.00664666970432879 -179.826033523327 0.958463720497014 177.504534757962 
15.1                           0.95855427322213 176.929220146951 0.00692585438237396 -179.803174475019 0.00692585438237396 -179.803174475019 0.957368154129701 176.439243844914 
15.15                          0.957461191050467 175.878441164002 0.00722863720751355 -179.776818275601 0.00722863720751355 -179.776818275601 0.956218771468921 175.360372837015 
15.2                           0.956313982412032 174.814198769127 0.00755755206906363 -179.750076665989 0.00755755206906363 -179.750076665989 0.955011507830601 174.267251479061 
15.25                          0.955108521201387 173.735820804246 0.00791543962788963 -179.726332369366 0.00791543962788963 -179.726332369366 0.953741886707741 173.15915994585  
15.3                           0.953840258630555 172.642585341767 0.00830548898002386 -179.709236360798 0.00830548898002387 -179.709236360798 0.9524049672734  172.035324164101 
15.35                          0.952504168624372 171.533715990447 0.00873128584667936 -179.702702920001 0.00873128584667936 -179.702702920001 0.950995283796067 170.894910596748 
15.4                           0.951094684674807 170.408376664718 0.00919686847514956 -179.710902828842 0.00919686847514959 -179.710902828841 0.949506775506321 169.737020418367 
15.45                          0.949605626586059 169.26566574763  0.00970679267380882 -179.7382552367  0.00970679267380885 -179.7382552367  0.947932705151643 168.560683000377 
15.5                           0.948030115212658 168.104609568074 0.0102662076943189 -179.789418880101 0.0102662076943189 -179.789418880101 0.946265564104115 167.36484861316  
15.55                          0.946360472885809 166.924155102531 0.0108809450268537 -179.869283501632 0.0108809450268538 -179.869283501632 0.944496961425908 166.148380239392 
15.6                           0.944588106718731 165.723161800048 0.0115576226041687 -179.982962461261 0.0115576226041688 -179.982962461261 0.942617493727112 164.910044378539 
15.65                          0.942703371354521 164.500392416987 0.0123037674356566 179.864212333478 0.0123037674356566 179.864212333478 0.940616591940707 163.648500706899 
15.7                           0.940695406937459 163.25450273537  0.0131279603354766 179.666691935454 0.0131279603354766 179.666691935454 0.938482340253466 162.362290440971 
15.75                          0.93855194710955 161.984030026459 0.0140400071969588 179.418706960578 0.0140400071969589 179.418706960578 0.936201261321927 161.049823235013 
15.8                           0.936259090605431 160.687380110507 0.015051142232588 179.114257853109 0.0150511422325879 179.114257853109 0.93375806050915 159.70936242767  
15.85                          0.933801028473602 159.3628128568   0.0161742697860005 178.747097297902 0.0161742697860005 178.747097297902 0.931135320123714 158.339008439476 
15.9                           0.931159717004914 158.008425968447 0.0174242527787452 178.310703174282 0.0174242527787452 178.310703174282 0.928313132429687 156.936680116476 
15.95                          0.928314483993535 156.622136909546 0.0188182576375678 177.798240337936 0.0188182576375678 177.798240337936 0.925268657401814 155.500093820789 
16                             0.925241552857924 155.201662867082 0.0203761677226978 177.20250937489  0.0203761677226978 177.20250937489  0.921975587670107 154.026740095833 
16.05                          0.921913465247856 153.744498710091 0.0221210799131672 176.515880279485 0.0221210799131673 176.515880279485 0.918403498643859 152.513857796807 
16.1                           0.918298377866844 152.247893036186 0.0240799021669404 175.730208750626 0.0240799021669404 175.730208750626 0.914517056202455 150.9584056993   
16.15                          0.914359203134468 150.708822614725 0.0262840736068154 174.836732464477 0.0262840736068154 174.836732464478 0.910275047335391 149.357031817484 
16.2                           0.91005255578728 149.123965900765 0.0287704329814377 173.825944260041 0.0287704329814377 173.825944260041 0.905629190445597 147.706041037245 
16.25                          0.905327458411244 147.489676889426 0.0315822660987363 172.687438670727 0.0315822660987363 172.687438670727 0.900522671486281 146.001362292204 
16.3                           0.900123748219712 145.801961540136 0.0347705676980699 171.409727675164 0.0347705676980699 171.409727675164 0.894888339637419 144.23851753047  
16.35                          0.894370115536416 144.056460535371 0.0383955574932243 169.980020986402 0.0383955574932244 169.980020986402 0.888646482209474 142.412596374125 
16.4                           0.887981692632912 142.248444581555 0.0425284923464682 168.383965778727 0.0425284923464682 168.383965778727 0.881702084133659 140.51824303956  
16.45                          0.880857102660479 140.372832334648 0.0472538140429643 166.605340708797 0.0472538140429644 166.605340708797 0.87394146577329 138.549666367958 
16.5                           0.87287487839381 138.424247161259 0.052671660104758 164.625699862837 0.0526716601047581 164.625699862837 0.865228190295456 136.50069067258  
16.55                          0.863889181178992 136.397138606226 0.058900735106815 162.423964626232 0.0589007351068151 162.423964626232 0.855398151300223 134.364876068416 
16.6                           0.853724814223202 134.286009586375 0.0660814777824346 159.975966744647 0.0660814777824346 159.975966744647 0.844253817324355 132.13575440822  
16.65                          0.842171672151126 132.085813879568 0.0743793414466541 157.253956218257 0.0743793414466542 157.253956218257 0.831557767481178 129.807254610966 
16.7                           0.828979073073448 129.792624537776 0.0839877951922984 154.22610666113  0.0839877951922986 154.22610666113  0.817025982687459 127.374434572104 
16.75                          0.81385100305917 127.404727637185 0.0951302969933657 150.856083740581 0.0951302969933658 150.856083740581 0.800321998195016 124.834703777803 
16.8                           0.796444360858078 124.924372320163 0.108059917152991 147.102796850267 0.108059917152991 147.102796850267 0.781054199421654 122.18982083505  
16.85                          0.776374099593031 122.360507601469 0.123054432882609 142.920539347565 0.123054432882609 142.920539347565 0.758780582522923 119.449091577968 
16.9                           0.753232027396616 119.732941401901 0.140403565982617 138.259845460843 0.140403565982617 138.259845460843 0.733028596897718 116.63437171347  
16.95                          0.726630044452318 117.078401307374 0.16038380231468 133.069546670237 0.160383802314679 133.069546670237 0.703342470931663 113.787644576853 
17                             0.696282960900712 114.458778117894 0.183215626520645 127.300655470797 0.183215626520645 127.300655470797 0.669376082296572 110.981930152009 
17.05                          0.662147598080564 111.970979985721 0.208999648214965 120.91272357567  0.208999648214964 120.91272357567  0.631052957174609 108.335629167573 
17.1                           0.6246258451569  109.755548264432 0.237634642307674 113.882985503564 0.237634642307674 113.882985503564 0.588808301474818 106.028069418167 
17.15                          0.584806137692698 107.996507423223 0.268734410962786 106.217598816    0.268734410962786 106.217598816    0.543895402858573 104.308044965225 
17.2                           0.544647463924427 106.898020268999 0.301579637412356 97.9624893599739 0.301579637412355 97.9624893599738 0.498659789444132 103.475338742184 
17.25                          0.506916036784723 106.619976990609 0.335153109745912 89.2092665432168 0.335153109745912 89.2092665432167 0.456555009791026 103.800837345492 
17.3                           0.474654724294199 107.171697249785 0.3682898578561  80.0910588353698 0.3682898578561  80.0910588353697 0.421567767627168 105.359723571503 
17.35                          0.450166763096445 108.317272422783 0.399917063410773 70.7658831228164 0.399917063410772 70.7658831228163 0.396880759761135 107.840556794997 
17.4                           0.433970398052437 109.597183551361 0.429292199600171 61.3910913534661 0.42929219960017 61.391091353466  0.383297180805093 110.53704076825  
17.45                          0.42448208856828 110.505154899305 0.456132495118561 52.0977051974104 0.456132495118561 52.0977051974104 0.378668519936336 112.656288920957 
17.5                           0.418708098844282 110.693700365364 0.480588993146647 42.9735903940592 0.480588993146647 42.9735903940591 0.378941322375781 113.697005096187 
17.55                          0.413373554245401 110.053156466679 0.503103695069008 34.059317280495  0.503103695069008 34.0593172804949 0.379862317312019 113.559449211384 
17.6                           0.405751384227855 108.660543762159 0.524229987344225 25.3545684555185 0.524229987344224 25.3545684555184 0.378095938109556 112.412486934761 
17.65                          0.393963420129038 106.693245228986 0.544480716400925 16.8300334210962 0.544480716400924 16.8300334210961 0.371501240025413 110.531839931051 
17.7                           0.376939957964452 104.373136111875 0.564229447969994 8.44022273659281 0.564229447969993 8.44022273659273 0.358960062433878 108.214296984092 
17.75                          0.354279837490253 101.953431445162 0.583661842940861 0.134614415712798 0.58366184294086 0.134614415712733 0.340125135451669 105.762698589121 
17.8                           0.326153307085034 99.7405157083366 0.602764378687796 -8.13370821767012 0.602764378687796 -8.13370821767016 0.315256667597534 103.514466290649 
17.85                          0.293305980322759 98.1469223496443 0.62133992951858 -16.4018630983838 0.621339929518579 -16.4018630983839 0.285194351014375 101.900947551529 
17.9                           0.257195235064347 97.7810211184456 0.639045036756593 -24.69315189972  0.639045036756593 -24.69315189972  0.251480861732403 101.539861963483 
17.95                          0.220310337915074 99.5730347231093 0.655446539345111 -33.0150863976008 0.65544653934511 -33.0150863976008 0.216675153383187 103.356978212548 
18                             0.186737798307728 104.836160591212 0.670093697569584 -41.3594884530334 0.670093697569584 -41.3594884530333 0.184899044192898 108.628751977563 
18.05                          0.162689266051027 114.727590409736 0.682596961912846 -49.7046808880752 0.682596961912846 -49.7046808880751 0.162305228977071 118.420065918056 
18.1                           0.155136877183833 128.194452636598 0.692699280342532 -58.0195401023585 0.692699280342533 -58.0195401023584 0.155665645266931 131.614971520749 
18.15                          0.166500171619631 140.809657227269 0.700324334318443 -66.2687927910241 0.700324334318444 -66.2687927910241 0.167304414641232 143.947772408362 
18.2                           0.19186890585432 148.972937222993 0.705590777014556 -74.4186113711634 0.705590777014557 -74.4186113711634 0.192579605649005 152.004233638853 
18.25                          0.224033637341475 152.582543076786 0.708791156217096 -82.441492971979 0.708791156217096 -82.441492971979 0.224611734802947 155.674117227961 
18.3                           0.257656288272196 152.949062320099 0.710344235412503 -90.3196565124615 0.710344235412503 -90.3196565124614 0.258232881556343 156.206401057969 
18.35                          0.2895568696905  151.231872723969 0.710735198484182 -98.0466474297003 0.710735198484183 -98.0466474297003 0.290324400536947 154.727206650663 
18.4                           0.317964729256032 148.186767811048 0.710457947624536 -105.627295740764 0.710457947624536 -105.627295740764 0.319135923024096 151.98305997788  
18.45                          0.341944879226445 144.270763926823 0.709969012425463 -113.076467527462 0.709969012425463 -113.076467527462 0.34374200043142 148.433852676627 
18.5                           0.361060378978585 139.754614530411 0.709656655873137 -120.417134697159 0.709656655873137 -120.417134697159 0.363715622612366 144.359617694272 
18.55                          0.375175930935576 134.795585319829 0.709824120860971 -127.678213466353 0.709824120860971 -127.678213466353 0.378935766602251 139.931299123926 
18.6                           0.384341400327092 129.480355913407 0.710683567461576 -134.892475597886 0.710683567461575 -134.892475597886 0.389472078704072 135.253299835591 
18.65                          0.388724221998916 123.849972321615 0.712356815746484 -142.094690469409 0.712356815746483 -142.094690469409 0.395516990355785 130.388813147899 
18.7                           0.388574532359288 117.91431516731  0.714879742657454 -149.320049241643 0.714879742657453 -149.320049241643 0.397349286468658 125.375026968982 
18.75                          0.384213668295532 111.660237639648 0.71820834771796 -156.602864499029 0.71820834771796 -156.602864499029 0.395319367347129 120.232156964652 
18.8                           0.376039962630442 105.055631637972 0.722225616032106 -163.975523218772 0.722225616032106 -163.975523218772 0.389849261307424 114.968366275405 
18.85                          0.364547470856015 98.050699275035  0.726749106984192 -171.467684949005 0.726749106984192 -171.467684949005 0.381441636913374 109.581506278432 
18.9                           0.350354147835586 90.577350331065  0.731539551842805 -179.105746120936 0.731539551842805 -179.105746120936 0.370692404606197 104.057937577934 
18.95                          0.334236348227745 82.5479049966334 0.736310586592057 173.087380013458 0.736310586592057 173.087380013458 0.358301525213613 98.368347305224  
19                             0.31716627696501 73.8553983600605 0.740739076156097 165.09210720057  0.740739076156097 165.09210720057  0.345077031035408 92.4605513788403 
19.05                          0.300347368407735 64.3801100241229 0.744474422563332 156.891607143107 0.744474422563331 156.891607143107 0.331928931172237 86.2500280100246 
19.1                           0.285237440082562 54.0102297083292 0.74714410832222 148.470865182703 0.747144108322219 148.470865182703 0.319853518093577 79.6107275288396 
19.15                          0.273538092251494 42.6858453069306 0.74835205540243 139.815529600845 0.748352055402428 139.815529600845 0.309914541851505 72.3716178050684 
19.2                           0.267113407762142 30.466016157102  0.747666913201196 130.910904593591 0.747666913201194 130.910904593591 0.303232834858049 64.3274748716688 
19.25                          0.267801255060121 17.5888033935661 0.744599913270745 121.741641603341 0.744599913270742 121.741641603341 0.300992765511665 55.2727236859453 
19.3                           0.277131374573739 4.46053341370147 0.738577086930572 112.292859888304 0.738577086930569 112.292859888304 0.304453060045194 45.0601512956714 
19.35                          0.29605406104471 -8.46397169494142 0.728918567243075 102.553483314522 0.728918567243071 102.553483314522 0.314912638068507 33.6693906093806 
19.4                           0.324798748824716 -20.844917239228 0.714847126918465 92.5223623615293 0.714847126918462 92.5223623615295 0.333559084487131 21.2503057481547 
19.45                          0.362862165503623 -32.5428702363661 0.695554613511197 82.2170428392669 0.695554613511195 82.217042839267  0.361167614039346 8.10578749615545 
19.5                           0.409027530609709 -43.5840056580572 0.670349231563937 71.6836834108829 0.670349231563936 71.683683410883  0.397728970087782 -5.38553622820218 
19.55                          0.461379656255364 -54.065116259905 0.638877125108845 61.0048297865915 0.638877125108845 61.0048297865916 0.442183019435943 -18.8598510494205 
19.6                           0.517400483699139 -64.0710498546028 0.60135763889611 50.3005282017696 0.60135763889611 50.3005282017696 0.492424962919374 -32.0220384750631 
19.65                          0.574241763126111 -73.6357281009669 0.55872178562576 39.7192314095373 0.55872178562576 39.7192314095372 0.545633925446163 -44.6542614702306 
19.7                           0.629156610610187 -82.7429270398459 0.512551517412389 29.418923984039  0.512551517412389 29.4189239840386 0.598822731305866 -56.6032712828137 
19.75                          0.679938966945378 -91.3489052049498 0.464808534509637 19.5440427695918 0.464808534509637 19.5440427695913 0.649401658548596 -67.7684221914233 
19.8                           0.725193569155487 -99.408638261618 0.417459268189411 10.2062608076984 0.41745926818941 10.2062608076979 0.695552608546275 -78.09556111332  
19.85                          0.764359433588486 -106.894042738279 0.372150453173279 1.47491249963285 0.372150453173276 1.47491249963219 0.736325487273467 -87.5723867268752 
19.9                           0.79754095028662 -113.800903345435 0.330035983734537 -6.6222400995506 0.330035983734533 -6.62224009955125 0.771508415917132 -96.2213858774978 
19.95                          0.825262963594087 -120.147062293993 0.291761345594604 -14.0912310944756 0.2917613455946  -14.0912310944762 0.801393545767746 -104.090253034541 
20                             0.848246804458686 -125.96631621568 0.257550013346664 -20.9615050917981 0.25755001334666 -20.9615050917986 0.826545582095505 -111.241839371434 
20.05                          0.867251690421239 -131.301604094512 0.227326846461943 -27.2761803481146 0.227326846461939 -27.276180348115 0.847627522511741 -117.745565596766 
20.1                           0.882983711315145 -136.199379827344 0.200834408980104 -33.0844944272467 0.2008344089801  -33.084494427247 0.865292848870888 -123.671184195046 
20.15                          0.896055451836628 -140.705719374767 0.177723009951318 -38.4366782737866 0.177723009951315 -38.4366782737868 0.88013076977781 -129.084863199509 
20.2                           0.906976722337837 -144.863998318303 0.157611881662047 -43.3808659351325 0.157611881662044 -43.3808659351326 0.892646060689994 -134.047109920711 
20.25                          0.916161332694402 -148.713734156863 0.140126477560251 -47.9614731233072 0.140126477560249 -47.9614731233072 0.903258221885572 -138.611961133369 
20.3                           0.923940390073297 -152.290190874018 0.124918678746057 -52.2185329395851 0.124918678746055 -52.218532939585 0.91230975148956 -142.826952552572 
20.35                          0.930576920900245 -155.624433615   0.111675891213235 -56.1876044585276 0.111675891213233 -56.1876044585273 0.92007760848288 -146.733515777192 
20.4                           0.936279372634454 -158.743620424624 0.100123468947841 -59.8999942940154 0.10012346894784 -59.8999942940152 0.926784820314295 -150.367573736637 
20.45                          0.941213095234326 -161.671397667132 0.0900234430658947 -63.3831277640117 0.0900234430658938 -63.3831277640114 0.932610891425847 -153.760197402371 
20.5                           0.94550967481023 -164.428321507507 0.0811714276444619 -66.6609730193156 0.081171427644461 -66.6609730193153 0.937700578938831 -156.938248029719 
20.55                          0.949274327236055 -167.032263763068 0.0733928114758732 -69.7544645277581 0.0733928114758728 -69.7544645277579 0.94217104078274 -159.924967536705 
20.6                           0.952591668893247 -169.498782241753 0.0665388556156461 -72.6818986584145 0.0665388556156458 -72.6818986584142 0.946117543631344 -162.740502141   
20.65                          0.955530185504906 -171.841448237195 0.0604830167772301 -75.4592895561744 0.0604830167772299 -75.4592895561742 0.949617970426541 -165.402356810677 
20.7                           0.958145681382702 -174.072130662808 0.0551176404014031 -78.1006821369934 0.0551176404014031 -78.1006821369932 0.952736360209477 -167.925784418424 
20.75                          0.960483941140107 -176.201239703892 0.0503510681120377 -80.6184235773247 0.0503510681120379 -80.6184235773247 0.955525682766112 -170.32411628908 
20.8                           0.962582787604071 -178.237934310499 0.0461051516598503 -83.0233968263136 0.0461051516598504 -83.0233968263137 0.95803001479267 -172.609041677152 
20.85                          0.964473678279957 179.809701770194 0.0423131400467872 -85.325220480151 0.0423131400467873 -85.3252204801512 0.960286250597045 -174.790843542801 
20.9                           0.966182949294744 177.934510894904 0.0389178965004172 -87.5324194460688 0.0389178965004173 -87.5324194460691 0.96232545155995 -176.878597350498 
20.95                          0.967732789602919 176.130135254195 0.0358704002722788 -89.6525705502801 0.0358704002722791 -89.6525705502805 0.964173915173889 -178.880338792919 
21                             0.969142008185619 174.390909837681 0.0331284907469789 -91.6924268143024 0.0331284907469791 -91.6924268143028 0.965854025986138 179.196794499013 
21.05                          0.970426641759225 172.711771554012 0.0306558157268855 -93.6580236494029 0.0306558157268857 -93.6580236494035 0.967384936405352 177.346442983896 
21.1                           0.971600439035967 171.088181900032 0.0284209507129429 -95.5547697572692 0.028420950712943 -95.5547697572699 0.968783114277611 175.562923395532 
21.15                          0.972675248949333 169.516060993185 0.0263966608638997 -97.3875251036155 0.0263966608638999 -97.3875251036163 0.970062785676957 173.841142106089 
21.2                           0.973661333768307 167.991731142411 0.0245592817648068 -99.1606679605027 0.024559281764807 -99.1606679605034 0.971236294893293 172.176521193094 
21.25                          0.974567623139055 166.511868438297 0.0228881990477475 -100.878152693819 0.0228881990477477 -100.878152693819 0.972314398665277 170.564935160028 
21.3                           0.975401921405374 165.073461098939 0.0213654102648389 -102.543559701353 0.0213654102648389 -102.543559701354 0.973306507931535 169.002656611552 
21.35                          0.976171077766923 163.673773520541 0.0199751552491921 -104.16013867898 0.0199751552491922 -104.160138678981 0.974220887479964 167.486309474395 
21.4                           0.976881126711451 162.310315157826 0.0187036035700195 -105.7308462019  0.0187036035700196 -105.730846201901 0.975064821649591 166.012828593861 
21.45                          0.977537404536467 160.980813504739 0.0175385896562833 -107.258378449106 0.0175385896562833 -107.258378449107 0.975844752521717 164.579424732557 
21.5                           0.978144646532447 159.683190566032 0.0164693877903672 -108.745199767213 0.0164693877903673 -108.745199767214 0.97656639570579 163.183554159722 
21.55                          0.978707068441463 158.415542309491 0.0154865205148094 -110.193567660033 0.0154865205148094 -110.193567660033 0.977234837789088 161.822892152881 
21.6                           0.97922843506276 157.176120670544 0.0145815950997419 -111.605554699102 0.0145815950997419 -111.605554699103 0.977854618709098 160.495309843445 
21.65                          0.979712118298989 155.963317748868 0.0137471636277956 -112.983067774448 0.0137471636277956 -112.983067774449 0.978429801671028 159.198853928744 
21.7                           0.98016114648466 154.775651892883 0.0129766030016019 -114.327865041701 0.0129766030016019 -114.327865041701 0.978964032730676 157.931728848194 
21.75                          0.980578246482848 153.611755414856 0.0122640117955516 -115.641570868861 0.0122640117955516 -115.641570868862 0.979460591764822 156.69228108373  
21.8                           0.980965879755201 152.470363718264 0.0116041213819532 -116.925689041933 0.0116041213819532 -116.925689041933 0.979922436234221 155.478985296552 
21.85                          0.981326273387192 151.350305651659 0.010992219181707 -118.181614451573 0.010992219181707 -118.181614451573 0.980352238890701 154.290432055583 
21.9                           0.981661446872446 150.250494930548 0.0104240822370569 -119.410643451813 0.0104240822370569 -119.410643451813 0.980752420376017 153.125316949239 
21.95                          0.98197323531721 149.16992249166  0.00989591959194349 -120.613983055624 0.0098959195919435 -120.613983055624 0.981125177495664 151.982430902498 
22                             0.98226330961101 148.107649663259 0.00940432220461331 -121.792759109878 0.00940432220461335 -121.792759109877 0.98147250781749 150.860651546797 
22.05                          0.982533194016444 147.062802051451 0.00894621931611326 -122.94802357337 0.0089462193161133 -122.948023573369 0.981796231136458 149.758935511815 
22.1                           0.9827842815554  146.03456405615  0.0085188403642176 -124.080761005482 0.00851884036421763 -124.080761005481 0.982098008258179 148.676311526393 
22.15                          0.983017847507238 145.022173942092 0.00811968167096969 -125.191894359295 0.00811968167096975 -125.191894359295 0.982379357481095 147.611874231284 
22.2                           0.983235061283804 144.024919400221 0.00774647724812075 -126.282290161136 0.00774647724812082 -126.282290161135 0.982641669097194 146.564778619509 
22.25                          0.983436996904495 143.042133543224 0.0073971731621744 -127.35276314835 0.00739717316217448 -127.352763148349 0.982886218181618 145.534235031283 
22.3                           0.983624642260123 142.07319128628  0.00706990498268813 -128.404080428287 0.00706990498268822 -128.404080428285 0.983114175900361 144.519504639987 
22.35                          0.983798907325758 141.117506070284 0.00676297790654106 -129.436965213833 0.00676297790654115 -129.436965213832 0.983326619530998 143.519895373859 
22.4                           0.983960631458927 140.174526890153 0.00647484920920955 -130.452100184156 0.00647484920920965 -130.452100184154 0.983524541362785 142.534758225046 
22.45                          0.984110589899666 139.243735595437 0.00620411272345937 -131.450130513512 0.00620411272345948 -131.450130513511 0.983708856618424 141.563483903707 
22.5                           0.984249499572235 138.324644434415 0.00594948508773886 -132.431666605896 0.00594948508773894 -132.431666605895 0.98388041051965 140.60549980007  
22.55                          0.984378024274275 137.416793816327 0.00570979354214249 -133.397286568793 0.00570979354214261 -133.397286568791 0.984039984601721 139.660267221802 
22.6                           0.984496779327339 136.519750269335 0.00548396508012241 -134.34753845542 0.00548396508012251 -134.347538455418 0.984188302367497 138.727278877964 
22.65                          0.984606335752674 135.633104574454 0.00527101678998411 -135.282942301328 0.00527101678998419 -135.282942301328 0.984326034359549 137.806056584208 
22.7                           0.984707224027658 134.756470057903 0.00507004724231205 -136.20399197824 0.00507004724231213 -136.203991978238 0.984453802718329 136.89614916679  
22.75                          0.984799937470953 133.889481026345 0.00488022879840965 -137.111156885224 0.00488022879840973 -137.111156885223 0.984572185285535 135.997130545547 
22.8                           0.984884935298308 133.031791331178 0.0047008007310901 -138.004883495023 0.00470080073109019 -138.004883495022 0.984681719304199 135.108597978216 
22.85                          0.984962645385571 132.183073049575 0.00453106306312841 -138.88559677117 0.00453106306312848 -138.885596771169 0.984782904760501 134.230170450436 
22.9                           0.985033466770927 131.343015271287 0.00437037104072186 -139.753701469719 0.00437037104072189 -139.753701469718 0.984876207406685 133.361487197491 
22.95                          0.985097771924441 130.511322981397 0.00421813016969049 -140.609583337746 0.00421813016969052 -140.609583337746 0.984962061499639 132.502206345349 
23                             0.98515590880957 129.687716030255 0.00407379175112702 -141.453610219375 0.00407379175112702 -141.453610219375 0.985040872285462 131.652003659884 
