! Touchstone file exported from HFSS 3D Layout Design 2026.1.0
!        File:           D:/Work/ADS/HFSS_VERDICT/hfss_sma_connector_cpw.aedt
!        Generated:      07:36:54 PM Aug  5, 2026
!        Design:         SINGLE_END_SMA_CPW_30MM
!        Project:        hfss_sma_connector_cpw
!
! Variables:
!        $sma_Base_D = 6.25mm
!        $sma_Base_L = 8mm
!        $sma_Feet_L = 4mm
!        $sma_Feet_W = 1mm
!        $sma_Front_L = 1.5mm
!        $sma_Front_W = 6.5mm
!        $sma_Hole_D = 1.25mm
!        $sma_PTFE_D = 4.2mm
!        $sma_Pin_D = 0.95mm
!        $sma_Pin_P = 1.7mm
!
# GHz S MA R 50.000000
! Terminal data exported
! Port[1] = Port1
! Port[2] = S1_1_Pin_T1
0.5                            0.0840033735133693 -135.034007725472 0.986257271694093 -42.187347652851 0.986257271694094 -42.187347652851 0.0844637206911857 -131.148638511751 
0.6                            0.0974175640389019 -144.030803847475 0.983446117355478 -50.5079446160008 0.983446117355478 -50.5079446160009 0.0978450988848722 -139.142934817162 
0.7                            0.109265549941458 -153.021072983642 0.980684372287716 -58.8027656797845 0.980684372287714 -58.8027656797846 0.109611522175407 -146.977435538305 
0.8                            0.119421108182377 -162.034674062216 0.978030298698209 -67.0741077181225 0.978030298698208 -67.0741077181226 0.119645751510518 -154.652585981136 
0.9                            0.127787218952116 -171.10216649179 0.975541313211722 -75.3248985987532 0.975541313211721 -75.3248985987532 0.127860356850381 -162.160833752683 
1                              0.134296115049732 179.74374741673  0.973265885152159 -83.558739145116 0.973265885152158 -83.558739145116 0.134198912529245 -169.487131837804 
1.1                            0.138910397291673 170.466503527358 0.97123898234189 -91.7797486669413 0.971238982341889 -91.7797486669414 0.138637845680236 -176.608623882457 
1.2                            0.141624739593805 161.023651607192 0.969479809184033 -99.9923530148021 0.969479809184033 -99.9923530148022 0.141188598381206 176.506448122047 
1.3                            0.142468261697052 151.364409725537 0.967990977941002 -108.201059797334 0.967990977941003 -108.201059797334 0.141900363724282 169.900656273786 
1.4                            0.141507952630551 141.426598852462 0.966758677322799 -116.410235314357 0.966758677322799 -116.410235314357 0.140863934576404 163.630158915397 
1.5                            0.138853710378901 131.132721742453 0.965753648792817 -124.623890644098 0.965753648792817 -124.623890644098 0.138217328599535 157.768311639312 
1.6                            0.134665723382713 120.385010662585 0.964932890570272 -132.845484185069 0.964932890570273 -132.845484185069 0.134153914560033 152.409878796627 
1.7                            0.129165092679034 109.059577041284 0.964242038636475 -141.077749126721 0.964242038636476 -141.077749126721 0.128933728549219 147.675007373664 
1.8                            0.122648679362076 97.0007256364144 0.963618359765138 -149.322555010792 0.96361835976514 -149.322555010792 0.122898277575587 143.710713392077 
1.9                            0.115508721215033 84.018838800536  0.962994253913097 -157.580812262716 0.962994253913099 -157.580812262716 0.116487677441563 140.684762520113 
2                              0.108255550117849 69.9002754391784 0.962301114260868 -165.852427220456 0.962301114260869 -165.852427220456 0.110255010147636 138.762201664571 
2.1                            0.101535078179007 54.4460259398056 0.961473342441277 -174.136312782029 0.961473342441278 -174.136312782029 0.104864445344884 138.050940105426 
2.2                            0.0961183580139667 37.5614086714453 0.960452273953538 177.569543560963 0.960452273953539 177.569543560963 0.101048077002867 138.510384040497 
2.3                            0.0928228683710965 19.397471214706  0.959189744644081 169.267956600386 0.959189744644082 169.267956600386 0.0994947660983817 139.854417097915 
2.4                            0.0923350621780849 0.464365306528135 0.957651032275302 160.962371873117 0.957651032275303 160.962371873117 0.1006801194488  141.53698875259  
2.5                            0.0949861694129811 -18.4411016179588 0.955816942631553 152.656656540476 0.955816942631554 152.656656540476 0.104719123729359 142.895477346484 
2.6                            0.100634893615616 -36.5307253108948 0.953684876495917 144.354866875447 0.953684876495918 144.354866875447 0.111346227648792 143.382228954829 
2.7                            0.108756894893068 -53.3127043532363 0.951268804721562 136.061008579832 0.951268804721561 136.061008579832 0.120033884092522 142.709875278032 
2.8                            0.118653894794511 -68.6517578711975 0.948598180543662 127.778806526818 0.948598180543663 127.778806526818 0.13015573495834 140.838622510155 
2.9                            0.129631153253349 -82.6508331101828 0.945715915529022 119.511499175692 0.945715915529022 119.511499175692 0.141106655408966 137.879571004222 
3                              0.141084867045337 -95.5113917897297 0.942675623389504 111.261670062568 0.942675623389505 111.261670062568 0.152359526562809 134.002885792596 
3.1                            0.152522856139008 -107.446776975857 0.939538383881777 103.031124898853 0.939538383881776 103.031124898853 0.163478989947985 129.382832175189 
3.2                            0.163555353576592 -118.645653047214 0.936369293151662 94.8208185003006 0.936369293151663 94.8208185003006 0.174115463797295 124.173950365958 
3.3                            0.173877892273498 -129.263163748116 0.933234049696302 86.6308316142978 0.933234049696303 86.6308316142978 0.183993192951858 118.504771770126 
3.4                            0.183255034141428 -139.423517546121 0.930195784225093 78.4603941875387 0.930195784225094 78.4603941875387 0.192898218660928 112.479284510699 
3.5                            0.191507201657352 -149.225886838291 0.927312287320518 70.3079490139777 0.927312287320519 70.3079490139777 0.200668109211441 106.181002763666 
3.6                            0.198500561557019 -158.750376985639 0.924633731187594 62.1712481198338 0.924633731187593 62.1712481198338 0.207183696003127 99.6773939010799 
3.7                            0.204139360928266 -168.063061904822 0.922200929253668 54.047473605651  0.922200929253668 54.047473605651  0.212362583439099 93.0238549968838 
3.8                            0.208360143203703 -177.219962822841 0.920044135280979 45.9333747891826 0.920044135280979 45.9333747891826 0.216154138503949 86.2670513540004 
3.9                            0.211127424110161 173.729865109109 0.918182354217195 37.8254141398943 0.918182354217196 37.8254141398943 0.21853571970884 79.4476638521499 
4                              0.212430546726183 164.741914221686 0.916623119877079 29.7199154305827 0.916623119877081 29.7199154305826 0.219509970567994 72.6026602551361 
4.1                            0.212281533329153 155.774266695828 0.915362687600858 21.6132085564786 0.91536268760086 21.6132085564786 0.219103052213485 65.7672090243274 
4.2                            0.210713815790054 146.785926227757 0.914386590249786 13.5017664464392 0.914386590249787 13.5017664464393 0.217363721551844 58.9763344696673 
4.3                            0.20778176824111 137.735301866172 0.913670510069282 5.38233033396568 0.913670510069284 5.38233033396574 0.214363180072897 52.2663838221789 
4.4                            0.203560996186775 128.578737316868 0.913181424191005 -2.74797965861291 0.913181424191007 -2.74797965861283 0.21019562737826 45.6763418710614 
4.5                            0.19814936203397 119.26900952231  0.912878985601465 -10.8915711257588 0.912878985601468 -10.8915711257588 0.204979451757726 39.2489819796948 
4.6                            0.19166875042887 109.753761049299 0.912717102798764 -19.0503052316643 0.912717102798766 -19.0503052316643 0.198858970093229 33.0317730422537 
4.7                            0.184267593103756 99.9739000977705 0.912645679432212 -27.2254434629471 0.912645679432215 -27.2254434629471 0.192006573444397 27.0773549046663 
4.8                            0.17612416481476 89.862131567818  0.912612470101477 -35.4176165095544 0.91261247010148 -35.4176165095544 0.184625010899684 21.4432322293642 
4.9                            0.167450587853883 79.3420244504983 0.91256500101206 -43.6268160095621 0.912565001012062 -43.6268160095621 0.176949302871786 16.1901088367134 
5                              0.158497257296066 68.3284479151217 0.912452495728661 -51.8524093002042 0.912452495728663 -51.8524093002042 0.169247354123846 11.3780177443626 
5.1                            0.149556870039182 56.7308874102965 0.912227738578133 -60.0931766156505 0.912227738578136 -60.0931766156505 0.161817697830548 7.05922012921765 
5.2                            0.140966189060843 44.4620268314856 0.91184880316752 -68.3473693802797 0.911848803167517 -68.3473693802799 0.154982029762337 3.2670590413454  
5.3                            0.133101936638016 31.4545712677979 0.911280572643096 -76.612787407937 0.911280572643097 -76.612787407937 0.14906968312259 0.00108926238860351 
5.4                            0.126365117938273 17.6881876749208 0.910495982881243 -84.886871995855 0.910495982881243 -84.8868719958551 0.144391837865753 -2.78866721118977 
5.5                            0.12114733405744 3.22330090598773 0.909476930208406 -93.1668111699476 0.909476930208405 -93.1668111699477 0.141206205512638 -5.21205062722457 
5.6                            0.117776842926578 -11.771665308185 0.908214801085574 -101.449652768546 0.908214801085572 -101.449652768546 0.139678391459425 -7.43554862575414 
5.7                            0.116454152736859 -27.0219372364913 0.906710601222534 -109.732420704356 0.906710601222534 -109.732420704356 0.139851587146355 -9.66089016622125 
5.8                            0.117201745306671 -42.1921892675082 0.904974683913347 -118.01222965702 0.904974683913346 -118.012229657021 0.141636708052214 -12.0901121767377 
5.9                            0.119854639894093 -56.9630931443941 0.903026099753461 -126.286393630363 0.903026099753461 -126.286393630363 0.144827787234747 -14.8905334657104 
6                              0.124098489633697 -71.0994240396084 0.900891610065583 -134.552524238562 0.900891610065581 -134.552524238562 0.149136466848641 -18.1731358420411 
6.1                            0.129535139106703 -84.4779555406456 0.898604422443215 -142.808615218067 0.898604422443214 -142.808615218067 0.154232782250149 -21.9891467999149 
6.2                            0.135746478822324 -97.0748207274848 0.896202717571003 -151.053110432849 0.896202717571004 -151.053110432849 0.159780705333538 -26.3402611030256 
6.3                            0.142338715693895 -108.933236140269 0.893728041428778 -159.284953478208 0.893728041428779 -159.284953478208 0.165462843863999 -31.1943743560655 
6.4                            0.148964784580064 -120.131381423732 0.891223636430156 -167.503617824083 0.891223636430154 -167.503617824083 0.170994216669536 -36.5004978667305 
6.5                            0.155330989827637 -130.759382297806 0.888732779920591 -175.709117215829 0.888732779920586 -175.709117215829 0.176127800228131 -42.1999650777895 
6.6                            0.161195017111197 -140.905989037015 0.886297190112545 176.098003270619 0.886297190112543 176.098003270619 0.180654975973981 -48.2335865578915 
6.7                            0.16636039786388 -150.652298437106 0.883955549479875 167.916694560596 0.883955549479874 167.916694560596 0.184403343965011 -54.5455626274682 
6.8                            0.170670242674434 -160.069681592725 0.881742185308955 159.745447896409 0.881742185308953 159.745447896409 0.187233505668329 -61.085184711964 
6.9                            0.174001522956864 -169.219885443992 0.879685937691291 151.582354389915 0.879685937691288 151.582354389915 0.189035732145629 -67.8071787246201 
7                              0.176260344741667 -178.156095687259 0.877809237538606 143.425177794444 0.877809237538606 143.425177794444 0.189726986425902 -74.6712787100531 
7.1                            0.177378269881489 173.075678785064 0.876127411563739 135.271438248004 0.876127411563737 135.271438248004 0.189248507566564 -81.6413919773447 
7.2                            0.177309586412426 164.435198201978 0.874648227512296 127.118504516728 0.87464822751229 127.118504516727 0.187564020373336 -88.6845552045768 
7.3                            0.1760293840753  155.886672671091 0.873371690758928 118.963692025657 0.873371690758923 118.963692025657 0.184658557369588 -95.7697746188355 
7.4                            0.17353228800768 147.397546043233 0.872290101875423 110.804363688822 0.872290101875421 110.804363688821 0.180537837053386 -102.866774156565 
7.5                            0.169831713916293 138.937347064125 0.871388382883013 102.638030243715 0.871388382883011 102.638030243715 0.175228118788774 -109.944627012318 
7.6                            0.16495952037984 130.476542209361 0.870644676470386 94.462446478394  0.870644676470383 94.462446478394  0.16877644387858 -116.970205271988 
7.7                            0.158965945864956 121.985299984207 0.870031216414836 86.2756994550615 0.870031216414837 86.2756994550614 0.161251174686387 -123.90633912471 
7.8                            0.151919731448527 113.432046370649 0.869515457980134 78.0762846448084 0.869515457980132 78.0762846448084 0.152742763278474 -130.70952243458 
7.9                            0.143908349573577 104.781645866265 0.869061443861562 69.8631658712858 0.869061443861561 69.8631658712858 0.143364724888958 -137.326926736725 
8                              0.135038291154701 95.9929704042519 0.868631364677415 61.6358151986092 0.868631364677413 61.6358151986091 0.133254868801828 -143.692384571336 
8.1                            0.125435417800389 87.0155025237734 0.868187254271872 53.3942294637119 0.86818725427187 53.3942294637118 0.122576960842296 -149.720879340682 
8.2                            0.115245477650993 77.784435111252  0.867692741249213 45.138921092285  0.867692741249211 45.1389210922849 0.11152316655895 -155.30097455727 
8.3                            0.104635035552524 68.2134475592296 0.867114761945079 36.8708821532138 0.867114761945075 36.8708821532137 0.100317843860552 -160.284693924403 
8.4                            0.0937933169327039 58.1839417750765 0.866425129514839 28.591522244709  0.866425129514836 28.591522244709  0.0892234348106466 -164.475140079751 
8.5                            0.0829358577386735 47.5291057370072 0.86560185181324 20.3025826494648 0.865601851813239 20.3025826494648 0.0785490049644551 -167.615041749966 
8.6                            0.072311413065496 36.0113012286769 0.864630099227472 12.0060310745747 0.86463009922747 12.0060310745747 0.0686602864444154 -169.387787362771 
8.7                            0.0622140988484278 23.2941836121197 0.863502743167002 3.703942998504   0.863502743167   3.70394299850382 0.059984058506501 -169.461437578796 
8.8                            0.0530019578643946 8.92395284838712 0.862220415330486 -4.60162302681928 0.862220415330485 -4.60162302681945 0.0529849704592202 -167.631468777146 
8.9                            0.0451161362293372 -7.62503324078013 0.860791074296418 -12.908748001635 0.860791074296417 -12.9087480016351 0.0480740038077826 -164.09315824106 
9                              0.0390693306005635 -26.7047118324061 0.859229105311516 -21.215764812617 0.859229105311516 -21.215764812617 0.0454286640301325 -159.678359291373 
9.1                            0.0353254707295434 -47.9302392731291 0.857554016788515 -29.5213526474168 0.857554016788516 -29.5213526474167 0.0448241177629997 -155.663644407504 
9.2                            0.034024114401082 -69.7328649773573 0.855788828776186 -37.8246070828871 0.855788828776184 -37.8246070828871 0.0456604210362194 -153.134328150271 
9.3                            0.034768415920884 -90.036138153474 0.853958271482982 -46.1250811607724 0.853958271482983 -46.1250811607724 0.0471873676109736 -152.554981106206 
9.4                            0.0367936552088284 -107.58367683366 0.852086924362046 -54.4227948101424 0.852086924362045 -54.4227948101424 0.04872089149081 -153.870160145105 
9.5                            0.0393366137817403 -122.235159057156 0.8501974284455  -62.7182121664556 0.850197428445498 -62.7182121664557 0.0497327065241947 -156.803058581755 
9.6                            0.0418384485013305 -134.384499592561 0.848308897932959 -71.012188516911 0.848308897932956 -71.0121885169109 0.0498488264016517 -161.061685969999 
9.7                            0.0439597945141956 -144.477743847345 0.846435643496465 -79.305890657374 0.846435643496462 -79.3058906573741 0.048818937487593 -166.427190731992 
9.8                            0.0455358703352542 -152.839719241287 0.844586301311792 -87.6006963103938 0.84458630131179 -87.6006963103938 0.046487239121634 -172.787013355481 
9.9                            0.0465380004258551 -159.656623067766 0.842763439818384 -95.8980798941204 0.84276343981838 -95.8980798941205 0.0427733436756616 179.833239142934 
10                             0.0470535860121366 -165.008476962603 0.840963691131051 -104.199493328827 0.84096369113105 -104.199493328827 0.037666317927361 171.187725354764 
