! Touchstone file exported from HFSS 3D Layout Design 2026.1.0
!        File:           D:/Work/SIM/ADS_AUTO_SIM/projects/RFSOC_RF/TX_Fillter.aedt
!        Generated:      11:58:01 PM Aug 30, 2026
!        Design:         TX_BAND1_MCFIL_R12_CNN015
!        Project:        TX_Fillter
!
# GHz S MA R 50.000000
! Terminal data exported
! Port[1] = Port1
! Port[2] = Port2
14                             0.965940026249806 177.449413985953 0.00498914347978518 177.027247973311 0.00498914347978518 177.02724797331  0.968814148375464 -175.956141467527 
14.05                          0.965276148536639 176.462344118256 0.00510110966942034 176.583470933884 0.00510110966942028 176.583470933884 0.968216014711772 -176.90661032175 
14.1                           0.964591427365167 175.466588495914 0.00521865921370999 176.15269879388  0.00521865921370993 176.15269879388  0.967598917335933 -177.86468208617 
14.15                          0.963884911952108 174.461866049351 0.00534220464910742 175.734789388834 0.00534220464910736 175.734789388834 0.966961954535668 -178.830604001837 
14.2                           0.963155594489263 173.447882755854 0.00547219504246075 175.329542820108 0.00547219504246069 175.329542820109 0.966304167667094 -179.804635497779 
14.25                          0.962402405873714 172.424330884677 0.00560911957276464 174.936695761536 0.00560911957276457 174.936695761537 0.965624536666875 179.212951053769 
14.3                           0.961624211051804 171.390888188204 0.00575351148941747 174.555915537347 0.00575351148941742 174.555915537348 0.964921975138399 178.221869524799 
14.35                          0.960819803935659 170.347217034545 0.00590595248959026 174.18679400711  0.00590595248959022 174.18679400711  0.964195324964513 177.221819156429 
14.4                           0.959987901845914 169.292963476513 0.00606707756270143 173.828841301689 0.00606707756270137 173.82884130169  0.963443350393243 176.212483615506 
14.45                          0.959127139428486 168.227756251405 0.00623758035617493 173.481479462663 0.0062375803561749 173.481479462663 0.962664731535975 175.193529976533 
14.5                           0.958236061986569 167.151205705438 0.00641821912377241 173.144036046113 0.00641821912377241 173.144036046113 0.961858057209558 174.164607621866 
14.55                          0.957313118161422 166.062902636072 0.00660982332598971 172.815737759762 0.00660982332598972 172.815737759763 0.961021817044586 173.125347052321 
14.6                           0.956356651886764 164.962417044725 0.00681330096148362 172.495704209745 0.00681330096148365 172.495704209745 0.960154392771538 172.075358599498 
14.65                          0.955364893531523 163.84929679163  0.00702964671946284 172.18294183938  0.00702964671946289 172.18294183938  0.959254048584216 171.014231030099 
14.7                           0.954335950134099 162.723066143644 0.0072599510556957 171.876338146704 0.00725995105569575 171.876338146704 0.958318920465779 169.941530031455 
14.75                          0.953267794617928 161.583224204892 0.00750541030955725 171.574656269619 0.00750541030955734 171.57465626962  0.957347004346283 168.856796566193 
14.8                           0.952158253862607 160.429243218975 0.00776733799671552 171.276530026846 0.00776733799671557 171.276530026845 0.956336142941622 167.759545082578 
14.85                          0.951004995486908 159.26056673024  0.00804717743204945 170.980459498825 0.00804717743204952 170.980459498825 0.955284011101589 166.649261565468 
14.9                           0.949805513179111 158.076607590218 0.00834651586069237 170.684807224936 0.00834651586069245 170.684807224936 0.954188099468958 165.525401410993 
14.95                          0.948557110385739 156.876745793772 0.00866710030226259 170.387795081326 0.00866710030226268 170.387795081326 0.95304569622128 164.387387106044 
15                             0.947256882141402 155.660326127714 0.00901085534505349 170.087501887203 0.00901085534505353 170.087501887202 0.951853866631716 163.23460569131  
15.05                          0.94590169478918 154.426655612687 0.0093799031639818 169.781861766377 0.00937990316398186 169.781861766376 0.950609430143653 162.066405983965 
15.1                           0.944488163301987 153.175000716893 0.00977658607935901 169.468663265275 0.00977658607935908 169.468663265275 0.949308934604949 160.882095533092 
15.15                          0.943012625869473 151.904584317714 0.0102034920241352 169.145549198937 0.0102034920241352 169.145549198937 0.947948627249953 159.68093727754  
15.2                           0.941471115360972 150.614582384511 0.0106634833464422 168.810017163037 0.0106634833464423 168.810017163037 0.946524421949187 158.462145871985 
15.25                          0.939859327211134 149.304120352699 0.0111597294435383 168.459420613563 0.0111597294435383 168.459420613563 0.945031862165675 157.224883642573 
15.3                           0.938172583199178 147.972269155715 0.0116957438043987 168.090970377217 0.0116957438043987 168.090970377216 0.943466078960768 155.968256128482 
15.35                          0.936405790502946 146.618040877545 0.0122754261333157 167.701736415938 0.0122754261333157 167.701736415938 0.941821743277812 154.691307160009 
15.4                           0.934553395302017 145.240383984104 0.0129031103384295 167.288649629236 0.0129031103384295 167.288649629235 0.940093011595265 153.393013417306 
15.45                          0.932609330076677 143.838178086944 0.0135836193000436 166.848503439208 0.0135836193000436 166.848503439208 0.938273463877304 152.072278406529 
15.5                           0.930566953597183 142.410228187459 0.0143223274873113 166.377954866292 0.0143223274873113 166.377954866291 0.936356032553688 150.727925781813 
15.55                          0.928418982415245 140.955258343935 0.0151252326724474 165.873524769459 0.0151252326724474 165.873524769459 0.934332921024805 149.358691932138 
15.6                           0.926157412450589 139.47190469764  0.0159990382037034 165.331596893358 0.0159990382037034 165.331596893358 0.932195509903712 147.963217741631 
15.65                          0.923773429002107 137.958707787545 0.016951247547363 164.748415336748 0.0169512475473629 164.748415336747 0.929934248864088 146.540039420137 
15.7                           0.921257303195985 136.414104076621 0.017990273101133 164.120080031256 0.017990273101133 164.120080031256 0.927538531548541 145.087578288055 
15.75                          0.918598272500821 134.836416606026 0.0191255616234464 163.442539796303 0.0191255616234464 163.442539796303 0.924996550489877 143.604129385422 
15.8                           0.915784402478497 133.223844687587 0.0203677390229025 162.711582513784 0.0203677390229026 162.711582513785 0.922295128389682 142.087848760364 
15.85                          0.912802426382775 131.57445254034  0.0217287777172892 161.922821943491 0.0217287777172892 161.922821943491 0.919419521360896 140.536739276726 
15.9                           0.909637558546093 129.886156774787 0.0232221903101355 161.07168067549  0.0232221903101355 161.07168067549  0.916353188846196 138.948634765663 
15.95                          0.906273276686039 128.156712630595 0.0248632539512777 160.153368687137 0.0248632539512777 160.153368687137 0.913077523839283 137.321182332529 
16                             0.902691067291209 126.383698882335 0.0266692704505616 159.162856938289 0.0266692704505616 159.162856938289 0.909571535723443 135.651822620606 
16.05                          0.89887012708375 124.564501347272 0.0286598679994176 158.094845397546 0.0286598679994177 158.094845397546 0.905811476457804 133.937767830244 
16.1                           0.894787012175   122.696294964852 0.0308573512131073 156.943724844304 0.0308573512131074 156.943724844304 0.90177039893976 132.175977300813 
16.15                          0.890415224906667 120.776024477703 0.0332871071104161 155.703531737164 0.0332871071104162 155.703531737164 0.89741763410509 130.363130491159 
16.2                           0.885724726489137 118.80038384079  0.0359780755446696 154.367895381614 0.0359780755446697 154.367895381614 0.892718170654967 128.495597253461 
16.25                          0.880681361420058 116.765794636879 0.0389632933951036 152.929976575431 0.0389632933951037 152.929976575431 0.887631918201062 126.569405403029 
16.3                           0.875246177344623 114.668384008807 0.0422805223592291 151.382396870442 0.0422805223592292 151.382396870442 0.882112831118644 124.580205768845 
16.35                          0.869374621639806 112.503962970748 0.0459729701896149 149.717157583537 0.045972970189615 149.717157583537 0.87610786659878 122.523235205846 
16.4                           0.863015593846066 110.268006487783 0.0500901142684423 147.925547749554 0.0500901142684424 147.925547749554 0.869555746550702 120.393278519021 
16.45                          0.856110331650271 107.955637497556 0.0546886338455311 145.998040383113 0.0546886338455311 145.998040383113 0.86238548964309 118.184630979066 
16.5                           0.848591108360364 105.561618208255 0.0598334520567558 143.924176781525 0.0598334520567559 143.924176781524 0.854514677851675 115.891064230641 
16.55                          0.840379723271322 103.080353714848 0.0655988794406739 141.692439271672 0.0655988794406739 141.692439271672 0.845847423098803 113.505800101056 
16.6                           0.831385775603539 100.505915475124 0.0720698347810884 139.290113951767 0.0720698347810884 139.290113951767 0.836272006816471 111.021499396513 
16.65                          0.821504732012239 97.8320958228503 0.0793430933841907 136.703146854924 0.0793430933841906 136.703146854924 0.825658183309218 108.430276645218 
16.7                           0.810615833682488 95.0525099417205 0.0875284726555102 133.915999923814 0.0875284726555101 133.915999923814 0.813854174307794 105.723757523227 
16.75                          0.798579951979313 92.1607692117599 0.0967498037597957 130.911517728571 0.0967498037597956 130.911517728571 0.800683449070089 102.893204256082 
16.8                           0.785237606690694 89.150760361762  0.107145448320736 127.670822632347 0.107145448320736 127.670822632347 0.785941499867197 99.9297468593063 
16.85                          0.770407529423811 86.0170793109987 0.118867991868616 124.173265893752 0.118867991868616 124.173265893752 0.769393012658199 96.8247763483856 
16.9                           0.753886414308106 82.7556877438769 0.132082574200033 120.396475795666 0.132082574200033 120.396475795666 0.750770131942422 93.570582226948  
16.95                          0.735450879387493 79.3648844716771 0.146963101926109 116.316561815091 0.146963101926109 116.316561815091 0.729772968203696 90.1613533870976 
17                             0.714863187079803 75.8467108381298 0.163685350972239 111.9085556344   0.163685350972239 111.9085556344   0.706074132665921 86.5947121113719 
17.05                          0.691882927166937 72.2089341089528 0.1824157676762  107.147192732218 0.182415767676201 107.147192732218 0.679329912385886 82.8740181109099 
17.1                           0.666287547269763 68.4677611551984 0.203294747133013 102.008155396676 0.203294747133014 102.008155396676 0.649201638085613 79.0117654872691 
17.15                          0.637905040860278 64.6513984290661 0.226413536373739 96.4698954187856 0.22641353637374 96.4698954187855 0.615391592050545 75.0345002691086 
17.2                           0.606661698133366 60.8044412456334 0.251785006016949 90.5161098505399 0.25178500601695 90.5161098505399 0.577697920156947 70.9898073873071 
17.25                          0.572645661437326 56.9927604564727 0.279310688904533 84.1388269282912 0.279310688904533 84.1388269282912 0.536091605360097 66.9560485738524 
17.3                           0.536181967637676 53.3079362860833 0.308749758195515 77.3418480529929 0.308749758195515 77.3418480529928 0.490814701422284 63.0556616457506 
17.35                          0.497906064011459 49.8692342359559 0.339699322972197 70.1439950340889 0.339699322972197 70.1439950340888 0.442492429580674 59.4728761077925 
17.4                           0.458811285149352 46.819587588543  0.371597682992007 62.5813096269964 0.371597682992007 62.5813096269963 0.392243885197894 56.4762508105155 
17.45                          0.420235252494604 44.3104149200963 0.403760204869895 54.7072135760678 0.403760204869894 54.7072135760678 0.341770405023776 54.4438057028174 
17.5                           0.383747942633532 42.4698469747211 0.435449223268505 46.5898665533641 0.435449223268504 46.5898665533641 0.293397981164951 53.8780194799644 
17.55                          0.350920308131623 41.3535367343243 0.465966291551789 38.3066469821648 0.465966291551788 38.3066469821649 0.250034058595873 55.3655275532162 
17.6                           0.322996437223557 40.8908433637581 0.494743399772044 29.9366393236434 0.494743399772042 29.9366393236436 0.214917128603449 59.3706214857208 
17.65                          0.300562294860836 40.8584017150837 0.521407213730263 21.5527853149018 0.521407213730261 21.552785314902  0.190870833633432 65.7488384045303 
17.7                           0.283361399350725 40.9160029229296 0.545799946446343 13.2154998375838 0.545799946446342 13.215499837584  0.17891224489622 73.2786145440043 
17.75                          0.270375291336896 40.7026889220903 0.567956956803436 4.96897593744717 0.567956956803436 4.96897593744738 0.17719287957688 80.0965609245666 
17.8                           0.260140583227398 39.939034613498  0.588055127568537 -3.15954903407535 0.588055127568537 -3.15954903407518 0.1818092935562  84.9119229803235 
17.85                          0.251134018694783 38.4776820016555 0.606351209530086 -11.1581270637256 0.606351209530087 -11.1581270637254 0.188775398957843 87.4935459429057 
17.9                           0.24205766121477 36.292816761599  0.623125984201896 -19.0270014843308 0.623125984201896 -19.0270014843307 0.195210319398333 88.2291499618677 
17.95                          0.231966105500819 33.4392322925963 0.638642853948178 -26.7750274139063 0.638642853948179 -26.7750274139063 0.199436305366327 87.6419026327573 
18                             0.220271550898193 30.0122091156666 0.653122752027071 -34.4162986242382 0.653122752027071 -34.4162986242382 0.200658516902701 86.1871508327317 
18.05                          0.20668812389139 26.1216870805487 0.666733142806613 -41.9673568480182 0.666733142806612 -41.9673568480182 0.198645470137416 84.2192627021472 
18.1                           0.191160587225552 21.8811722846338 0.679587314393792 -49.4451112539306 0.67958731439379 -49.4451112539307 0.193509251792893 82.0142582838481 
18.15                          0.173799657431249 17.4079569029247 0.691750210449588 -56.8654426397172 0.691750210449586 -56.8654426397173 0.185572769832714 79.801606719261  
18.2                           0.154831042692956 12.8327842058145 0.703247774394204 -64.2423935169067 0.703247774394202 -64.2423935169067 0.175295829077556 77.7930744461356 
18.25                          0.134558735638811 8.3215748005905  0.71407760912937 -71.5878227313291 0.714077609129367 -71.5878227313291 0.163239334769145 76.207583310734  
18.3                           0.113342542618089 4.12107786292644 0.724219445039412 -78.9114066044598 0.724219445039409 -78.9114066044598 0.150055800918172 75.2925590396867 
18.35                          0.0915951043366439 0.665238532958055 0.733644417550087 -86.2208819470968 0.733644417550085 -86.2208819470967 0.136500111401101 75.3386844898189 
18.4                           0.0698237002692726 -1.13566798894715 0.742322526146801 -93.522441894156 0.742322526146799 -93.522441894156 0.123454797610879 76.6747410259898 
18.45                          0.0488309079453778 1.05199494008671 0.750227934408145 -100.821210674573 0.750227934408144 -100.821210674573 0.111952891967417 79.6090510408201 
18.5                           0.030697561949911 14.5491535519744 0.757342010205998 -108.121737935255 0.757342010205999 -108.121737935255 0.103149320743386 84.2657163908479 
18.55                          0.0229751395983202 54.1077672007181 0.763654206109655 -115.428467455803 0.763654206109656 -115.428467455804 0.0981520022929875 90.3169486904661 
18.6                           0.0329584888807083 88.394038671851  0.769161034082029 -122.746149045962 0.769161034082031 -122.746149045962 0.0976750376231447 96.8276440839959 
18.65                          0.050440436082563 98.303834122523  0.773863482686356 -130.080175522276 0.773863482686357 -130.080175522276 0.101718082650551 102.553021845832 
18.7                           0.0694658841579227 98.8798847617908 0.777763251996276 -137.436837872937 0.777763251996277 -137.436837872938 0.10960941261159 106.544063255745 
18.75                          0.0886894379474965 95.9262693190385 0.780858145769025 -144.823499876597 0.780858145769026 -144.823499876597 0.120390139024073 108.446720980698 
18.8                           0.107826155906743 91.3417224123939 0.783136879284295 -152.248697565047 0.783136879284295 -152.248697565048 0.133182590799941 108.347804726391 
18.85                          0.126910494921273 85.8860598583351 0.784573461524574 -159.722168405538 0.784573461524573 -159.722168405538 0.147353560210675 106.507948673742 
18.9                           0.146122281625336 79.9185561315207 0.785121225344497 -167.254809749395 0.785121225344496 -167.254809749395 0.162528313075029 103.198343226048 
18.95                          0.165729157401489 73.6300928790015 0.784706546043204 -174.858556203147 0.784706546043202 -174.858556203147 0.178551657606073 98.6425722805954 
19                             0.186058728524809 67.1293437000906 0.783222347312312 177.453848135073 0.78322234731231 177.453848135073 0.195444680401624 93.0112020698742 
19.05                          0.207478245525919 60.4791047054931 0.780521685955905 169.66922271548  0.780521685955904 169.66922271548  0.213369464879832 86.4345950643071 
19.1                           0.230374131248318 53.7133862654605 0.776412072758155 161.774524788615 0.776412072758155 161.774524788615 0.232599392892695 79.0190021503397 
19.15                          0.255127657029546 46.8466563317066 0.770651749363413 153.757691654671 0.770651749363415 153.757691654672 0.253488555165854 70.8605904168302 
19.2                           0.282084622065545 39.8800344614573 0.762949873852029 145.60881606294  0.762949873852034 145.60881606294  0.276433814092148 62.0556102899378 
19.25                          0.311518244717171 32.8065815649964 0.752973339109409 137.321694975203 0.752973339109416 137.321694975203 0.301825202839876 52.7061268430062 
19.3                           0.343586454235885 25.6165390316842 0.740363448197464 128.89573091434  0.740363448197474 128.89573091434  0.329984296516552 42.9214511003466 
19.35                          0.378287643441462 18.3026185730174 0.724765365894368 120.338058462368 0.724765365894378 120.338058462368 0.361095564683992 32.8161596093345 
19.4                           0.415422408244882 10.8649698699418 0.705871476886092 111.665619991834 0.705871476886102 111.665619991833 0.395141355006076 22.5062244548796 
19.45                          0.454571790447987 3.31518657883246 0.683476021067283 102.906755602592 0.683476021067291 102.906755602592 0.431855196746988 12.1049012175644 
19.5                           0.495103215778236 -4.32135218947555 0.657532972812442 94.1017696489557 0.657532972812448 94.1017696489554 0.470708470695366 1.71949073757191 
19.55                          0.536211717085805 -12.0053524945669 0.628203840873177 85.3019802280446 0.62820384087318 85.3019802280443 0.51094062176868 -8.55079255959176 
19.6                           0.576995528717516 -19.6858632029395 0.595879947120645 76.5670142037788 0.595879947120646 76.5670142037786 0.551632990019422 -18.6163035272351 
19.65                          0.616553954468061 -27.3045738662204 0.561167622179973 67.9605531444629 0.561167622179971 67.9605531444631 0.591813590970263 -28.3983958508101 
19.7                           0.654086523066488 -34.8012983861219 0.524834779746516 59.5452149242444 0.524834779746513 59.5452149242449 0.630569873992038 -37.8310374327453 
19.75                          0.688970896261292 -42.1195052414617 0.487729668304633 51.3775535809916 0.48772966830463 51.3775535809926 0.667143851051789 -46.8623619303333 
19.8                           0.720804181375258 -49.2108282027639 0.45069123668861 43.5041229260273 0.450691236688608 43.5041229260289 0.700990762083138 -55.4556436031799 
19.85                          0.74940459033191 -56.0378858828027 0.414471333596836 35.9591968437249 0.414471333596836 35.9591968437271 0.731795230618651 -63.589269249137 
19.9                           0.774781655748708 -62.5752650476447 0.379682387280844 28.7642493043754 0.379682387280846 28.764249304378  0.759451362978458 -71.2555953790383 
19.95                          0.797089004292158 -68.8089633374343 0.346774530698653 21.9288832573242 0.346774530698657 21.9288832573272 0.784020470112304 -78.4589043971121 
20                             0.816573382725919 -74.7348160842805 0.316038010367696 15.4526854523478 0.316038010367703 15.452685452351  0.805680894612299 -85.2128583664763 
20.05                          0.833529534590357 -80.3564490923409 0.287622561557825 9.32747601667486 0.287622561557834 9.32747601667814 0.824680857766459 -91.5378635847679 
20.1                           0.848265556233948 -85.6831828638673 0.261565075368587 3.53954148918523 0.261565075368597 3.53954148918851 0.84130028415103 -97.4586599345484 
20.15                          0.861079442175442 -90.7281537285482 0.237818783332053 -1.92839975698143 0.237818783332063 -1.92839975697823 0.855823354336012 -103.00231222628 
20.2                           0.872245269283045 -95.5067747777846 0.216279751415017 -7.09560971572167 0.216279751415028 -7.0956097157187 0.868520901926317 -108.196660705176 
20.25                          0.882006622677608 -100.035559660352 0.196808712891254 -11.9821329165185 0.196808712891265 -11.9821329165158 0.87964059795607 -113.069206958554 
20.3                           0.890574900753799 -104.331275572282 0.179247809635172 -16.6079464396616 0.179247809635182 -16.6079464396592 0.889402670546172 -117.646369420085 
20.35                          0.898130574464296 -108.410367535572 0.163432677001314 -20.9923934624857 0.163432677001323 -20.9923934624838 0.897999210507349 -121.953029259893 
20.4                           0.904826008280732 -112.288591969678 0.149200678294297 -25.1538336381883 0.149200678294305 -25.1538336381867 0.905595581685726 -126.012291056465 
20.45                          0.910788923468179 -115.980803797326 0.136396164061072 -29.1094512017939 0.136396164061079 -29.1094512017928 0.912332908571692 -129.845394195199 
20.5                           0.916125946517853 -119.500851492556 0.124873547436215 -32.875172899967 0.124873547436221 -32.8751728999661 0.918330980476489 -133.471724674469 
20.55                          0.920925937347324 -122.861545018111 0.114498844247592 -36.465659148888 0.114498844247597 -36.4656591488875 0.923691178459751 -136.908889876364 
20.6                           0.925262954271271 -126.074670867318 0.105150177544916 -39.8943416482731 0.105150177544919 -39.8943416482729 0.928499211467754 -140.17282961278 
20.65                          0.929198810483079 -129.151035889155 0.0967176145974049 -43.1734885360363 0.096717614597407 -43.1734885360362 0.932827562663321 -143.277945130028 
20.7                           0.932785231158182 -132.100527261077 0.0891025980886811 -46.3142841254628 0.089102598088682 -46.3142841254627 0.936737615439888 -146.237233967291 
20.75                          0.93606564727306 -134.932180141834 0.0822171520146602 -49.3269146172427 0.0822171520146602 -49.3269146172426 0.940281466782208 -149.06242300929 
20.8                           0.939076672869203 -137.654247503776 0.0759829831011485 -52.2206542654503 0.0759829831011476 -52.2206542654503 0.943503454763677 -151.764095160283 
20.85                          0.941849313970744 -140.27426870745 0.0703305559627495 -55.0039486146863 0.0703305559627477 -55.0039486146861 0.946441434709647 -154.351807152242 
20.9                           0.944409954150807 -142.799134785971 0.0651981905549602 -57.6844928743748 0.0651981905549578 -57.6844928743745 0.949127839855121 -156.834197370309 
20.95                          0.946781156479544 -145.23514934338 0.0605312102537476 -60.2693044560606 0.0605312102537447 -60.26930445606  0.951590560257238 -159.219083449917 
21                             0.94898231576282 -147.588084581447 0.0562811554227699 -62.7647893192039 0.0562811554227666 -62.764789319203 0.953853670123181 -161.513549930538 
21.05                          0.951030189372426 -149.863232355868 0.0524050685715199 -65.1768021579331 0.0524050685715163 -65.1768021579319 0.955938029630356 -163.724026553547 
21.1                           0.952939329936827 -152.06545039808 0.0488648516950538 -67.5107006914906 0.0488648516950502 -67.5107006914889 0.957861783310538 -165.856357944888 
21.15                          0.954722438830764 -154.199203973555 0.045626693069004 -69.7713944476787 0.0456266930690003 -69.7713944476767 0.959640773416362 -167.915865481053 
21.2                           0.956390655772569 -156.268603316436 0.0426605589176697 -71.9633884878804 0.0426605589176659 -71.963388487878 0.961288883494135 -169.907402135878 
21.25                          0.95795379684958 -158.277437207281 0.0399397444704847 -74.0908225389075 0.039939744470481 -74.0908225389046 0.962818324667314 -171.83540107005 
21.3                           0.959420550860937 -160.229203061577 0.0374404786265231 -76.157505987617 0.0374404786265195 -76.1575059876138 0.964239874860295 -173.703918670975 
21.35                          0.960798641905416 -162.127133882064 0.0351415765241113 -78.1669491699218 0.0351415765241078 -78.1669491699184 0.965563079311916 -175.516672687938 
21.4                           0.962094964567892 -163.974222404819 0.0330241346075091 -80.1223913536627 0.033024134607506 -80.1223913536592 0.966796419186506 -177.277076042615 
21.45                          0.963315696799442 -165.773242741853 0.0310712631929687 -82.0268257793894 0.031071263192966 -82.0268257793857 0.967947453833084 -178.988266831896 
21.5                           0.964466394581772 -167.526769794626 0.0292678519967782 -83.8830220872768 0.0292678519967757 -83.8830220872731 0.969022941221389 179.346865019352 
21.55                          0.965552071666055 -169.23719668495 0.0276003645571989 -85.6935464238462 0.0276003645571967 -85.6935464238424 0.970028940254445 177.725654052333 
21.6                           0.96657726703801 -170.906750423353 0.0260566579359349 -87.46077948985  0.0260566579359331 -87.4607794898463 0.970970897985334 176.145638160978 
21.65                          0.967546102252047 -172.537506010513 0.0246258245091542 -89.186932761043 0.0246258245091527 -89.1869327610396 0.971853724221137 174.604539760808 
21.7                           0.968462330370693 -174.131399145161 0.0232980530463268 -90.8740630867598 0.0232980530463256 -90.8740630867571 0.972681855555066 173.100248968322 
21.75                          0.969329377920409 -175.690237691838 0.0220645066248669 -92.5240858472332 0.022064506624866 -92.524085847231 0.973459310508928 171.630808553302 
21.8                           0.970150381014247 -177.215712044033 0.0209172152401296 -94.1387868292377 0.0209172152401291 -94.1387868292362 0.974189737176037 170.194400456265 
21.85                          0.970928216582476 -178.709404502439 0.0198489812456153 -95.7198329607795 0.0198489812456151 -95.7198329607788 0.974876454516723 168.789333689379 
21.9                           0.971665529483719 179.827202225983 0.0188532960000694 -97.2687820288947 0.0188532960000696 -97.2687820288952 0.975522488264125 167.414033461859 
21.95                          0.972364756133002 178.392717314728 0.0179242663096385 -98.7870914899944 0.0179242663096389 -98.7870914899964 0.976130602238755 166.067031390664 
22                             0.973028145172904 176.985834807718 0.0170565494375854 -100.276126469328 0.0170565494375861 -100.276126469331 0.976703325739605 164.746956674523 
22.05                          0.973657775624448 175.605327239495 0.0162452956143664 -101.737167034866 0.0162452956143672 -101.737167034871 0.977242977571975 163.452528124276 
22.1                           0.9742555728814  174.250039820992 0.0154860971200469 -103.171414821018 0.015486097120048 -103.171414821025 0.977751687183373 162.182546955576 
22.15                          0.974823322852068 172.918885133568 0.014774943131721 -104.579999068915 0.0147749431317222 -104.579999068923 0.978231413305327 160.935890261292 
22.2                           0.975362684503715 171.610838280449 0.0141081796331925 -105.963982142398 0.0141081796331938 -105.963982142408 0.97868396043791 159.711505090875 
22.25                          0.975875201024535 170.324932450387 0.0134824737747936 -107.324364572161 0.013482473774795 -107.324364572172 0.979110993462971 158.508403072504 
22.3                           0.976362309784863 169.060254853331 0.0128947821497139 -108.662089674647 0.0128947821497153 -108.66208967466 0.979514050629626 157.32565552139  
22.35                          0.976825351251814 167.815942992294 0.0123423225212361 -109.978047787131 0.0123423225212376 -109.978047787146 0.979894555120046 156.162388984124 
22.4                           0.977265576988635 166.59118123945  0.0118225485942319 -111.273080155893 0.0118225485942334 -111.27308015591 0.980253825373727 155.017781174741 
22.45                          0.977684156850981 165.385197687925 0.0113331274754068 -112.547982510396 0.0113331274754083 -112.547982510414 0.980593084323317 153.891057263145 
22.5                           0.97808218547638 164.197261253734 0.0108719195111584 -113.803508352828 0.0108719195111598 -113.803508352847 0.980913467673818 152.781486480976 
22.55                          0.978460688149677 163.026679004999 0.0104369602304514 -115.040371989313 0.0104369602304527 -115.040371989334 0.981216031339036 151.688379013851 
22.6                           0.978820626116018 161.8727936979   0.0100264441536143 -116.25925132628 0.0100264441536155 -116.259251326301 0.981501758133863 150.611083152308 
22.65                          0.9791629014033  160.734981500957 0.00963871025710458 -117.460790453076 0.00963871025710571 -117.460790453097 0.981771563807966 149.548982676773 
22.7                           0.979488361207964 159.61264989103  0.00927222890967075 -118.645602029758 0.00927222890967168 -118.645602029779 0.982026302495378 148.501494454511 
22.75                          0.979797801891067 158.505235706122 0.00892559011746529 -119.814269497047 0.00892559011746609 -119.814269497066 0.982266771644953 147.468066228839 
22.8                           0.980091972625678 157.412203341504 0.00859749293496639 -120.967349123746 0.00859749293496702 -120.967349123764 0.982493716488497 146.448174582939 
22.85                          0.980371578731612 156.333043077004 0.00828673591543174 -122.105371905406 0.00828673591543221 -122.105371905421 0.982707834096373 145.441323062442 
22.9                           0.98063728472915 155.267269524466 0.0079922084893576 -123.228845326645 0.00799220848935794 -123.228845326657 0.982909777064297 144.447040442542 
22.95                          0.980889717139668 154.21442018541  0.00771288317232566 -124.338254998351 0.00771288317232583 -124.338254998358 0.983100156869832 143.464879126863 
23                             0.981129467057852 153.174054109887 0.00744780851493763 -125.434066179884 0.00744780851493767 -125.434066179885 0.983279546932532 142.49441366654  
