! Touchstone file exported from HFSS 3D Layout Design 2026.1.0
!        File:           D:/Work/SIM/ADS_AUTO_SIM/projects/RFSOC_RF/TX_Fillter.aedt
!        Generated:      11:59:55 PM Aug 30, 2026
!        Design:         TX_BAND1_MCFIL_R12_CNN045
!        Project:        TX_Fillter
!
# GHz S MA R 50.000000
! Terminal data exported
! Port[1] = Port1
! Port[2] = Port2
14                             0.967634370006166 -177.337721278762 0.00498591058799728 179.640171377077 0.00498591058799728 179.640171377077 0.967185933487546 -176.250280512793 
14.05                          0.967008229849293 -178.319651487739 0.00509931353221906 179.198456555953 0.00509931353221903 179.198456555953 0.966546224613431 -177.223548301073 
14.1                           0.966362345174795 -179.309707368681 0.0052183841045528 178.769695895103 0.0052183841045528 178.769695895103 0.965886389103985 -178.205118139347 
14.15                          0.965695790125778 179.691851577191 0.00534354197273808 178.353730516138 0.00534354197273811 178.353730516138 0.965205495195645 -179.195252394687 
14.2                           0.965007581385994 178.684753251788 0.00547524396263014 177.95034083579  0.00547524396263019 177.95034083579  0.96450255405888 179.805774179954 
14.25                          0.964296673731956 177.668712193796 0.00561398767873319 177.559240884957 0.00561398767873323 177.559240884957 0.963776515426455 178.797673704079 
14.3                           0.963561955170573 176.643428755373 0.00576031550275059 177.180072430483 0.00576031550275063 177.180072430484 0.963026262817534 177.780144373467 
14.35                          0.962802241616963 175.608588216844 0.00591481901268606 176.812398939963 0.00591481901268612 176.812398939963 0.962250608313625 176.752869604709 
14.4                           0.962016271061367 174.563859833805 0.00607814387040232 176.455699438048 0.00607814387040236 176.455699438048 0.961448286836883 175.715517115157 
14.45                          0.961202697167548 173.508895810482 0.00625099523170722 176.109362311077 0.00625099523170723 176.109362311077 0.960617949874953 174.667737932465 
14.5                           0.960360082237599 172.443330192526 0.00643414374013256 175.772679124845 0.00643414374013254 175.772679124845 0.959758158589317 173.609165327264 
14.55                          0.959486889469476 171.366777671695 0.00662843217374779 175.444838527859 0.00662843217374781 175.444838527859 0.95886737623583 172.539413661853 
14.6                           0.958581474423729 170.27883229406  0.00683478282380258 175.124920318878 0.00683478282380259 175.124920318878 0.957943959816618 171.458077146988 
14.65                          0.957642075604538 169.179066062448 0.00705420569492602 174.811889762547 0.00705420569492603 174.811889762547 0.956986150871534 170.364728498021 
14.7                           0.956666804047064 168.067027422813 0.00728780762929213 174.504592240002 0.00728780762929213 174.504592240002 0.955992065304747 169.258917480662 
14.75                          0.955653631787961 166.942239623042 0.00753680247187302 174.201748321842 0.00753680247187298 174.201748321842 0.95495968212743 168.140169335533 
14.8                           0.954600379078364 165.804198931421 0.0078025224110024 173.901949348435 0.00780252241100237 173.901949348435 0.953886830980575 167.007983069495 
14.85                          0.953504700178271 164.652372700498 0.00808643064836099 173.603653596574 0.00808643064836096 173.603653596574 0.952771178282316 165.861829600327 
14.9                           0.952364067547549 163.486197260408 0.00839013557564521 173.305183101657 0.00839013557564522 173.305183101657 0.951610211821321 164.701149739787 
14.95                          0.951175754221123 162.305075623873 0.00871540666214758 173.00472119055  0.00871540666214749 173.004721190551 0.950401223591118 163.525351998341 
15                             0.949936814123648 161.108374982943 0.00906419228890434 172.700310761886 0.00906419228890426 172.700310761886 0.949141290629144 162.333810192888 
15.05                          0.948644060041085 159.895423975155 0.00943863980171446 172.389853327821 0.00943863980171444 172.389853327821 0.947827253587808 161.125860836531 
15.1                           0.947294038922237 158.665509694081 0.00984111809808859 172.071108804422 0.00984111809808861 172.071108804423 0.946455692722108 159.900800286982 
15.15                          0.945883004131046 157.417874416145 0.0102742431130926 171.741696007215 0.0102742431130926 171.741696007215 0.945022900927978 158.657881627307 
15.2                           0.944406884208855 156.151712012141 0.0107409066273367 171.399093774746 0.0107409066273367 171.399093774746 0.943524853406221 157.396311249521 
15.25                          0.94286124763305 154.866164007938 0.0112443088884679 171.040642606979 0.0112443088884679 171.040642606979 0.941957173456746 156.115245107898 
15.3                           0.941241262972276 153.560315254422 0.0117879956171575 170.663546667926 0.0117879956171575 170.663546667926 0.940315093824742 154.813784604808 
15.35                          0.939541653736038 152.233189161724 0.0123759000617401 170.26487596419  0.0123759000617401 170.26487596419  0.938593412921822 153.490972067243 
15.4                           0.93775664709475 150.883742447126 0.0130123908747203 169.841568473991 0.0130123908747203 169.841568473991 0.936786445127827 152.145785767069 
15.45                          0.935879915501016 149.510859339707 0.013702326712089 169.390431965895 0.013702326712089 169.390431965895 0.934887964239061 150.777134432219 
15.5                           0.933904510069464 148.113345177689 0.0144511186060381 168.908145213512 0.0144511186060381 168.908145213512 0.932891138961556 149.383851189621 
15.55                          0.931822784364679 146.689919326549 0.0152648013370151 168.39125828263  0.0152648013370152 168.39125828263  0.930788459147797 147.964686873498 
15.6                           0.929626306997611 145.239207337244 0.0161501152365044 167.836191540803 0.0161501152365044 167.836191540803 0.928571651235228 146.518302624868 
15.65                          0.927305761131492 143.759732254331 0.0171146000924778 167.239233016268 0.0171146000924779 167.239233016268 0.926231581056414 145.043261699543 
15.7                           0.924850828638093 142.249904973514 0.0181667031108006 166.596533712876 0.0181667031108007 166.596533712876 0.923758141843598 143.538020392914 
15.75                          0.92225005621137 140.708013537252 0.0193159032142776 165.904100469538 0.0193159032142778 165.904100469538 0.921140124832364 142.000917980386 
15.8                           0.919490700222674 139.132211245965 0.0205728543432278 165.157785935535 0.020572854343228 165.157785935535 0.918365069365153 140.430165562943 
15.85                          0.916558546471428 137.52050345156  0.0219495508643647 164.353275215369 0.0219495508643648 164.353275215369 0.915419088787915 138.823833698549 
15.9                           0.913437700225742 135.870732890345 0.0234595187048354 163.486068717212 0.0234595187048355 163.486068717212 0.912286667701199 137.179838692879 
15.95                          0.910110341033799 134.180563405396 0.025118036410618 162.551460715768 0.0251180364106181 162.551460715768 0.908950425246425 135.495927418731 
16                             0.906556435690524 132.447461906179 0.0269423909851954 161.544513112273 0.0269423909851955 161.544513112273 0.905390838051376 133.769660534625 
16.05                          0.902753401434069 130.668678419113 0.0289521740919649 160.460023840454 0.0289521740919649 160.460023840454 0.901585915196654 131.998393983004 
16.1                           0.898675709891698 128.841224101721 0.0311696249888659 159.292489327656 0.031169624988866 159.292489327656 0.897510816066587 130.179258672216 
16.15                          0.894294420466611 126.961847132635 0.0336200273766054 158.036060376388 0.0336200273766054 158.036060376388 0.893137400187433 128.309138291699 
16.2                           0.88957662973913 125.027006461074 0.0363321681267019 156.684490786935 0.0363321681267019 156.684490786935 0.888433696116691 126.384645287746 
16.25                          0.88448482105419 123.032843519128 0.039338866514805 155.231078003342 0.039338866514805 155.231078003342 0.883363274137664 124.402095154658 
16.3                           0.878976095835545 120.975152192688 0.0426775829560603 153.668595045157 0.0426775829560603 153.668595045157 0.877884504986056 122.357479397392 
16.35                          0.873001265442413 118.849347648292 0.0463911160607879 151.989213005362 0.046391116060788 151.989213005362 0.871949684225569 120.246437833168 
16.4                           0.866503779848728 116.650435076592 0.0505283956877727 150.184413481946 0.0505283956877728 150.184413481946 0.865503999474215 118.064231373716 
16.45                          0.859418467605889 114.3729801165   0.0551453769306558 148.244890514285 0.0551453769306558 148.244890514285 0.858484315978758 115.805717144156 
16.5                           0.85167006137645 112.011083781117 0.0603060346595374 146.160441988106 0.0603060346595374 146.160441988106 0.850817755951133 113.465328861553 
16.55                          0.8431714863782  109.558366282684 0.0660834489040686 143.919851162125 0.0660834489040687 143.919851162125 0.842420050162067 111.037066978705 
16.6                           0.833821897961687 107.007966487537 0.0725609558790731 141.510760113421 0.0725609558790732 141.510760113421 0.833193649080797 108.514505430796 
16.65                          0.823504473452207 104.352567163849 0.0798333147759731 138.919538724612 0.079833314775973 138.919538724612 0.823025599451821 105.890825236163 
16.7                           0.812083998894473 101.584461192997 0.0880078023587614 136.131155662571 0.0880078023587615 136.131155662571 0.811785227032327 103.158890161082 
16.75                          0.799404353457467 98.6956811562246 0.0972050903491351 133.12906205669  0.0972050903491352 133.129062056691 0.799321727055077 100.311386792134 
16.8                           0.78528609767871 95.6782250522124 0.107559677765231 129.895104825898 0.107559677765231 129.895104825898 0.785461865171856 97.3410614920764 
16.85                          0.769524536896526 92.5244254395913 0.11921953461681 126.409495469884 0.11921953461681 126.409495469884 0.770008153119118 94.2411008542256 
16.9                           0.75188888432348 89.2275292733402 0.132344459533752 122.650872248192 0.132344459533752 122.650872248192 0.752738110647776 91.0057215100147 
16.95                          0.732123518020896 85.7825822664973 0.147102464346519 118.596509322388 0.147102464346519 118.596509322388 0.733405586314807 87.6310603701797 
17                             0.709952833619634 82.1877452454055 0.16366329348192 114.222745020386 0.163663293481921 114.222745020385 0.711745604741689 84.1164876018717 
17.05                          0.685091829538013 78.4462093523326 0.182188020457123 109.505720302821 0.182188020457123 109.505720302821 0.687484825750822 80.4664996790355 
17.1                           0.657265236148068 74.5689169145266 0.202813651758545 104.422531542306 0.202813651758545 104.422531542306 0.660360353730678 76.6933819866512 
17.15                          0.626238478750112 70.5783231168076 0.225632005243625 98.9528970106957 0.225632005243624 98.9528970106956 0.630150088234152 72.8208447716211 
17.2                           0.591863579152237 66.5134264022139 0.250663088605403 93.0813952695563 0.250663088605403 93.0813952695562 0.596717592714917 68.8888041997831 
17.25                          0.554141522253846 62.4362108199904 0.277825053146067 86.8002325322614 0.277825053146067 86.8002325322614 0.560072844592289 64.9593526290102 
17.3                           0.513298802707418 58.4394103050157 0.306905583881383 80.112316876289  0.306905583881383 80.112316876289  0.520446360734655 61.1236585245392 
17.35                          0.469869373059781 54.6549961096992 0.337542752155142 73.0341686900673 0.337542752155142 73.0341686900673 0.478367575033347 57.5089256686683 
17.4                           0.424764794912954 51.2617489964019 0.36922539651385 65.597943558847  0.369225396513851 65.5979435588471 0.434729666328484 54.2834010108281 
17.45                          0.379307508080843 48.4881701145963 0.401321738278561 57.8517205336431 0.401321738278562 57.8517205336433 0.390814759458976 51.6553843095674 
17.5                           0.335197813869921 46.6028642712044 0.433138411695571 49.857380456177  0.433138411695573 49.8573804561771 0.348249055704736 49.8588671411109 
17.55                          0.294384894000007 45.8778069880351 0.464001266570886 41.6859477668019 0.464001266570888 41.685947766802  0.308859327318662 49.1144332500834 
17.6                           0.258813576775642 46.5047349009288 0.493338873019754 33.411064120878  0.493338873019757 33.4110641208781 0.274411837191642 49.5544613276155 
17.65                          0.230031156390419 48.46030182286   0.520746047476881 25.1019508434134 0.520746047476885 25.1019508434134 0.246242592402709 51.1203774328911 
17.7                           0.208709617536261 51.3815565848631 0.546011191000503 16.8174234249343 0.546011191000507 16.8174234249342 0.224860826603163 53.4878967430327 
17.75                          0.194302803347971 54.5942214477482 0.569104592536308 8.60212266320904 0.569104592536311 8.60212266320892 0.209717891155092 56.1134464816058 
17.8                           0.185144517773538 57.3629883239104 0.590137630699243 0.485353899937763 0.590137630699246 0.485353899937627 0.199343003879782 58.4246822475708 
17.85                          0.179018083847248 59.1866701510768 0.609309004011393 -7.51782166926603 0.609309004011394 -7.51782166926615 0.19182046863597 60.0284196107428 
17.9                           0.17382127775353 59.905281046662  0.62685284464042 -15.4040299103897 0.62685284464042 -15.4040299103898 0.185323706294796 60.7915538693574 
17.95                          0.167961653978766 59.6180359089347 0.642997993072395 -23.1784090977581 0.642997993072393 -23.1784090977581 0.178447620244571 60.7929674727177 
18                             0.160439815538778 58.5565589539811 0.657941686770387 -30.8514841229883 0.657941686770384 -30.8514841229881 0.170301034088925 60.2366098003539 
18.05                          0.150764978825681 57.0040530782467 0.671836693478374 -38.4364939964577 0.67183669347837 -38.4364939964573 0.160458252704021 59.3905283958293 
18.1                           0.138832104236965 55.2723368100979 0.684788900103915 -45.9473465683493 0.68478890010391 -45.9473465683487 0.148870224196355 58.5663308083425 
18.15                          0.124822871175221 53.7248750393683 0.696861946109212 -53.3972180296882 0.696861946109208 -53.3972180296874 0.135791405496252 58.1316989917086 
18.2                           0.10915362831828 52.8450904986426 0.708085883118831 -60.7977291280955 0.708085883118828 -60.7977291280946 0.121746625767156 58.5464898344893 
18.25                          0.0924898747119406 53.3740536451447 0.718467491102893 -68.158593881316 0.71846749110289 -68.158593881315 0.107550254575211 60.4083451334395 
18.3                           0.075877449639421 56.567072734588  0.72800051021058 -75.4876285052153 0.728000510210579 -75.4876285052143 0.0943812255568061 64.4572067395132 
18.35                          0.0611057383840305 64.521582370296  0.736674575628007 -82.7910135605529 0.736674575628007 -82.791013560552 0.0838656902071351 71.373684967676  
18.4                           0.0513098410442064 79.5263505697443 0.744482080769467 -90.0737131665946 0.744482080769468 -90.0737131665939 0.0779383050191267 81.0940577610941 
18.45                          0.0503531078243363 99.3734003596161 0.751422570220315 -97.3399684429951 0.751422570220317 -97.3399684429947 0.0780913534537856 91.9559063518432 
18.5                           0.0588182395610499 115.516833058362 0.757504591473424 -104.59379728964 0.757504591473424 -104.59379728964 0.0843432159764608 101.323719720412 
18.55                          0.0732658753076403 124.120413518754 0.762745206374876 -111.839448847232 0.762745206374873 -111.839448847233 0.0952923654886145 107.586837906587 
18.6                           0.0904570028430858 127.072354735923 0.767167561342744 -119.081777757388 0.767167561342736 -119.081777757389 0.109195966442323 110.70206997966  
18.65                          0.108634644801158 126.595012481139 0.770797024997139 -126.326519386725 0.770797024997124 -126.326519386726 0.124698259938637 111.319182421547 
18.7                           0.126950446352439 124.025292657927 0.773656421108332 -133.5804609862  0.773656421108308 -133.580460986202 0.140936236285831 110.114480265762 
18.75                          0.14501201769302 120.093905650788 0.775760827967993 -140.851513997046 0.775760827967957 -140.851513997048 0.157423581983556 107.599077871146 
18.8                           0.162675366197433 115.205701047153 0.777112309173856 -148.148698549228 0.777112309173808 -148.14869854923 0.173932249673808 104.12350462965  
18.85                          0.179952917834651 109.592754920856 0.777694818190909 -155.482052383237 0.777694818190847 -155.48205238324 0.190412252538213 99.9211911494707 
18.9                           0.196969102273594 103.392863022206 0.777469412728095 -162.862473244896 0.777469412728018 -162.862473244899 0.20694097893518 95.1465064437171 
18.95                          0.213935445886999 96.6912186709561 0.776369854277136 -170.301496931673 0.776369854277046 -170.301496931675 0.223689681081162 89.9013680170432 
19                             0.231133210781438 89.5439990490162 0.774298678046357 -177.811003587491 0.774298678046256 -177.811003587493 0.2408987704327  84.2529223240096 
19.05                          0.248897740506353 81.9926508445951 0.771123919625818 174.597166117612 0.771123919625706 174.597166117611 0.258856838299387 78.245376231912  
19.1                           0.267601070639574 74.0729735239875 0.766676891613939 166.911713722687 0.766676891613821 166.911713722687 0.277880246714705 71.9082026519386 
19.15                          0.287630489200194 65.8208854484448 0.760751717657071 159.122540496322 0.760751717656952 159.122540496323 0.298291230202349 65.2621203653595 
19.2                           0.309361622350109 57.2757463267468 0.753107726043735 151.221595165358 0.753107726043619 151.221595165361 0.320393212178155 58.3236744273718 
19.25                          0.33312574934683 48.4817358459725 0.743476200156603 143.203933761414 0.743476200156494 143.203933761417 0.344442830265485 51.1088789663882 
19.3                           0.359172596696904 39.4877593314199 0.731573216952546 135.068980716695 0.73157321695245 135.068980716699 0.370619235796135 43.6361618817039 
19.35                          0.387631776820555 30.346448011156  0.717120119976812 126.821923740203 0.717120119976731 126.821923740207 0.398992712676213 35.9287148457664 
19.4                           0.418478052357424 21.1128574663439 0.699872255819123 118.475096025093 0.69987225581906 118.475096025098 0.429496465137443 28.0162584443863 
19.45                          0.451507215700421 11.8433321993263 0.679654717125374 110.049111220442 0.67965471712533 110.049111220446 0.461907136092336 19.936154084836  
19.5                           0.486329826912594 2.59471097188335 0.656401072658014 101.573448586255 0.656401072657987 101.573448586258 0.495840446965466 11.7337300119376 
19.55                          0.522388510359075 -6.57627531308452 0.630188108882772 93.0861798789801 0.630188108882759 93.0861798789823 0.530767326231567 3.46166541218546 
19.6                           0.559000477690197 -15.6137528365529 0.601257774031839 84.6326244773049 0.601257774031836 84.6326244773057 0.566052400172885 -4.82166591166355 
19.65                          0.595420928938967 -24.4639071052803 0.570018290481856 76.262923116577  0.570018290481858 76.2629231165761 0.601011185964039 -13.0548330756878 
19.7                           0.630916845721023 -33.0767144964135 0.537020487691441 68.028787788079  0.537020487691445 68.0287877880764 0.634976557562042 -21.1766827940683 
19.75                          0.664837076133973 -41.4079861409537 0.502911858705817 59.9799214204468 0.502911858705819 59.9799214204425 0.667361615365732 -29.1298822793618 
19.8                           0.696665461739247 -49.421306236665 0.468377144061291 52.1607052308182 0.468377144061287 52.1607052308125 0.697706844852529 -36.86409593776  
19.85                          0.726048921153322 -57.0894300451773 0.43407763496035 44.6076757197977 0.434077634960341 44.6076757197908 0.725704242835038 -44.3383058322397 
19.9                           0.752799581010769 -64.3948604301547 0.400600543698191 37.3480918845088 0.400600543698176 37.348091884501  0.751197737215545 -51.5220082640811 
19.95                          0.776876213634067 -71.3295530253355 0.368425553888751 30.3996218913808 0.36842555388873 30.3996218913725 0.774164894186434 -58.3952859304641 
20                             0.798353409140567 -77.8939031134468 0.337910270686792 23.7709567763751 0.337910270686768 23.7709567763667 0.794687757617312 -64.9479694333237 
20.05                          0.817386874595323 -84.0952785098134 0.309291904265408 17.4630423720002 0.309291904265381 17.4630423719919 0.812920545308092 -71.1782098906509 
20.1                           0.834181128733095 -89.9463757584022 0.282700216244365 11.4706099002856 0.282700216244337 11.4706099002776 0.829059899962111 -77.0907875740098 
20.15                          0.848963088907382 -95.4636231415159 0.25817645094122 5.78374526525003 0.258176450941193 5.78374526524252 0.843320805473117 -82.6954162583622 
20.2                           0.861962664672655 -100.665773915581 0.235693931533631 0.389324216920771 0.235693931533605 0.389324216913903 0.855919085048721 -88.005212426102 
20.25                          0.873399910142694 -105.572757352013 0.215177427185123 -4.72777660907711 0.215177427185099 -4.72777660908326 0.867059980209622 -93.0354141350166 
20.3                           0.883477523313298 -110.204798624356 0.196519739499551 -9.583720013562  0.19651973949953 -9.58372001356738 0.876931634899188 -97.8023714079675 
20.35                          0.892377288081284 -114.581784087439 0.179594962821535 -14.1949875455787 0.179594962821516 -14.1949875455833 0.885702158366697 -102.322790925465 
20.4                           0.900259183427552 -118.72283219237 0.164268504761866 -18.5778651831464 0.16426850476185 -18.5778651831503 0.893519079240232 -106.613198381138 
20.45                          0.907262144223122 -122.646026322953 0.150404279412294 -22.7480959180771 0.150404279412281 -22.7480959180801 0.900510255680775 -110.68957587796 
20.5                           0.913505735022686 -126.368268917569 0.137869603424681 -26.720660850279 0.137869603424671 -26.7206608502814 0.906785568613606 -114.567133580787 
20.55                          0.919092237420914 -129.90522250434 0.126538320834268 -30.5096553300496 0.126538320834261 -30.5096553300514 0.912438948239864 -118.260180401588 
20.6                           0.924108835826272 -133.271310336544 0.116292618473164 -34.1282329105689 0.116292618473158 -34.1282329105702 0.917550454083269 -121.782065205061 
20.65                          0.928629717858004 -136.479755897781 0.107023909000821 -37.5885959659034 0.107023909000818 -37.5885959659043 0.922188248781038 -125.145166481743 
20.7                           0.932717993638234 -139.542646110309 0.0986330743387392 -40.9020171363149 0.0986330743387379 -40.9020171363153 0.926410385361874 -128.360914011289 
20.75                          0.936427394096342 -142.471007502664 0.0910302885216597 -44.0788800772872 0.0910302885216597 -44.0788800772873 0.930266377522229 -131.439830547883 
20.8                           0.93980374176272 -145.274887961019 0.0841345788647529 -47.1287313405644 0.0841345788647538 -47.128731340564 0.933798551619139 -134.391585050886 
20.85                          0.942886205974035 -147.963439172282 0.0778732376327394 -50.0603377355278 0.0778732376327416 -50.0603377355273 0.937043194812146 -137.225051602625 
20.9                           0.945708363403642 -150.544996650406 0.0721811613106489 -52.881745366795 0.0721811613106518 -52.8817453667943 0.940031521055301 -139.948370072329 
20.95                          0.948299088106196 -153.027155488454 0.0670001689075848 -55.6003378707371 0.0670001689075882 -55.6003378707362 0.942790478882652 -142.5690059606  
21                             0.950683295278182 -155.416840836645 0.0622783323544507 -58.2228923091301 0.0622783323544546 -58.2228923091291 0.945343424368801 -145.093807828018 
21.05                          0.952882561237072 -157.720372680188 0.0579693391683468 -60.7556318261597 0.057969339168351 -60.7556318261586 0.947710680667986 -147.529061382534 
21.1                           0.954915639655347 -159.943524862978 0.0540318986917812 -63.204274615406 0.0540318986917855 -63.2042746154048 0.949910002973296 -149.880539756358 
21.15                          0.956798891401205 -162.091578535208 0.0504291972492441 -65.5740790361478 0.0504291972492484 -65.5740790361467 0.951956965067108 -152.153549806119 
21.2                           0.958546642736026 -164.16937033889 0.0471284036538163 -67.8698849073107 0.0471284036538205 -67.8698849073096 0.953865281106485 -154.352974465748 
21.25                          0.960171484248149 -166.181335716657 0.0441002240231499 -70.0961511244762 0.044100224023154 -70.0961511244751 0.955647074020862 -156.483311302824 
21.3                           0.961684520822065 -168.131547758091 0.0413185033799199 -72.2569898132794 0.0413185033799237 -72.2569898132782 0.957313099933588 -158.548707499395 
21.35                          0.963095581160349 -170.023751999621 0.038759870697513 -74.3561972673482 0.0387598706975166 -74.3561972673473 0.958872936351123 -160.552991514392 
21.4                           0.964413393874534 -171.861397579142 0.0364034236823754 -76.397281931921 0.0364034236823786 -76.39728193192  0.960335140469724 -162.499701698135 
21.45                          0.965645735910925 -173.647665122146 0.0342304495031331 -78.3834896932364 0.0342304495031361 -78.3834896932355 0.961707382796383 -164.392112128356 
21.5                           0.966799558044253 -175.385491706883 0.0322241777751863 -80.3178267241032 0.032224177775189 -80.3178267241023 0.962996560333802 -166.233255927053 
21.55                          0.967881091323   -177.077593225074 0.0303695623142661 -82.2030801213415 0.0303695623142684 -82.2030801213406 0.964208892805119 -168.025946302222 
21.6                           0.968895937654901 -178.726484423846 0.0286530884340341 -84.0418365535199 0.028653088434036 -84.0418365535194 0.965350004763382 -169.772795540583 
21.65                          0.969849147152945 179.665503115045 0.0270626028486581 -85.8364991191679 0.0270626028486597 -85.8364991191673 0.966424995917759 -171.476232158434 
21.7                           0.970745284398407 178.096204830158 0.0255871635305791 -87.5893025974458 0.0255871635305804 -87.5893025974454 0.967438501591436 -173.138516398921 
21.75                          0.971588485399012 176.563608666342 0.0242169071535125 -89.3023272557732 0.0242169071535134 -89.3023272557729 0.968394744887241 -174.761754245806 
21.8                           0.972382506711413 175.065842011482 0.0229429320136578 -90.97751136245  0.0229429320136584 -90.9775113624498 0.969297581861306 -176.347910106761 
21.85                          0.973130767944748 173.601159924408 0.0217571945642352 -92.616662537106 0.0217571945642355 -92.616662537106 0.970150540780521 -177.898818303422 
21.9                           0.973836388655574 172.167934512772 0.0206524179183349 -94.221468057901 0.0206524179183348 -94.2214680579011 0.970956856356389 -179.416193491006 
21.95                          0.974502220475257 170.764645335997 0.0196220108726069 -95.7935042317923 0.0196220108726067 -95.7935042317926 0.971719499698154 179.0983598828   
22                             0.97513087517198 169.389870722919 0.0186599961804532 -97.334244922827 0.0186599961804526 -97.3342449228273 0.97244120460544 177.643338981703 
22.05                          0.975724749235238 168.042279906474 0.017760946959485 -98.8450693232275 0.0177609469594843 -98.8450693232281 0.973124490719926 176.217334760068 
22.1                           0.97628604547642 166.720625889081 0.0169199302557762 -100.32726904293 0.0169199302557752 -100.327269042931 0.973771683972619 174.819024839616 
22.15                          0.976816792061158 165.423738962242 0.0161324569085876 -101.782054585112 0.0161324569085865 -101.782054585113 0.974384934694875 173.447167014008 
22.2                           0.977318859324553 164.150520812666 0.0153944369655382 -103.210561268007 0.0153944369655369 -103.210561268008 0.974966233704537 172.100593319291 
22.25                          0.977793974666687 162.89993915482  0.01470213999127 -104.613854646884 0.0147021399912686 -104.613854646885 0.975517426631529 170.778204614771 
22.3                           0.978243735781146 161.671022836655 0.0140521596940549 -105.992935484335 0.0140521596940534 -105.992935484337 0.97604022670798 169.478965624841 
22.35                          0.978669622431899 160.462857371114 0.0134413823659151 -107.348744311937 0.0134413823659135 -107.348744311939 0.976536226215157 168.201900397506 
22.4                           0.979073006962569 159.274580851321 0.0128669586939407 -108.682165621849 0.0128669586939391 -108.68216562185 0.977006906752021 166.946088140023 
22.45                          0.979455163695828 158.105380211945 0.0123262785547115 -109.994031722879 0.0123262785547099 -109.994031722881 0.977453648467104 165.710659396193 
22.5                           0.979817277358506 156.954487803276 0.011816948451072 -111.285126292002 0.0118169484510705 -111.285126292004 0.977877738375888 164.494792533535 
22.55                          0.980160450649246 155.82117824819  0.011336771291841 -112.556187649111 0.0113367712918395 -112.556187649113 0.978280377869403 163.29771051182  
22.6                           0.98048571104971 154.704765555294 0.0108837282511402 -113.807911779996 0.0108837282511387 -113.807911779998 0.978662689505722 162.118677907359 
22.65                          0.980794016966832 153.604600464395 0.0104559624755701 -115.040955129999 0.0104559624755688 -115.040955130001 0.979025723164155 160.95699817002  
22.7                           0.981086263282147 152.520068002886 0.0100517644350418 -116.255937188554 0.0100517644350406 -116.255937188556 0.979370461631722 159.812011092241 
22.75                          0.981363286374429 151.450585233868 0.00966955873719676 -117.453442882839 0.00966955873719573 -117.453442882841 0.97969782568279 158.683090471377 
22.8                           0.981625868673442 150.39559917876  0.00930789224647158 -118.634024796958 0.0093078922464707 -118.634024796959 0.98000867870528 157.569641948539 
22.85                          0.981874742795421 149.354584898898 0.0089654233673649 -119.798205231485 0.00896542336736417 -119.798205231486 0.980303830920376 156.471101008704 
22.9                           0.982110595304689 148.327043722163 0.00864091236769151 -120.946478116769 0.00864091236769107 -120.946478116771 0.98058404323712 155.386931128369 
22.95                          0.982334070140439 147.312501602049 0.0083332126318452 -122.079310792124 0.00833321263184498 -122.079310792125 0.980850030778441 154.316622058301 
23                             0.982545771743102 146.31050759782  0.00804126274659924 -123.197145661872 0.00804126274659924 -123.197145661872 0.981102466110979 153.259688230122 
