! Touchstone file exported from HFSS 3D Layout Design 2026.1.0
!        File:           D:/Work/SIM/ADS_AUTO_SIM/projects/RFSOC_RF/TX_Fillter.aedt
!        Generated:      05:57:18 AM Aug 31, 2026
!        Design:         TX_BAND1_MCFIL_R57_CNN010
!        Project:        TX_Fillter
!
# GHz S MA R 50.000000
! Terminal data exported
! Port[1] = Port1
! Port[2] = Port2
14                             0.973787697947919 -163.208824907141 0.00356282631193473 -177.644373636793 0.00356282631193473 -177.644373636794 0.974734704370678 -160.711747375767 
14.05                          0.973319255275325 -164.08039225861 0.00363131751172519 -178.035781097536 0.0036313175117252 -178.035781097536 0.974282137589156 -161.571432563851 
14.1                           0.972836531219958 -164.957482137489 0.00370303874846781 -178.406068628262 0.0037030387484678 -178.406068628263 0.973815638203221 -162.436549892135 
14.15                          0.972338831645028 -165.840257604455 0.00377824549592706 -178.754755732527 0.00377824549592709 -178.754755732527 0.973334520011233 -163.307260794264 
14.2                           0.971825416464382 -166.728890341802 0.00385721846955987 -179.081398154019 0.0038572184695599 -179.08139815402 0.972838050888994 -164.183735373884 
14.25                          0.971295495809129 -167.623561220164 0.00394026641899446 -179.385595812722 0.00394026641899451 -179.385595812723 0.972325448929504 -165.066152981845 
14.3                           0.970748225806568 -168.524460910522 0.00402772925078923 -179.66700163071 0.00402772925078927 -179.667001630712 0.971795878190355 -165.954702839937 
14.35                          0.970182703925132 -169.431790545843 0.00411998152227001 -179.925331282691 0.00411998152227005 -179.925331282693 0.971248444001744 -166.849584715697 
14.4                           0.969597963832643 -170.345762437198 0.00421743635257076 179.839626106562 0.0042174363525708 179.839626106561 0.970682187781612 -167.751009653271 
14.45                          0.9689929697078  -171.266600849743 0.0043205498031168 179.627996312538 0.00432054980311684 179.627996312536 0.970096081296867 -168.659200765928 
14.5                           0.968366609936212 -172.194542844606 0.0044298257868374 179.439807424825 0.00442982578683742 179.439807424823 0.969489020300933 -169.574394096474 
14.55                          0.967717690112326 -173.129839193363 0.00454582157355445 179.274976365813 0.00454582157355448 179.274976365811 0.96885981746772 -170.496839552504 
14.6                           0.967044925256975 -174.072755372667 0.00466915396848774 179.133294585789 0.00466915396848775 179.133294585788 0.968207194530267 -171.426801924326 
14.65                          0.966346931146678 -175.023572647425 0.00480050625191316 179.014413040563 0.00480050625191317 179.014413040561 0.967529773518512 -172.364561994276 
14.7                           0.965622214634937 -175.982589252007 0.00494063598104542 178.91782659619  0.00494063598104544 178.917826596188 0.966826066974452 -173.310417747257 
14.75                          0.964869162827092 -176.950121680093 0.00509038377059901 178.842858046768 0.00509038377059902 178.842858046766 0.966094467003972 -174.264685693528 
14.8                           0.96408603094832 -177.926506095148 0.00525068318671354 178.788641974084 0.00525068318671351 178.788641974082 0.965333233002239 -175.227702316187 
14.85                          0.963270928718416 -178.912099874992 0.00542257191063129 178.754108720236 0.00542257191063126 178.754108720235 0.964540477863178 -176.199825657348 
14.9                           0.96242180501629 -179.907283305704 0.00560720435443295 178.737968783535 0.00560720435443291 178.737968783534 0.963714152452301 -177.181437058859 
14.95                          0.961536430580654 179.08753855793  0.00580586594218992 178.73869798098  0.0058058659421899 178.738697980979 0.962852028085043 -178.172943075464 
15                             0.960612378449946 178.071933845935 0.00601998930719006 178.754523743731 0.00601998930719002 178.75452374373  0.961951676708628 -179.174777580688 
15.05                          0.95964700179275 177.045441618531 0.00625117270078157 178.783412921478 0.00625117270078155 178.783412921477 0.96101044843272 179.81259591154  
15.1                           0.958637408717805 176.007569378312 0.00650120096249128 178.823061463366 0.00650120096249122 178.823061463366 0.960025445990968 178.788681683403 
15.15                          0.95758043357814 174.957790320693 0.00677206946637873 178.870886313618 0.0067720694663787 178.870886313617 0.958993495639601 177.752948978126 
15.2                           0.956472604193846 173.895540290223 0.00706601153748245 178.924019806072 0.00706601153748243 178.924019806072 0.957911113907744 176.704828859507 
15.25                          0.955310104309197 172.820214405808 0.00738552992760156 178.979306761614 0.0073855299276015 178.979306761614 0.956774469503395 175.643710727502 
15.3                           0.954088730467714 171.731163312792 0.00773343305507961 179.033304385264 0.00773343305507955 179.033304385263 0.955579339544642 174.56893844591  
15.35                          0.952803842327877 170.627689013917 0.00811287685305056 179.082284926795 0.00811287685305054 179.082284926795 0.954321059122078 173.479806032053 
15.4                           0.951450305245541 169.50904022452  0.00852741324009946 179.122240913169 0.00852741324009946 179.122240913169 0.952994462998378 172.375552851228 
15.45                          0.950022423707893 168.374407189688 0.00898104643306855 179.148892587717 0.00898104643306855 179.148892587717 0.951593818005706 171.255358250755 
15.5                           0.948513863906835 167.222915892536 0.00947829857197357 179.157697006457 0.00947829857197359 179.157697006457 0.950112744399722 170.118335559297 
15.55                          0.946917563372824 166.053621573161 0.0100242864318631 179.143858053576 0.0100242864318631 179.143858053576 0.948544124055949 168.963525367004 
15.6                           0.945225625135271 164.865501467238 0.0106248113686675 179.102336453823 0.0106248113686675 179.102336453823 0.946879992931826 167.789887990674 
15.65                          0.943429193309507 163.657446661732 0.0112864651015437 179.027858686403 0.0112864651015437 179.027858686404 0.945111414642362 166.596295015853 
15.7                           0.941518306303376 162.428252953054 0.0120167544928066 178.914923548364 0.0120167544928066 178.914923548364 0.94322833127879 165.381519794602 
15.75                          0.939481722950643 161.176610580803 0.0128242491730926 178.757804978236 0.0128242491730926 178.757804978236 0.941219386699368 164.144226764287 
15.8                           0.93730671576475 159.901092698772 0.0137187567048171 178.550549632247 0.0137187567048171 178.550549632247 0.939071716389856 162.882959439869 
15.85                          0.934978824102272 158.600142436023 0.0147115310195344 178.286967601231 0.0147115310195345 178.286967601231 0.936770696564477 161.596126921509 
15.9                           0.932481558250356 157.272058396884 0.0158155211514098 177.960614557762 0.0158155211514098 177.960614557761 0.934299643374795 160.281988753349 
15.95                          0.92979604320375 155.914978454311 0.0170456688765128 177.564763517477 0.0170456688765129 177.564763517476 0.931639450809562 158.938637972353 
16                             0.926900588044772 154.526861712791 0.0184192658235385 177.092364269836 0.0184192658235386 177.092364269836 0.928768152971223 157.563982204872 
16.05                          0.923770163220564 153.105468565957 0.0199563830235356 176.535988362943 0.0199563830235356 176.535988362943 0.925660392738607 156.155722713985 
16.1                           0.920375763425561 151.648338867603 0.0216803887991277 175.887757294041 0.0216803887991278 175.887757294041 0.922286774166586 154.711331389932 
16.15                          0.916683628004063 150.152768400252 0.0236185744415174 175.139251241397 0.0236185744415174 175.139251241397 0.918613070088718 153.22802583635  
16.2                           0.91265428351741 148.615784106174 0.0258029113518367 174.281395256112 0.0258029113518368 174.281395256112 0.91459924900263 151.702742979966 
16.25                          0.908241364097385 147.034119010523 0.0282709682444453 173.30431930142  0.0282709682444454 173.30431930142  0.910198276149347 150.132112089493 
16.3                           0.903390154217774 145.404188523889 0.0310670225166597 172.197187881965 0.0310670225166597 172.197187881965 0.90535463252648 148.512428839992 
16.35                          0.898035785549096 143.722071035495 0.0342434056348234 170.9479942694   0.0342434056348234 170.9479942694   0.900002482385718 146.839633275682 
16.4                           0.892101005103095 141.983497674369 0.0378621275657337 169.543313570265 0.0378621275657336 169.543313570264 0.894063405040876 145.109296484621 
16.45                          0.885493417479325 140.183859264896 0.0419968282496575 167.968008243519 0.0419968282496574 167.968008243518 0.887443592116367 143.316623945911 
16.5                           0.878102093422385 138.318243537549 0.0467351017167506 166.204879446451 0.0467351017167505 166.20487944645  0.880030400448965 141.456488552032 
16.55                          0.8697934380449  136.381523692882 0.0521812249118862 164.234258306457 0.0521812249118859 164.234258306457 0.871688151743439 139.523514372926 
16.6                           0.860406240954962 134.368532220214 0.0584592883384123 162.033533850479 0.058459288338412 162.033533850478 0.862253098905775 137.512245096719 
16.65                          0.849745917962868 132.274374182811 0.0657166515294801 159.576620567447 0.0657166515294798 159.576620567447 0.851527566847585 135.41745153141  
16.7                           0.837578157459758 130.094966138119 0.0741275035264106 156.833381310549 0.0741275035264103 156.833381310549 0.839273480483366 133.234664789269 
16.75                          0.82362260732153 127.82793638427  0.0838960498316873 153.769045185485 0.083896049831687 153.769045185485 0.825205919093891 130.96107184782  
16.8                           0.807548058210749 125.474096864988 0.0952584027082661 150.343702567452 0.0952584027082657 150.343702567452 0.808988164149431 128.596985878162 
16.85                          0.788972082587622 123.039803891524 0.108481530089987 146.512030948172 0.108481530089987 146.512030948172 0.790231226819559 126.148212556939 
16.9                           0.767470683049595 120.540662549649 0.123856534024851 142.223518614712 0.123856534024851 142.223518614712 0.768503465186204 123.629775002647 
16.95                          0.742607624561178 118.007165884219 0.141682093471259 137.423617462168 0.141682093471259 137.423617462168 0.743360074549767 121.071602881698 
17                             0.713998816644837 115.492874584827 0.162232452758632 132.056460869801 0.162232452758631 132.056460869801 0.714408012826149 118.526817079909 
17.05                          0.681432825809487 113.085304705242 0.185703957792866 126.069960312078 0.185703957792866 126.069960312078 0.681427767309472 116.082819124899 
17.1                           0.645068605547489 110.918041541169 0.212137232264357 119.424061637677 0.212137232264357 119.424061637677 0.644573531576701 113.873757494096 
17.15                          0.605712096211203 109.178357349123 0.241322287494511 112.102350553685 0.241322287494511 112.102350553685 0.604653994696698 112.088671275662 
17.2                           0.565111799754157 108.096355767522 0.272713537257065 104.125629089162 0.272713537257065 104.125629089162 0.563433990162399 110.961161335573 
17.25                          0.526094351029315 107.891716874964 0.305405029916197 95.5635187747    0.305405029916198 95.5635187747    0.523776302242862 110.715918361602 
17.3                           0.492234277931501 108.658644014031 0.338221884568505 86.5377863264334 0.338221884568506 86.5377863264334 0.489311484165519 111.451132237881 
17.35                          0.466819354872584 110.222679772995 0.369943868663056 77.211596905478  0.369943868663056 77.211596905478  0.463385804302034 112.98956046216  
17.4                           0.45139548642476 112.098414679302 0.399594157285067 67.7643292067959 0.399594157285067 67.7643292067959 0.447568069992761 114.831299987027 
17.45                          0.44488154823001 113.66516241613  0.426662984403819 58.3597030844721 0.426662984403819 58.3597030844721 0.440731791758901 116.333069427035 
17.5                           0.444060162328602 114.452000128422 0.451162946397992 49.1193411907879 0.451162946397993 49.1193411907879 0.439553868314991 117.003727272864 
17.55                          0.444998660708227 114.28538372169  0.473515082505491 40.1104243724002 0.473515082505492 40.1104243724002 0.439974216893916 116.657324246322 
17.6                           0.444278061073298 113.237991095358 0.494349751480498 31.3480935968921 0.494349751480499 31.3480935968922 0.43845313486364 115.358702474007 
17.65                          0.439497448263089 111.507231706348 0.514314700129127 22.8072787046303 0.514314700129128 22.8072787046304 0.432477516693776 113.29639922055  
17.7                           0.42924233647859 109.329686667019 0.533938854032753 14.4375906308098 0.533938854032753 14.4375906308099 0.420514708119812 110.69353563642  
17.75                          0.412872787400355 106.951565591673 0.553556133939081 6.17707869413856 0.553556133939082 6.17707869413858 0.40178064399271 107.777104790984 
17.8                           0.390350533504344 104.638661670744 0.573273566603702 -2.03674883865698 0.573273566603703 -2.03674883865695 0.376044389241246 104.78925016165  
17.85                          0.362187196469991 102.71054996091  0.592968191114443 -10.2586405727451 0.592968191114443 -10.2586405727451 0.343549826991918 102.028555220616 
17.9                           0.329533158291761 101.592094915278 0.612305680843961 -18.5295448916715 0.612305680843961 -18.5295448916715 0.305075959042236 99.9263358022868 
17.95                          0.294412984646393 101.873384247166 0.630781355355827 -26.8724391824232 0.630781355355827 -26.8724391824232 0.262167539264359 99.1851374099543 
18                             0.260097005678661 104.332222444899 0.647786803460542 -35.2901148676485 0.64778680346054 -35.2901148676484 0.217651664441321 101.028317452914 
18.05                          0.231449478098619 109.747143101957 0.662701034665228 -43.7653005466332 0.662701034665226 -43.7653005466331 0.176722793286978 107.516665437074 
18.1                           0.214526246888198 118.169413079616 0.67499521936686 -52.2634819102328 0.674995219366859 -52.2634819102327 0.148565413771197 120.9506456026   
18.15                          0.21409731732014 127.916235712711 0.684329636130526 -60.7383318379999 0.684329636130525 -60.7383318379998 0.144481585373132 139.416364201946 
18.2                           0.230093775795855 136.177556125557 0.690617639552043 -69.1389501004741 0.690617639552042 -69.1389501004739 0.166340639580826 154.662574089342 
18.25                          0.257694399593191 141.267793380179 0.694039044871829 -77.4174976931981 0.694039044871828 -77.4174976931979 0.203872188670488 162.688639065584 
18.3                           0.290960169820631 143.224261304541 0.695001895279873 -85.535668371885 0.695001895279873 -85.5356683718848 0.246918558034722 165.281487033347 
18.35                          0.325272052960979 142.798356165445 0.694068312873945 -93.4688756140531 0.694068312873945 -93.4688756140529 0.289687215033846 164.69555437793  
18.4                           0.357664456418758 140.728329075785 0.691868366402215 -101.20780824279 0.691868366402216 -101.20780824279 0.329238817825495 162.314404573836 
18.45                          0.386418296203625 137.550545234495 0.689023284254039 -108.757731235428 0.689023284254039 -108.757731235428 0.36412854609813 158.900001724555 
18.5                           0.41063427299371 133.617310772052 0.686090076479084 -116.13630738589 0.686090076479084 -116.13630738589 0.393718074903137 154.872841632512 
18.55                          0.429925658038636 129.149897171612 0.683529822512983 -123.370754324421 0.683529822512983 -123.370754324421 0.417823435850979 150.468585452321 
18.6                           0.444215430662809 124.282382253765 0.681695422952649 -130.494959348434 0.681695422952648 -130.494959348434 0.43651726241229 145.819280383564 
18.65                          0.453607529023069 119.091666334888 0.680832200886144 -137.546912693253 0.680832200886142 -137.546912693253 0.450011570308067 140.996410819465 
18.7                           0.458309643981207 113.616980598272 0.68108516757426 -144.566596349494 0.681085167574258 -144.566596349494 0.458589106435496 136.034613523084 
18.75                          0.45859222607289 107.87240522329  0.682508486975011 -151.594321255632 0.682508486975008 -151.594321255632 0.462566810329303 130.945106982583 
18.8                           0.454773222601924 101.854886904773 0.685074588925991 -158.669437681639 0.685074588925988 -158.669437681639 0.46228135816739 125.723250272855 
18.85                          0.447221214335911 95.549359153433  0.688681963748224 -165.829331763359 0.688681963748221 -165.829331763359 0.458089962833804 120.35241452767  
18.9                           0.436371568823355 88.9319856313972 0.693161764114624 -173.108644275537 0.693161764114621 -173.108644275537 0.450381413956832 114.805207415036 
18.95                          0.422751204043373 81.9722189358562 0.698283936377496 179.461311182517 0.698283936377494 179.461311182517 0.439593379085673 109.042466996973 
19                             0.407007729010865 74.6342561367787 0.703763712446142 171.852908376229 0.70376371244614 171.852908376229 0.426232637194513 103.01011449588  
19.05                          0.389938294076544 66.8785798757586 0.709268904428745 164.042289980178 0.709268904428744 164.042289980178 0.410895661425238 96.6338946565388 
19.1                           0.372512677255368 58.664611077718  0.714427574168509 156.009105520783 0.714427574168509 156.009105520783 0.394288448828728 89.8123539039325 
19.15                          0.355884161485191 49.9559786074769 0.718834443036765 147.735878139438 0.718834443036766 147.735878139438 0.3772472854603  82.4093814238135 
19.2                           0.3413807456512  40.730109664212  0.722053246548436 139.207071023409 0.722053246548438 139.207071023409 0.360766014633902 74.249685921659  
19.25                          0.330468404464982 30.9927178360935 0.723611799774252 130.408089070286 0.723611799774253 130.408089070285 0.34603777787511 65.1240786926226 
19.3                           0.324678432034328 20.7939228135461 0.722987735695398 121.324668019014 0.722987735695399 121.324668019013 0.334513013554844 54.8158378392896 
19.35                          0.325494492110907 10.2365635256348 0.719586659472631 111.943328406092 0.71958665947263 111.943328406092 0.327948966628311 43.1607435555555 
19.4                           0.334203128082132 -0.535514295671398 0.712721423987096 102.253719736937 0.712721423987094 102.253719736937 0.328373963970998 30.1406669372761 
19.45                          0.351720268236589 -11.3717500272303 0.701610823794733 92.2536041553061 0.70161082379473 92.2536041553055 0.337847321209675 15.9722101376036 
19.5                           0.378409340023321 -22.1541237741691 0.685424954689845 81.956710697356  0.685424954689841 81.9567106973556 0.357958712093359 1.11043552007458 
19.55                          0.413910178021729 -32.8142545762445 0.663404774987915 71.4025121808152 0.663404774987913 71.402512180815  0.389223719573127 -13.878719299269 
19.6                           0.4570206994172  -43.317779769009 0.63506282905706 60.6651818513072 0.635062829057059 60.6651818513072 0.430703306119081 -28.4999805145924 
19.65                          0.505709602188576 -53.6316151861901 0.600423825957695 49.8573287596395 0.600423825957697 49.8573287596395 0.480066418517224 -42.4303821378933 
19.7                           0.557337172671005 -63.6989461060564 0.56020596418509 39.1241793198226 0.560205964185095 39.1241793198226 0.534053143253142 -55.5055224760958 
19.75                          0.609078998487919 -73.4357174131025 0.515827267048614 28.6270326626006 0.515827267048623 28.6270326626005 0.589145699361862 -67.6567310431546 
19.8                           0.658422209953914 -82.7458600443425 0.469189190133803 18.5201546737895 0.469189190133813 18.5201546737892 0.642226135462578 -78.8621296101562 
19.85                          0.703543735269049 -91.5430636874892 0.422312292122842 8.92913098457095 0.422312292122853 8.92913098457019 0.691026766115087 -89.1261615501263 
19.9                           0.743447518661486 -99.7674500346951 0.376977887798572 -0.0621661590805676 0.376977887798582 -0.0621661590817284 0.734275979377755 -98.475188599712 
19.95                          0.777872796107766 -107.391952813617 0.334502922417322 -8.41364419841121 0.334502922417331 -8.41364419841279 0.771578880178102 -106.955912880548 
20                             0.80707807389285 -114.419628219398 0.295682016077352 -16.1225893739717 0.295682016077358 -16.1225893739736 0.80315998366041 -114.631259545902 
20.05                          0.831611104872703 -120.87608461917 0.260852563215118 -23.2133307324896 0.260852563215122 -23.2133307324917 0.829593581310689 -121.57408689369 
20.1                           0.852128892094541 -126.800943891155 0.230014818741846 -29.7268073312022 0.230014818741849 -29.7268073312045 0.851593232447138 -127.86075834986 
20.15                          0.869283754289522 -132.240607653597 0.202954611290969 -35.7121100023752 0.202954611290971 -35.7121100023775 0.869877763529713 -133.566036603091 
20.2                           0.883664592065205 -137.243084371822 0.179342604859731 -41.2205521089417 0.179342604859731 -41.2205521089441 0.885101092324706 -138.759759354433 
20.25                          0.895774922922571 -141.854751414014 0.158803835243032 -46.3019840445242 0.158803835243032 -46.3019840445264 0.897824763693258 -143.505103271293 
20.3                           0.906031625878961 -146.118593836848 0.140961258744189 -51.00278027007  0.140961258744188 -51.0027802700721 0.90851478771964 -147.858001521284 
20.35                          0.914773461250723 -150.073437798665 0.125460123293036 -55.3649414243688 0.125460123293035 -55.3649414243707 0.917550179601437 -151.867285279405 
20.4                           0.922272980490292 -153.753792778139 0.111979611334822 -59.4258773116761 0.111979611334821 -59.4258773116776 0.925235778845737 -155.575218750786 
20.45                          0.92874855621263 -157.190032871418 0.100236698707038 -63.2185707812932 0.100236698707037 -63.2185707812946 0.931815493678701 -159.018206664196 
20.5                           0.934375108870084 -160.408744258584 0.0899856173400204 -66.7719310320212 0.0899856173400192 -66.7719310320222 0.937484249300157 -162.22754091981 
20.55                          0.939293088130325 -163.43313527369 0.0810150773471141 -70.1112215935691 0.0810150773471132 -70.11122159357  0.942398065623814 -165.230113763617 
20.6                           0.943615734016714 -166.283451055931 0.0731445416447557 -73.2584983552003 0.073144541644755 -73.2584983552009 0.946682245584087 -168.049063117061 
20.65                          0.947434831127836 -168.977362949804 0.0662202852975037 -76.2330240051802 0.0662202852975032 -76.2330240051805 0.950437886726947 -170.704338092906 
20.7                           0.950825218838052 -171.530319446182 0.0601116251690033 -79.0516435669079 0.060111625169003 -79.0516435669081 0.953746997043265 -173.21318489704 
20.75                          0.953848307871755 -173.955854792892 0.0547075001937628 -81.7291160702774 0.0547075001937626 -81.7291160702773 0.956676489408237 -175.590559282713 
20.8                           0.956554818108076 -176.265856332445 0.0499134661320442 -84.2784029236529 0.0499134661320444 -84.2784029236526 0.959281293300406 -177.849474128606 
20.85                          0.958986912390723 -178.470793979732 0.0456491060588281 -86.7109162500959 0.0456491060588284 -86.7109162500956 0.961606779707462 179.99870881413  
20.9                           0.961179864308447 179.420083841557 0.0418458268666531 -89.0367315467229 0.0418458268666534 -89.0367315467225 0.963690654878606 177.944034454493 
20.95                          0.963163366984391 177.3985833578   0.0384449990891639 -91.2647692506994 0.0384449990891644 -91.2647692506989 0.965564444289708 175.977749536976 
21                             0.964962565115137 175.45742351579  0.035396394205124 -93.402949576639 0.0353963942051245 -93.4029495766385 0.967254660429795 174.092130861182 
21.05                          0.966598873141559 173.590115212318 0.0326568754777835 -95.4583245710858 0.0326568754777841 -95.4583245710851 0.968783726195573 172.280340959021 
21.1                           0.968090627553807 171.790858412    0.030189302591351 -97.4371908440462 0.0301893025913516 -97.4371908440458 0.970170708816799 170.536306558868 
21.15                          0.969453609995992 170.05445435143  0.0279616153557302 -99.3451859552986 0.0279616153557308 -99.3451859552982 0.971431906331047 168.854615962414 
21.2                           0.970701469236799 168.376230455868 0.0259460667674306 -101.187370988216 0.0259460667674312 -101.187370988215 0.972581318804242 167.23043213516  
21.25                          0.971846063559273 166.751975970994 0.0241185803525571 -102.968301449658 0.0241185803525577 -102.968301449658 0.973631029033473 165.659418875306 
21.3                           0.972897740187522 165.177886635627 0.0224582108194719 -104.692088293831 0.0224582108194725 -104.69208829383 0.974591511803415 164.137677891924 
21.35                          0.973865564620732 163.650516995215 0.0209466905794094 -106.362450578183 0.02094669057941 -106.362450578183 0.975471886459321 162.661695006403 
21.4                           0.974757509891234 162.166739185754 0.0195680476804592 -107.982761015252 0.0195680476804598 -107.982761015251 0.976280124275043 161.228294004899 
21.45                          0.975580613582208 160.723707209649 0.0183082831991639 -109.556085479975 0.0183082831991644 -109.556085479975 0.977023219582468 159.834596926086 
21.5                           0.976341108766536 159.318825884558 0.0171550982088693 -111.085217361522 0.0171550982088697 -111.085217361522 0.977707331700297 158.47798977814  
21.55                          0.97704453373754 157.949723778755 0.0160976621586331 -112.572707506794 0.0160976621586335 -112.572707506794 0.97833790321351 157.156092850386 
21.6                           0.977695824402338 156.614229556527 0.0151264159093489 -114.020890384728 0.0151264159093492 -114.020890384728 0.97891975900397 155.86673492542  
21.65                          0.978299392430085 155.310351248365 0.0142329038360608 -115.431907002324 0.0142329038360611 -115.431907002324 0.979457189537418 154.607930812661 
21.7                           0.978859191638172 154.036258036628 0.0134096303610935 -116.80772502154 0.0134096303610937 -116.80772502154 0.979954021212754 153.377861718952 
21.75                          0.979378774620484 152.790264210489 0.0126499370684315 -118.150156457984 0.0126499370684316 -118.150156457984 0.98041367603037 152.174858049797 
21.8                           0.979861341243218 151.570814996639 0.0119478971963945 -119.460873285343 0.0119478971963946 -119.460873285343 0.980839222403302 150.997384299235 
21.85                          0.980309780333102 150.376474016225 0.0112982248382845 -120.741421221736 0.0112982248382845 -120.741421221736 0.981233418591771 149.844025739685 
21.9                           0.98072670564285 149.205912155341 0.0106961966200485 -121.993231934149 0.0106961966200484 -121.993231934149 0.981598749968566 148.713476667424 
21.95                          0.981114486986233 148.057897667333 0.0101375839870146 -123.217633863346 0.0101375839870145 -123.217633863346 0.981937461104235 147.604529996232 
22                             0.981475277280046 146.931287351209 0.00961859453223941 -124.415861843225 0.00961859453223932 -124.415861843225 0.98225158348561 146.516068022573 
22.05                          0.981811036104731 145.825018672378 0.00913582104819745 -125.589065664504 0.00913582104819734 -125.589065664503 0.982542959539611 145.447054211495 
22.1                           0.98212355029332 144.738102710547 0.00868619719062402 -126.738317712175 0.00868619719062385 -126.738317712175 0.982813263519598 144.396525874109 
22.15                          0.982414451975029 143.66961783532  0.00826695881576972 -127.864619788814 0.00826695881576952 -127.864619788813 0.983064019718177 143.363587625783 
22.2                           0.982685234431435 142.618704023444 0.00787561019623335 -128.968909220966 0.00787561019623315 -128.968909220965 0.983296618394177 142.347405529618 
22.25                          0.98293726606692 141.584557743039 0.00750989444089598 -130.052064333159 0.00750989444089578 -130.052064333157 0.983512329738938 141.347201842826 
22.3                           0.983171802748473 140.566427339898 0.00716776754535288 -131.11490936321 0.00716776754535267 -131.114909363209 0.983712316155607 140.36225029476  
22.35                          0.983389998731369 139.56360886927  0.00684737558397355 -132.158218883121 0.00684737558397334 -132.158218883119 0.983897643082559 139.391871834774 
22.4                           0.983592916355029 138.575442323727 0.00654703462604388 -133.182721781789 0.00654703462604363 -133.182721781787 0.984069288556789 138.435430796177 
22.45                          0.983781534666493 137.601308213841 0.00626521301861574 -134.189104858804 0.00626521301861552 -134.189104858802 0.98422815168375 137.492331429442 
22.5                           0.983956757106368 136.640624463733 0.00600051572955741 -135.178016072534 0.0060005157295572 -135.178016072532 0.984375060155561 136.562014763773 
22.55                          0.984119418373119 135.69284358814  0.00575167048739165 -136.150067480482 0.00575167048739147 -136.15006748048 0.984510776938966 135.643955761219 
22.6                           0.984270290565541 134.757450121626 0.00551751549109318 -137.105837905337 0.00551751549109302 -137.105837905336 0.984636006237142 134.737660731926 
22.65                          0.984410088689663 133.833958274006 0.00529698849413887 -138.045875356158 0.00529698849413872 -138.045875356157 0.984751398814873 133.842664982923 
22.7                           0.984539475604787 132.921909789062 0.0050891170936327 -138.970699230687 0.00508911709363259 -138.970699230684 0.984857556764274 132.958530676105 
22.75                          0.984659066473556 132.020871986256 0.00489301007798502 -139.880802321732 0.00489301007798492 -139.880802321729 0.984955037777815 132.084844873964 
22.8                           0.984769432772513 131.130435967412 0.00470784970601569 -140.776652647939 0.00470784970601561 -140.776652647938 0.985044358986482 131.22121775409  
22.85                          0.984871105912425 130.250214972353 0.00453288480697536 -141.658695126935 0.00453288480697531 -141.658695126933 0.985126000413305 130.367280975606 
22.9                           0.98496458051148 129.379842869243 0.00436742460526139 -142.527353106757 0.00436742460526136 -142.527353106756 0.985200408086042 129.522686182638 
22.95                          0.9850503173591  128.518972766888 0.00421083318589443 -143.383029769768 0.00421083318589441 -143.383029769767 0.985267996847189 128.687103631539 
23                             0.985128746103564 127.667275737662 0.00406252452741995 -144.226109421579 0.00406252452741996 -144.226109421579 0.985329152894736 127.860220930053 
