! Touchstone file exported from HFSS 3D Layout Design 2026.1.0
!        File:           D:/Work/ADS/HFSS_VERDICT/hfss_sma_connector_cpw.aedt
!        Generated:      02:48:44 PM Aug  5, 2026
!        Design:         SINGLE_END_SMA_CPW_30MM
!        Project:        hfss_sma_connector_cpw
!
! Variables:
!        $sma_Base_D = 6.25mm
!        $sma_Base_L = 8mm
!        $sma_Feet_L = 4mm
!        $sma_Feet_W = 1mm
!        $sma_Front_L = 1.5mm
!        $sma_Front_W = 6.5mm
!        $sma_Hole_D = 1.25mm
!        $sma_PTFE_D = 4.2mm
!        $sma_Pin_D = 0.95mm
!        $sma_Pin_P = 1.7mm
!
# GHz S MA R 50.000000
! Terminal data exported
! Port[1] = Port1
! Port[2] = S1_1_Pin_T1
0.5                            0.117599204918387 -143.825581069226 0.982278634763813 -43.5963617889966 0.982278634763814 -43.5963617889965 0.11871994514944 -125.130554883904 
0.6                            0.137290224745956 -154.559338311204 0.978031659763447 -52.1709383576472 0.978031659763448 -52.1709383576466 0.138482131904713 -131.7805617989  
0.7                            0.155275648839553 -165.322702517763 0.97375778442642 -60.7080888254337 0.973757784426422 -60.7080888254329 0.156494603486563 -138.231677460676 
0.8                            0.171469481808179 -176.146010873414 0.969539235690807 -69.2121107417571 0.969539235690809 -69.2121107417564 0.172690655161188 -144.477690986695 
0.9                            0.185826152771615 172.938542524447 0.9654493018181  -77.6873514056774 0.965449301818102 -77.687351405677 0.187048755094333 -150.508770151377 
1                              0.198340685024623 161.897460088685 0.961550262696625 -86.1386704427189 0.961550262696625 -86.1386704427186 0.19959256414846 -156.311932280396 
1.1                            0.209050040930523 150.69612927936  0.957888584994504 -94.5715425439378 0.957888584994503 -94.5715425439377 0.210392336851612 -161.871795743214 
1.2                            0.218034946577505 139.299091805374 0.954490691946986 -102.991921671612 0.954490691946984 -102.991921671612 0.219566461795307 -167.171619048144 
1.3                            0.225421875161564 127.67068181043  0.951360377118326 -111.405972551192 0.951360377118324 -111.405972551192 0.227282466775573 -172.194682627572 
1.4                            0.231384914588476 115.776245883399 0.948478023516077 -119.819742286335 0.948478023516074 -119.819742286335 0.233756964925084 -176.926133157994 
1.5                            0.23614701965292 103.584127181169 0.945801480510923 -128.238819390433 0.945801480510921 -128.238819390434 0.239253857797979 178.644587934074 
1.6                            0.239979750617013 91.0685559946141 0.943268378523496 -136.668011271584 0.943268378523494 -136.668011271584 0.244079809137576 174.520701273568 
1.7                            0.243200144192313 78.2134780016426 0.940799664601843 -145.111061650921 0.940799664601842 -145.111061650921 0.248575756266842 170.694607075213 
1.8                            0.246163020599947 65.0171085451976 0.938304151734926 -153.570423925901 0.938304151734926 -153.570423925901 0.2531032726068  167.144456657622 
1.9                            0.249247063414057 51.496598248104  0.935683863585769 -162.047103112048 0.93568386358577 -162.047103112048 0.258025187146693 163.831629841643 
2                              0.25283374067781 37.6916994189127 0.93283991836666 -170.540576237285 0.932839918366662 -170.540576237285 0.263681150805276 160.700195905169 
2.1                            0.257279784667738 23.6659606268387 0.929678638324158 -179.048797884057 0.92967863832416 -179.048797884057 0.270360651216527 157.679288078304 
2.2                            0.26288632367453 9.50410507063852 0.926117511301467 172.431706636244 0.926117511301469 172.431706636244 0.278277698376641 154.688648175509 
2.3                            0.269870023883856 -4.69486827517916 0.922090589434304 163.905663382598 0.922090589434307 163.905663382598 0.287552118423052 151.646543305046 
2.4                            0.278342469213905 -18.8278511338729 0.917552908001253 155.378796302764 0.917552908001256 155.378796302764 0.298201430566079 148.478308743226 
2.5                            0.288302562241231 -32.7987049049553 0.912483559019422 146.857513655505 0.912483559019424 146.857513655505 0.310144801503436 145.123482630851 
2.6                            0.299643294000417 -46.5275083767547 0.906887161864667 138.348555261119 0.906887161864668 138.348555261119 0.323217608499835 141.540054909277 
2.7                            0.312170380024007 -59.9560574685529 0.900793625454276 129.858625045822 0.900793625454277 129.858625045822 0.337192958128395 137.705414282672 
2.8                            0.325627750550204 -73.0491931515496 0.894256269564659 121.394034264945 0.894256269564659 121.394034264945 0.351805793178563 133.614561927102 
2.9                            0.339724478858497 -85.792826395098 0.887348536485502 112.960378852015 0.887348536485502 112.960378852015 0.36677583044134 129.276673617314 
3                              0.354158975650543 -98.190103680588 0.880159649942439 104.562269873232 0.88015964994244 104.562269873232 0.381826867462715 124.711099256957 
3.1                            0.368638149770575 -110.257050087767 0.872789646717682 96.2031298737069 0.872789646717683 96.2031298737069 0.396701342481152 119.943594378167 
3.2                            0.38289089952007 -122.01857758814 0.865344211777844 87.8850610490179 0.865344211777844 87.8850610490179 0.411170068980708 115.003213586082 
3.3                            0.396676392948442 -133.505272777044 0.857929697498417 79.6087847276115 0.85792969749842 79.6087847276115 0.425037706893702 109.920001842229 
3.4                            0.409788130277662 -144.751040102991 0.850648618891443 71.3736464412804 0.850648618891444 71.3736464412804 0.438144839206867 104.723437675641 
3.5                            0.422054924002602 -155.791496062369 0.84359581069662 63.1776773681778 0.843595810696622 63.1776773681778 0.450367600183178 99.441497124744  
3.6                            0.433339856216887 -166.662945325667 0.83685532844924 55.017701253669  0.836855328449241 55.0177012536691 0.461615741512839 94.1001849043641 
3.7                            0.443538102467734 -177.40177019268 0.830498088774034 46.8894758405455 0.830498088774035 46.8894758405455 0.471829890562605 88.7233899724567 
3.8                            0.452574318709193 171.955907865761 0.824580182295023 38.7878589732462 0.824580182295023 38.7878589732462 0.480978592255952 83.332946266879  
3.9                            0.460400107437814 161.374403330548 0.819141757872785 30.7069914104058 0.819141757872785 30.7069914104058 0.489055558252381 77.9488048142547 
4                              0.466991923603158 150.818559464016 0.814206367217745 22.6404905352436 0.814206367217744 22.6404905352437 0.496077388188473 72.5892456833828 
4.1                            0.472349651127819 140.253820043463 0.809780669652056 14.5816512157167 0.809780669652054 14.5816512157167 0.502081884504169 67.2710758612078 
4.2                            0.476495971192122 129.64632903717  0.805854422372232 6.52365174914211 0.805854422372229 6.52365174914217 0.507126956635807 62.0097723601685 
4.3                            0.479476544800758 118.9631013366   0.802400716539829 -1.54023607067659 0.802400716539825 -1.54023607067637 0.511290001286019 56.8195398691588 
4.4                            0.48136093398697 108.172306063718 0.799376458874882 -9.61643332900405 0.799376458874878 -9.61643332900391 0.514667551669493 51.7132605917833 
4.5                            0.482244077911281 97.2437044866496 0.796723137455725 -17.7108377503076 0.796723137455721 -17.7108377503074 0.517374910019286 46.7023223321446 
4.6                            0.482248014056529 86.1492843998457 0.794367944425765 -25.828606944768 0.794367944425761 -25.8286069447678 0.519545417186207 41.7963211988482 
4.7                            0.481523388501142 74.8641281525822 0.792225352176828 -33.9739451278956 0.792225352176823 -33.9739451278954 0.521328978088333 37.0026491228542 
4.8                            0.480250141432325 63.367537214342  0.790199247736531 -42.1498997612328 0.790199247736527 -42.1498997612325 0.522889463891953 32.325994714376  
4.9                            0.478636610135289 51.6444060229776 0.788185716854258 -50.3581773321405 0.788185716854256 -50.3581773321403 0.524400666399986 27.7678084897069 
5                              0.476916209538763 39.6867860110359 0.786076529941993 -58.5989901619938 0.786076529941991 -58.5989901619937 0.526040602413471 23.3258077053729 
5.1                            0.475340900534523 27.4955051008366 0.783763314570848 -66.8709481616536 0.783763314570847 -66.8709481616536 0.5279841646153  18.9936167093147 
5.2                            0.47417091980008 15.081615944997  0.781142306473382 -75.1710102109657 0.781142306473385 -75.1710102109655 0.530394384469304 14.7606480881377 
5.3                            0.473660781689383 2.46736042854449 0.778119462469261 -83.4945087152464 0.778119462469263 -83.4945087152464 0.533412881839103 10.6123194007534 
5.4                            0.474042360672901 -10.3137021778182 0.774615611221836 -91.8352574561604 0.77461561122184 -91.8352574561605 0.537150368832392 6.53066407622259 
5.5                            0.475506785377323 -23.2177044327358 0.770571233668946 -100.185747039405 0.770571233668952 -100.185747039405 0.541678275881429 2.49533420770749 
5.6                            0.478187649715374 -36.1927468712331 0.765950427957611 -108.537424487612 0.765950427957616 -108.537424487612 0.547022601983862 -1.51508166873038 
5.7                            0.482148335538647 -49.1822992877732 0.760743641931244 -116.881044818968 0.760743641931248 -116.881044818968 0.553160914709484 -5.52157188946245 
5.8                            0.487375800613522 -62.1292945911385 0.754968855576685 -125.207074192717 0.75496885557669 -125.207074192718 0.560023050502899 -9.54323447603204 
5.9                            0.493782032155615 -74.9802864213426 0.748671055636   -133.506117918834 0.748671055636002 -133.506117918834 0.567495563748961 -13.5960188826077 
6                              0.501212828954387 -87.6890267410112 0.741920038102862 -141.769343583459 0.741920038102863 -141.769343583459 0.575429455636324 -17.6918251285427 
6.1                            0.509462163296425 -100.218991874891 0.734806764973739 -149.988870377063 0.734806764973739 -149.988870377063 0.583650294638458 -21.8380391385811 
6.2                            0.518289528159287 -112.544666569347 0.727438652910584 -158.158100259502 0.727438652910581 -158.158100259502 0.591969598128265 -26.0375060799052 
6.3                            0.527437569713187 -124.651672119332 0.719934257068054 -166.271973923382 0.719934257068049 -166.271973923382 0.600196303965102 -30.2888791072775 
6.4                            0.536647818620475 -136.536010082679 0.71241782356056 -174.327143198528 0.712417823560555 -174.327143198528 0.608147296190696 -34.5872412758109 
6.5                            0.545673171885355 -148.202760221449 0.705014126609286 177.67793995899  0.705014126609281 177.67793995899  0.615656203323261 -38.924885642229 
6.6                            0.554286638120868 -159.664543245639 0.697843901911431 169.743010711841 0.697843901911424 169.743010711841 0.622579995474142 -43.2921474572805 
6.7                            0.562286541660053 -170.93998018792 0.691020062304971 161.86604286215  0.691020062304966 161.86604286215  0.628803210146605 -47.6782042632837 
6.8                            0.569498808530668 177.947709090977 0.684644759710863 154.043350430045 0.684644759710859 154.043350430045 0.634239895291532 -52.0717863693885 
6.9                            0.575777146704282 166.971901497793 0.678807256330591 146.269725130389 0.678807256330589 146.269725130389 0.638833549384361 -56.4617655676838 
7                              0.581001946383061 156.103547044698 0.673582497449343 138.538597471743 0.673582497449343 138.538597471743 0.642555455161685 -60.8376107396671 
7.1                            0.585078632911228 145.311944755723 0.669030239640555 130.842212294813 0.669030239640556 130.842212294813 0.645401851244767 -65.1897140318259 
7.2                            0.587936061206669 134.565353184761 0.665194578099772 123.171813253145 0.665194578099776 123.171813253145 0.647390376751481 -69.5096007964202 
7.3                            0.58952538216617 123.831476619175 0.662103729036574 115.517834456609 0.66210372903658 115.517834456609 0.648556174314424 -73.7900414402686 
7.4                            0.589819655198709 113.077868548974 0.65976995090539 107.870100740971 0.659769950905399 107.870100740971 0.648947963128248 -78.0250848504059 
7.5                            0.588814329583415 102.272292113045 0.658189526223296 100.218040297979 0.658189526223304 100.218040297979 0.648624310059206 -82.2100322486933 
7.6                            0.586528564455584 91.3830747871947 0.657342770036621 92.5509141593897 0.657342770036626 92.5509141593898 0.647650244189647 -86.341368038619 
7.7                            0.583007192280999 80.3794922462764 0.657194079690183 84.8580656526875 0.657194079690183 84.8580656526876 0.646094284991662 -90.4166610575739 
7.8                            0.578322942510526 69.2322138225413 0.657692092170709 77.1291887235869 0.657692092170707 77.129188723587  0.644025889052509 -94.4344459646069 
7.9                            0.572578321745067 57.9138379229731 0.658770067565008 69.354606162675  0.658770067564998 69.3546061626752 0.641513263528208 -98.3940902811988 
8                              0.565906288469646 46.3995374220437 0.66034666320267 61.5255363965047 0.660346663202657 61.5255363965048 0.638621441294215 -102.295647424634 
8.1                            0.558468558896515 34.6678179887116 0.662327286028115 53.6343094451075 0.6623272860281  53.6343094451075 0.635410454204623 -106.139688749517 
8.2                            0.550450018468058 22.7013604853777 0.66460617522233 45.6744668736137 0.664606175222315 45.6744668736135 0.631933363098411 -109.927095474401 
8.3                            0.54204722742855 10.4878656384677 0.667069202471663 37.6406426660262 0.667069202471649 37.6406426660261 0.628233785803427 -113.658768445205 
8.4                            0.533448200411767 -1.979257007358  0.669596937119331 29.528061678845  0.669596937119325 29.5280616788447 0.624342381529363 -117.335166133763 
8.5                            0.524798956494116 -14.7005983311156 0.672066464778946 21.3313858568439 0.672066464778947 21.3313858568439 0.620271490315939 -120.955475369022 
8.6                            0.516148309711451 -27.6711203814659 0.674347840706052 13.0424314307723 0.67434784070606 13.0424314307723 0.616006907750464 -124.515968181229 
8.7                            0.507352151008693 -40.8811294929192 0.676284046485819 4.64585639259047 0.676284046485833 4.64585639259056 0.611496418676863 -128.006465063811 
8.8                            0.497892086908662 -54.3159678717227 0.677622221192618 -3.88891712653998 0.677622221192628 -3.88891712654011 0.606640597322861 -131.402136732042 
8.9                            0.486497934872239 -67.9438019978308 0.677793259836977 -12.6223463203916 0.67779325983697 -12.6223463203916 0.601325473094159 -134.643269508123 
9                              0.47035235014145 -81.6372110095127 0.675183684525131 -21.664231522148 0.675183684525093 -21.6642315221465 0.595724096925215 -137.584915697798 
9.1                            0.444159113909695 -94.752768756528 0.664769429400068 -31.1250831918056 0.664769429400011 -31.1250831918003 0.59207335045706 -139.909068200305 
9.2                            0.408065800316985 -104.532935500848 0.634518997192277 -40.3728713307949 0.634518997192274 -40.3728713307886 0.601508354633124 -141.471986518581 
9.3                            0.409037035607905 -108.933587406664 0.594892437081245 -46.2088566865497 0.594892437081155 -46.2088566865533 0.634945053760334 -144.662706163999 
9.4                            0.457705698697988 -118.464926169331 0.598186468408451 -50.4714669334726 0.598186468408302 -50.4714669334618 0.653928637702159 -150.496169711089 
9.5                            0.489933684601901 -132.203156984665 0.61674851055743 -57.2115880646395 0.616748510557392 -57.2115880646287 0.652667266820787 -155.958516927249 
9.6                            0.503952962737127 -145.975416730826 0.62941647136321 -65.1262054515397 0.62941647136321 -65.1262054515375 0.646820496041771 -160.73199410362 
9.7                            0.509174851702005 -159.102772360507 0.636707183587467 -73.3765471623379 0.636707183587446 -73.376547162343 0.640355584979785 -165.157679104997 
9.8                            0.50970401234269 -171.637110993803 0.640645345340124 -81.7530299729498 0.640645345340074 -81.7530299729583 0.633699020529812 -169.37235104385 
9.9                            0.507018635741797 176.325869896418 0.64224596824319 -90.224177754629 0.642245968243135 -90.224177754636 0.627158961877299 -173.404457594062 
10                             0.501652238948378 164.721814449629 0.64178760865961 -98.8033046816569 0.64178760865961 -98.8033046816569 0.621321870359189 -177.269281038241 
