! Touchstone file exported from HFSS 3D Layout Design 2026.1.0
!        File:           D:/Work/SIM/ADS_AUTO_SIM/projects/RFSOC_RF/TX_Fillter.aedt
!        Generated:      12:36:30 AM Aug 31, 2026
!        Design:         TX_BAND1_MCFIL_R13_CNN028
!        Project:        TX_Fillter
!
# GHz S MA R 50.000000
! Terminal data exported
! Port[1] = Port1
! Port[2] = Port2
14                             0.969242518849819 -175.097675800056 0.00433285112828735 179.236168596737 0.00433285112828736 179.236168596737 0.971378095619892 -168.487894340193 
14.05                          0.968658730979882 -176.036094859145 0.00442402403742709 178.815798332952 0.0044240240374271 178.815798332953 0.97084134987209 -169.393367404208 
14.1                           0.968056591508218 -176.981868478587 0.00451962834188933 178.411921791054 0.00451962834188934 178.411921791055 0.970287832504027 -170.305485349444 
14.15                          0.967435234285095 -177.935235191443 0.0046199988271618 178.024636714056 0.00461999882716182 178.024636714057 0.969716742146023 -171.224457499997 
14.2                           0.966793738877821 -178.896445242568 0.00472550114274676 177.653990659686 0.00472550114274677 177.653990659687 0.9691272261356  -172.150503721232 
14.25                          0.966131126320477 -179.86576130887 0.00483653496991299 177.29997424942  0.00483653496991299 177.299974249421 0.968518376406225 -173.083855085077 
14.3                           0.96544635446238 179.156540726257 0.00495353753649496 176.962513945175 0.00495353753649497 176.962513945175 0.967889224978604 -174.024754586649 
14.35                          0.964738312870676 178.17017093945  0.00507698751901752 176.64146437169  0.00507698751901754 176.641464371691 0.967238739009342 -174.973457916936 
14.4                           0.964005817236767 177.174824469478 0.00520740937753329 176.336600214225 0.0052074093775333 176.336600214226 0.966565815345864 -175.930234296816 
14.45                          0.963247603229706 176.170180548957 0.00534537817442668 176.047607734283 0.00534537817442669 176.047607734284 0.965869274529705 -176.895367378214 
14.5                           0.962462319732194 175.155901459083 0.00549152493519387 175.774075960539 0.00549152493519387 175.77407596054  0.965147854182433 -177.869156218895 
14.55                          0.961648521386152 174.131631400099 0.00564654261701748 175.515487627635 0.00564654261701745 175.515487627635 0.964400201699475 -178.85191633808 
14.6                           0.960804660364854 173.096995269342 0.00581119276000829 175.271209951707 0.00581119276000828 175.271209951707 0.963624866166655 -179.843980860909 
14.65                          0.959929077277108 172.051597337885 0.00598631290651717 175.040485347866 0.00598631290651716 175.040485347867 0.962820289402191 179.154298239318 
14.7                           0.959019991095632 170.995019815707 0.00617282488620199 174.822422210575 0.00617282488620196 174.822422210576 0.961984796012898 178.142548791122 
14.75                          0.958075487986283 169.926821294209 0.00637174407889895 174.615985892293 0.00637174407889891 174.615985892294 0.961116582337007 177.120376955901 
14.8                           0.957093508896847 168.846535053586 0.00658418978418182 174.419990027695 0.00658418978418179 174.419990027695 0.960213704127037 176.087365627551 
14.85                          0.956071835743096 167.753667221109 0.00681139684626664 174.233088359224 0.0068113968462666 174.233088359225 0.959274062803913 175.043072686639 
14.9                           0.955008076005351 166.647694764688 0.00705472870617976 174.053767223519 0.00705472870617975 174.053767223519 0.958295390087544 173.987029093393 
14.95                          0.953899645520119 165.528063304243 0.00731569208051213 173.880338856043 0.00731569208051209 173.880338856044 0.957275230778494 172.918736801805 
15                             0.952743749217699 164.394184721271 0.00759595349840378 173.710935662075 0.00759595349840378 173.710935662075 0.956210923429426 171.837666474937 
15.05                          0.951537359517042 163.245434544575 0.00789735796656208 173.543505584874 0.00789735796656208 173.543505584875 0.955099578602578 170.743254978962 
15.1                           0.950277192042441 162.081149087415 0.00822195007719978 173.375808675759 0.00822195007719979 173.37580867576  0.953938054359295 169.634902630592 
15.15                          0.948959678271325 160.90062230822  0.00857199792708306 173.205414935422 0.00857199792708305 173.205414935422 0.952722928568102 168.511970169243 
15.2                           0.947580934656882 159.703102363498 0.00895002027894349 173.029703451238 0.00895002027894348 173.029703451238 0.95145046754693 167.373775421523 
15.25                          0.946136727691329 158.487787817566 0.00935881747116474 172.845862801937 0.00935881747116476 172.845862801937 0.950116590470649 166.219589621336 
15.3                           0.944622434282645 157.253823469248 0.00980150667010695 172.650892639941 0.00980150667010703 172.650892639941 0.94871682887399 165.048633343981 
15.35                          0.943032996706555 156.000295750515 0.010281562164302 172.441606294342 0.010281562164302 172.441606294342 0.947246280458761 163.860072007067 
15.4                           0.941362871262321 154.726227646305 0.0108028615242088 172.214634165945 0.0108028615242088 172.214634165945 0.945699556268603 162.653010884669 
15.45                          0.939605969600869 153.430573078224 0.0113697385990547 171.966427612189 0.0113697385990548 171.966427612189 0.944070720118764 161.426489573927 
15.5                           0.937755591500849 152.112210687536 0.0119870444980818 171.693262946576 0.0119870444980818 171.693262946576 0.942353218955981 160.179475845127 
15.55                          0.935804347635167 150.769936944722 0.0126602179127665 171.391245106712 0.0126602179127666 171.391245106712 0.940539802565976 158.910858797007 
15.6                           0.933744070588164 149.402458503852 0.0133953663859055 171.056310479321 0.0133953663859056 171.056310479321 0.938622430732949 157.619441228708 
15.65                          0.931565712040799 148.008383710222 0.0141993604307557 170.684228310974 0.0141993604307557 170.684228310974 0.936592165573878 156.303931128233 
15.7                           0.929259223623932 146.586213159106 0.0150799427581301 170.270600080697 0.0150799427581301 170.270600080697 0.934439046304227 154.962932164627 
15.75                          0.926813418430997 145.134329192409 0.0160458552926082 169.810856164716 0.0160458552926082 169.810856164716 0.932151943120811 153.594933057388 
15.8                           0.92421580955972 143.650984208842 0.0171069871638584 169.300249083436 0.0171069871638585 169.300249083435 0.929718386187244 152.198295682252 
15.85                          0.921452421292153 142.134287652669 0.0182745474604771 168.733842583964 0.0182745474604771 168.733842583964 0.92712436484664 150.77124175792  
15.9                           0.9185075675913  140.582191537385 0.0195612672485711 168.106495775208 0.0195612672485711 168.106495775208 0.924354091127198 149.311837944595 
15.95                          0.91536359145265 138.992474355534 0.0209816362038069 167.412841492824 0.0209816362038069 167.412841492824 0.921389720302296 147.817979173995 
16                             0.912000557254096 137.362723227434 0.0225521802024434 166.647258023932 0.0225521802024434 166.647258023932 0.918211019661455 146.287370024376 
16.05                          0.908395886544734 135.69031415416  0.0242917873808848 165.803833262077 0.0242917873808847 165.803833262077 0.914794974674653 144.717503957384 
16.1                           0.904523925641447 133.97239027075  0.0262220915159973 164.876320287609 0.0262220915159973 164.876320287608 0.911115319311979 143.105640252636 
16.15                          0.900355430898194 132.205838054766 0.0283679230992636 163.858083274696 0.0283679230992636 163.858083274696 0.907141974326124 141.448778521117 
16.2                           0.895856954515721 130.387261549055 0.0307578401531228 162.742032513283 0.0307578401531227 162.742032513283 0.902840373726143 139.743630765263 
16.25                          0.890990110226071 128.512954830093 0.0334247526023402 161.520547205798 0.0334247526023401 161.520547205798 0.898170655386104 137.986591106064 
16.3                           0.88571069411872 126.578873231338 0.0364066557302858 160.185384564336 0.0364066557302858 160.185384564336 0.893086686695403 136.17370355226  
16.35                          0.879967631370277 124.580604270205 0.0397474896629881 158.727573614413 0.0397474896629881 158.727573614414 0.887534890406321 134.300628599982 
16.4                           0.873701714976406 122.513339911432 0.0434981424796818 157.137292042803 0.0434981424796818 157.137292042803 0.881452829577677 132.362610108549 
16.45                          0.86684409837708 120.371852855677 0.0477176136768906 155.403724471852 0.0477176136768906 155.403724471852 0.874767504287338 130.354444930504 
16.5                           0.859314501321698 118.150481160946 0.0524743510400494 153.514900804132 0.0524743510400495 153.514900804132 0.867393307722421 128.270459380551 
16.55                          0.851019089673682 115.843127972773 0.0578477654427398 151.457513925593 0.0578477654427398 151.457513925593 0.859229587538272 126.104499111863 
16.6                           0.841847999078265 113.443286884457 0.0639299114384876 149.216717345428 0.0639299114384876 149.216717345428 0.850157764001587 123.849942787722 
16.65                          0.831672496367374 110.944109102675 0.0708272916886607 146.775905694202 0.0708272916886607 146.775905694202 0.840037976444002 121.499755781148 
16.7                           0.820341822761832 108.338537073813 0.0786626926893966 144.116485016401 0.0786626926893966 144.116485016401 0.82870527599406 119.046609029939 
16.75                          0.807679858140183 105.619541830226 0.0875768769192132 141.217646388752 0.0875768769192132 141.217646388752 0.815965475412731 116.483101616944 
16.8                           0.793481915495254 102.78051980008  0.0977298273748765 138.056166853623 0.0977298273748764 138.056166853623 0.80159093817771 113.802145762819 
16.85                          0.777512263723706 99.8159313858262 0.109301045816939 134.606277666393 0.109301045816939 134.606277666393 0.785316887879168 110.997602597552 
16.9                           0.759503447266102 96.7223005762847 0.122488127003889 130.839663383048 0.122488127003889 130.839663383048 0.766839315998137 108.065299928628 
16.95                          0.739159198859718 93.4997436204363 0.137502458793288 126.725688066614 0.137502458793288 126.725688066614 0.745816351609842 105.004623064182 
17                             0.716163794364593 90.1542531973301 0.154560456594206 122.23198692438  0.154560456594205 122.23198692438  0.721876121650237 101.820948918088 
17.05                          0.690202071391131 86.7010209536709 0.173868333057956 117.325608477631 0.173868333057956 117.325608477631 0.694635706869269 98.5292888058648 
17.1                           0.660995806888369 83.1691028295154 0.195598282788901 111.974929642978 0.1955982827889  111.974929642978 0.663737620356293 95.1595984745256 
17.15                          0.628363033701549 79.6076423880369 0.219854609673505 106.152562707224 0.219854609673504 106.152562707224 0.628911684969003 91.7642539749087 
17.2                           0.592305668768542 76.0935137451481 0.24663046127172 99.8393754842021 0.246630461271719 99.8393754842021 0.590069847169844 88.4280602041555 
17.25                          0.553124989474534 72.7393513687659 0.275760166704474 93.0294845484404 0.275760166704474 93.0294845484405 0.547436890248702 85.2806027053112 
17.3                           0.511550931711917 69.6990771410902 0.306878628316078 85.7356091360921 0.306878628316077 85.7356091360921 0.501708110337857 82.5092590112145 
17.35                          0.468848229759245 67.1647808440406 0.339405671291201 77.9935488767048 0.339405671291201 77.9935488767048 0.454203628664224 80.3677586797414 
17.4                           0.426833791794415 65.3444319112222 0.372574739796605 69.8640357167311 0.372574739796606 69.864035716731  0.406959141634562 79.1682128248626 
17.45                          0.387719691410044 64.4076228693168 0.405515898611755 61.4302703408958 0.405515898611755 61.4302703408957 0.36265961958909 79.2332318875598 
17.5                           0.353714690091567 64.3962898402673 0.43738168212422 52.7904736631671 0.437381682124221 52.790473663167  0.324297566700762 80.7772913091797 
17.55                          0.326417597961965 65.1325018252601 0.467480492159006 44.0466039474194 0.467480492159007 44.0466039474191 0.294466837145974 83.7182811416484 
17.6                           0.30622741481079 66.2017830407754 0.495372835968617 35.2920984899749 0.495372835968617 35.2920984899746 0.274410861223061 87.5362539146446 
17.65                          0.292134958144842 67.0730108283562 0.520900354972871 26.6019848254119 0.52090035497287 26.6019848254116 0.263361205633021 91.3929557840161 
17.7                           0.282088486850072 67.2946020774253 0.544147535484266 18.0276242124257 0.544147535484265 18.0276242124254 0.258800895368721 94.5181130231564 
17.75                          0.273699528107177 66.6230727626292 0.56536122295696 9.59644903121487 0.565361222956959 9.59644903121461 0.257533592061276 96.5217192715203 
17.8                           0.264856789795624 65.0217820962937 0.584860498271131 1.31547885186955 0.584860498271129 1.31547885186934 0.256726881658711 97.4026070538876 
17.85                          0.25402391640595 62.5867799206132 0.602961223966944 -6.82322302211186 0.602961223966943 -6.82322302211196 0.254397879371848 97.3843377452939 
17.9                           0.240269964607708 59.473937141662  0.619925949953754 -14.8367727066563 0.619925949953753 -14.8367727066563 0.249431350837824 96.7690826972333 
17.95                          0.223172777632919 55.8578279620159 0.635939181030388 -22.7463971785623 0.635939181030388 -22.7463971785623 0.241410710629512 95.8667377815232 
18                             0.202697482160546 51.9215640450167 0.651102777031355 -30.5735320063599 0.651102777031356 -30.5735320063598 0.230438806141038 94.9780534594263 
18.05                          0.179095255398908 47.871567034347  0.665445160369548 -38.3371625498273 0.66544516036955 -38.3371625498272 0.217009231134044 94.4022617099802 
18.1                           0.152834402437652 43.9818090314832 0.678938829706015 -46.0522939938046 0.678938829706018 -46.0522939938045 0.201932089133552 94.4492683436167 
18.15                          0.12456854177212 40.7005549925981 0.691521872716289 -53.7293658080029 0.691521872716293 -53.7293658080029 0.186297563887323 95.4401297644185 
18.2                           0.0951695096852537 38.9444696569242 0.703120100177684 -61.3744125896301 0.703120100177689 -61.3744125896302 0.171447506500042 97.6734862060992 
18.25                          0.0659760565017751 41.1002286678925 0.713667063019085 -68.9897753206362 0.713667063019089 -68.9897753206363 0.158901713528625 101.327812907357 
18.3                           0.0401848666834549 55.1697270219961 0.723119782815335 -76.5751698620667 0.723119782815339 -76.5751698620669 0.150157444702998 106.292648983362 
18.35                          0.0296493577291981 98.9083283734143 0.731468725987184 -84.1289243815525 0.731468725987187 -84.1289243815527 0.146314278826459 112.025986935804 
18.4                           0.0449238478143364 133.848601924868 0.738741434180131 -91.6492117859417 0.738741434180133 -91.6492117859418 0.147663040368296 117.645582865178 
18.45                          0.0690722351725907 142.650194086596 0.745000175889974 -99.1351325294977 0.745000175889975 -99.1351325294978 0.153568085803356 122.299152778371 
18.5                           0.0937274467132248 142.569219344964 0.750334806520149 -106.587546708745 0.750334806520149 -106.587546708745 0.16278248524853 125.500732138512 
18.55                          0.116885237496634 139.18600453525  0.754852534943004 -114.009605515329 0.754852534943003 -114.009605515329 0.173926174337078 127.168018727134 
18.6                           0.137860423056212 134.235072606985 0.758666415986053 -121.406981500451 0.758666415986053 -121.40698150045 0.185813881839419 127.459830791084 
18.65                          0.156383209457295 128.38668186421  0.761884163617991 -128.787836456493 0.76188416361799 -128.787836456492 0.197571797981285 126.613225323504 
18.7                           0.172396582023755 121.941537594948 0.764598435422613 -136.162590563957 0.764598435422614 -136.162590563956 0.2086299360117  124.853309356485 
18.75                          0.18599231554693 115.046326035334 0.766879221117633 -143.543566553271 0.766879221117634 -143.543566553271 0.218671887963914 122.359925666746 
18.8                           0.197384063601355 107.77501119366  0.768768489785449 -150.944580750051 0.768768489785452 -150.944580750051 0.227581168601986 119.262083068179 
18.85                          0.206893070670751 100.165074716141 0.770276871003575 -158.380542827777 0.770276871003579 -158.380542827776 0.23539631786769 115.642226150481 
18.9                           0.214938748641752 92.2366122456911 0.771381874780739 -165.867111115445 0.771381874780743 -165.867111115444 0.242276137771386 111.542549639449 
18.95                          0.222030506212529 84.0043826083077 0.772026978458027 -173.420432157203 0.772026978458031 -173.420432157202 0.248473574843825 106.970901799625 
19                             0.228758232640747 75.4866770392521 0.772120808694558 178.943027929441 0.772120808694561 178.943027929441 0.254316791667393 101.906163804367 
19.05                          0.235779148241569 66.7121365160518 0.771535625716184 171.20657784864  0.771535625716185 171.20657784864  0.260196745890276 96.3039280363534 
19.1                           0.24379919537126 57.7240949329171 0.770104409757208 163.353369135599 0.770104409757206 163.353369135599 0.266561135358566 90.1035906527896 
19.15                          0.253548069791072 48.5811848479235 0.767616128189236 155.366521685962 0.76761612818923 155.366521685962 0.273914189561661 83.2378650088944 
19.2                           0.265748212361513 39.3530458569903 0.763809332241934 147.229430900844 0.763809332241925 147.229430900844 0.282819909021252 75.6452041685056 
19.25                          0.281078878891918 30.1112949563403 0.758365215229852 138.926419234295 0.758365215229839 138.926419234295 0.293902794438414 67.2846012819759 
19.3                           0.300135929427856 20.9180724978226 0.750902743293329 130.443919695887 0.750902743293313 130.443919695887 0.307835723765284 58.1507227030341 
19.35                          0.323386272288215 11.8162070974396 0.740980376485798 121.772367363635 0.740980376485781 121.772367363636 0.325301919627813 48.2857146601625 
19.4                           0.351114739603726 2.82497777070755 0.728110808253339 112.908893681659 0.728110808253324 112.908893681659 0.346920698238611 37.7833404046551 
19.45                          0.383363409496854 -6.05667007548235 0.711796026245848 103.860728871686 0.711796026245836 103.860728871686 0.373137774101248 26.7826476550609 
19.5                           0.419870664793932 -14.8406143270968 0.691588086774944 94.648899846326  0.691588086774935 94.6488998463269 0.404098711689558 15.4523131023066 
19.55                          0.460027681399085 -23.5372197521536 0.667174385368702 85.3114068441018 0.667174385368697 85.3114068441026 0.439541070666648 3.97100284103968 
19.6                           0.502877559921627 -32.1443486837637 0.638474513744077 75.9047252337963 0.638474513744075 75.9047252337966 0.478746804480008 -7.48971085044767 
19.65                          0.547179120670952 -40.6410524981074 0.605722580421144 66.5024693799936 0.605722580421145 66.5024693799933 0.520585227716813 -18.7760973042788 
19.7                           0.59153915350997 -48.987461772737 0.569502344565876 57.1906069609737 0.569502344565876 57.1906069609726 0.563649681505772 -29.7570809418992 
19.75                          0.63458889605938 -57.1302850738249 0.530711241248782 48.0596912595776 0.530711241248779 48.0596912595758 0.60645738367534 -40.3258316342819 
19.8                           0.675157984222747 -65.0116247209663 0.490453865315107 39.1957395491767 0.490453865315099 39.1957395491741 0.647657359879968 -50.4003996320776 
19.85                          0.712397561806286 -72.5781172484523 0.449893736361148 30.671972929742  0.449893736361135 30.6719729297388 0.686189783271696 -59.923978061916 
19.9                           0.745825817163105 -79.7878959549076 0.41010709922775 22.5432751287298 0.410107099227731 22.5432751287262 0.721362961639449 -68.8642326228895 
19.95                          0.775300048525627 -86.614156619935 0.371976052758569 14.8441554502029 0.371976052758545 14.8441554501992 0.752847643011681 -77.2111213617221 
20                             0.8009415359451  -93.0454559124333 0.336137361119389 7.58984571206772 0.336137361119362 7.58984571206413 0.78061372869736 -84.9732497135479 
20.05                          0.823044775693581 -99.0837157670818 0.302981976268461 0.779455797966985 0.302981976268432 0.779455797963747 0.80484247482651 -92.1733672208785 
20.1                           0.841994858124771 -104.741112013136 0.272688296324085 -5.60000890722956 0.272688296324056 -5.60000890723233 0.825840860953224 -98.8437800702192 
20.15                          0.858204709537642 -110.036795363552 0.245270581253693 -11.5696923610024 0.245270581253665 -11.5696923610046 0.843972791993757 -105.022287203652 
20.2                           0.872074101477679 -114.994012837833 0.220628532544043 -17.155522854244 0.220628532544016 -17.1555228542455 0.859611263718618 -110.748955059419 
20.25                          0.883966925252386 -119.637862345388 0.198590162509863 -22.3856287600537 0.19859016250984 -22.3856287600546 0.873109316506455 -116.063788930662 
20.3                           0.894201509511705 -123.993694582712 0.178945031254122 -27.2885118157635 0.178945031254102 -27.2885118157637 0.884785145806809 -121.005200363283 
20.35                          0.90304913624868 -128.086067852672 0.161467961674101 -31.8918531363456 0.161467961674084 -31.8918531363453 0.894916643536559 -125.609103823421 
20.4                           0.910737080213115 -131.93812750627 0.145934754357565 -36.2218002114342 0.14593475435755 -36.2218002114335 0.903741571768677 -129.908470359729 
20.45                          0.917453718320048 -135.571287802837 0.132131804930371 -40.3025952476107 0.132131804930359 -40.3025952476096 0.911460701573053 -133.933190453367 
20.5                           0.923354231371562 -139.00511622365 0.119861383462123 -44.1564322651272 0.119861383462114 -44.156432265126 0.918242218984037 -137.710132032234 
20.55                          0.928566097606792 -142.257345420157 0.108943995960912 -47.8034591708474 0.108943995960905 -47.8034591708462 0.924226407468788 -141.263311831872 
20.6                           0.933194004328733 -145.343960108198 0.0992188848593225 -51.2618658677209 0.0992188848593179 -51.2618658677199 0.929530083689252 -144.614124604305 
20.65                          0.937324051590989 -148.279323525528 0.0905434124631131 -54.5480187230063 0.0905434124631103 -54.5480187230054 0.934250549690476 -147.781594370917 
20.7                           0.941027253631481 -151.076320681493 0.0827918287898048 -57.6766157182175 0.0827918287898038 -57.6766157182171 0.938468988212995 -150.782625810326 
20.75                          0.944362405516562 -153.746504386316 0.0758537489361407 -60.6608463358619 0.0758537489361408 -60.660846335862 0.942253313978685 -153.632243249478 
20.8                           0.947378404790471 -156.300235910744 0.0696325425180581 -63.5125467757861 0.0696325425180593 -63.5125467757868 0.945660533915145 -156.343810819801 
20.85                          0.950116119614411 -158.746815929728 0.0640437553032922 -66.2423453592562 0.0640437553032941 -66.2423453592576 0.948738683533467 -158.929231155457 
20.9                           0.952609886892164 -161.094603794675 0.0590136293263362 -68.8597956831831 0.0590136293263386 -68.8597956831853 0.951528407347526 -161.399122299164 
20.95                          0.954888712268332 -163.351124628896 0.0544777536055323 -71.3734967468937 0.0544777536055352 -71.3734967468965 0.954064245469844 -163.762973775459 
21                             0.956977231780026 -165.523164579118 0.0503798565802651 -73.7912002504418 0.0503798565802682 -73.7912002504455 0.956375680308613 -166.02928345611 
21.05                          0.958896483806527 -167.616855005109 0.0466707390113083 -76.1199058020275 0.0466707390113116 -76.119905802032 0.958487988700403 -168.205677120031 
21.1                           0.960664530352798 -169.637746597432 0.0433073392471889 -78.3659450360677 0.0433073392471921 -78.3659450360729 0.960422936837712 -170.299012658494 
21.15                          0.962296958716944 -171.590874476084 0.0402519193908707 -80.5350557398711 0.0402519193908739 -80.5350557398771 0.962199348388095 -172.315470796133 
21.2                           0.963807288108208 -173.480815302007 0.0374713596508657 -82.6324470847295 0.0374713596508688 -82.6324470847363 0.963833570338626 -174.260634052129 
21.25                          0.96520730059647 -175.31173736772 0.0349365481551097 -84.6628570004045 0.0349365481551125 -84.6628570004118 0.965339856272104 -176.139555492113 
21.3                           0.966507311666704 -177.087444546496 0.032621854189467 -86.6306026477345 0.0326218541894695 -86.6306026477423 0.966730682863648 -177.956818642243 
21.35                          0.967716392417746 -178.811414885819 0.030504673849506 -88.539624849077 0.0305046738495084 -88.5396248490852 0.968017012236151 -179.716589765037 
21.4                           0.968842552907219 179.513165461471 0.0285650382538701 -90.3935272402969 0.0285650382538721 -90.3935272403053 0.969208510294577 178.577336461719 
21.45                          0.969892894156809 177.88337236158  0.0267852756366887 -92.1956108164846 0.0267852756366904 -92.195610816493 0.970313729152381 176.921496963617 
21.5                           0.970873734775492 176.296517351673 0.0251497197464901 -93.9489044593268 0.0251497197464916 -93.9489044593349 0.971340260166898 175.312725211708 
21.55                          0.971790716938537 174.750124361529 0.0236444579955692 -95.6561919581788 0.0236444579955704 -95.6561919581865 0.972294862830849 173.748120422979 
21.6                           0.972648895502678 173.241909108961 0.0222571137130364 -97.3200359696113 0.0222571137130374 -97.3200359696182 0.973183573756557 172.225020448561 
21.65                          0.973452813284841 171.769760826877 0.0209766576552758 -98.942799301136 0.0209766576552765 -98.9427993011424 0.974011799184105 170.740977860087 
21.7                           0.974206564937998 170.331726026579 0.0197932446245033 -100.52666385334 0.019793244624504 -100.526663853346 0.974784393801422 169.293738814133 
21.75                          0.974913851388134 168.925994042109 0.0186980716481723 -102.073647510003 0.0186980716481726 -102.073647510007 0.975505728149441 167.88122433404  
21.8                           0.975578026423706 167.550884135148 0.0176832546891555 -103.585619227163 0.0176832546891557 -103.585619227166 0.976179746472176 166.501513699116 
21.85                          0.976202136732333 166.204833969698 0.0167417212991783 -105.064312538808 0.0167417212991785 -105.064312538809 0.976810016538872 165.152829674429 
21.9                           0.976788956442502 164.886389291351 0.0158671170056166 -106.511337668122 0.0158671170056165 -106.511337668121 0.977399772696691 163.833525351278 
21.95                          0.977341017037997 163.594194667865 0.0150537235434702 -107.928192408533 0.0150537235434702 -107.92819240853 0.977951953194724 162.542072399919 
22                             0.977860633359805 162.326985166568 0.0142963873180793 -109.316271917481 0.0142963873180792 -109.316271917476 0.978469232643177 161.277050562955 
22.05                          0.978349926286651 161.083578860323 0.0135904567169663 -110.676877547457 0.0135904567169663 -110.67687754745 0.978954050327239 160.037138240796 
22.1                           0.978810842585045 159.86287006765  0.0129317270872079 -112.011224823062 0.0129317270872079 -112.011224823053 0.979408634977053 158.821104040249 
22.15                          0.979245172338119 158.663823244607 0.0123163923631715 -113.320450659123 0.0123163923631716 -113.320450659111 0.97983502649819 157.627799174154 
22.2                           0.979654564295773 157.485467456324 0.0117410024728225 -114.605619903112 0.0117410024728226 -114.605619903097 0.980235095087102 156.456150614443 
22.25                          0.980040539433932 156.326891365035 0.0112024257729172 -115.867731274875 0.0112024257729174 -115.867731274858 0.980610558089958 155.305154913444 
22.3                           0.980404502965599 155.187238679127 0.0106978158675036 -117.107722767809 0.0106978158675039 -117.107722767789 0.980962994908443 154.173872618981 
22.35                          0.980747755009118 154.06570401442  0.0102245822529998 -118.326476567919 0.0102245822530002 -118.326476567897 0.981293860210466 153.061423218035 
22.4                           0.981071500088139 152.961529124697 0.00978036430903238 -119.524823540513 0.0097803643090329 -119.524823540489 0.981604495665638 151.966980551759 
22.45                          0.981376855611979 151.873999463527 0.00936300821916278 -120.70354732843 0.00936300821916343 -120.703547328405 0.981896140393464 150.889768651532 
22.5                           0.981664859463585 150.802441043809 0.00897054646125637 -121.863388100644 0.00897054646125714 -121.863388100617 0.982169940285378 149.829057951767 
22.55                          0.981936476804203 149.746217565326 0.00860117955497058 -123.005045985597 0.00860117955497143 -123.005045985569 0.982426956339148 148.784161840372 
22.6                           0.982192606188695 148.704727783898 0.00825325979482267 -124.129184219764 0.0082532597948236 -124.129184219736 0.982668172125083 147.754433512336 
22.65                          0.982434085072572 147.67740309869  0.00792527673255798 -125.236432038509 0.00792527673255894 -125.236432038481 0.982894500487262 146.739263095869 
22.7                           0.982661694780971 146.663705336784 0.00761584420290702 -126.32738733329 0.00761584420290801 -126.327387333263 0.983106789569247 145.738075023954 
22.75                          0.982876165000544 145.663124716391 0.00732368871302368 -127.402619096669 0.00732368871302467 -127.402619096643 0.983305828241988 144.750325627255 
22.8                           0.983078177847346 144.675177972051 0.00704763903852953 -128.462669674192 0.00704763903853046 -128.462669674169 0.983492351001608 143.775500926926 
22.85                          0.98326837155708 143.699406626943 0.00678661688867393 -129.508056840218 0.00678661688867474 -129.508056840199 0.983667042396136 142.813114608238 
22.9                           0.983447343838274 142.735375398954 0.00653962852008911 -130.539275712911 0.00653962852008974 -130.539275712897 0.983830541032867 141.862706157974 
22.95                          0.983615654923993 141.782670728541 0.00630575719334161 -131.556800522016 0.00630575719334197 -131.556800522008 0.983983443211673 140.923839150351 
23                             0.983773830353405 140.84089941762  0.00608415637927723 -132.561086241632 0.00608415637927723 -132.561086241632 0.984126306224068 139.996099667842 
