! Touchstone file exported from HFSS 3D Layout Design 2026.1.0
!        File:           D:/Work/SIM/ADS_AUTO_SIM/projects/RFSOC_RF/TX_Fillter.aedt
!        Generated:      08:09:34 AM Aug 31, 2026
!        Design:         TX_BAND1_MCFIL_R74_CNN031
!        Project:        TX_Fillter
!
# GHz S MA R 50.000000
! Terminal data exported
! Port[1] = Port1
! Port[2] = Port2
14                             0.972874521840003 -165.452196650604 0.00364436119928813 -176.84929677339 0.00364436119928813 -176.849296773389 0.974907575852111 -160.072954335501 
14.05                          0.97236852504317 -166.330254503964 0.00371767995179126 -177.208074914307 0.00371767995179126 -177.208074914307 0.974451783360919 -160.914564520617 
14.1                           0.971846185229378 -167.214444111714 0.00379459351548586 -177.546077931668 0.00379459351548588 -177.546077931669 0.973981769266396 -161.761670111499 
14.15                          0.971306674631415 -168.104965669497 0.0038753889119733 -177.862931155836 0.00387538891197332 -177.862931155836 0.973496832778428 -162.614439522391 
14.2                           0.970749109092297 -169.002030165041 0.00396038148463016 -178.158307004497 0.00396038148463019 -178.158307004497 0.972996226343955 -163.473050026433 
14.25                          0.970172543252738 -169.905860105335 0.00404991801680901 -178.431933547794 0.00404991801680904 -178.431933547796 0.97247915172425 -164.337688341236 
14.3                           0.969575965243004 -170.816690303632 0.00414438021684978 -178.683603907319 0.0041443802168498 -178.68360390732 0.971944755674228 -165.208551261567 
14.35                          0.968958290819148 -171.734768732166 0.00424418861521501 -178.913186499504 0.00424418861521502 -178.913186499505 0.9713921251762  -166.085846343713 
14.4                           0.968318356875233 -172.660357447163 0.00434980692507002 -179.120636117551 0.00434980692507003 -179.120636117553 0.970820282173929 -166.969792646539 
14.45                          0.967654914253431 -173.593733593485 0.00446174692455627 -179.306005825935 0.0044617469245563 -179.306005825937 0.970228177745223 -167.860621534881 
14.5                           0.966966619762654 -174.535190497104 0.00458057392702851 -179.46945961767 0.00458057392702854 -179.469459617671 0.969614685642515 -168.758577551536 
14.55                          0.966252027303221 -175.485038854605 0.00470691291485634 -179.611285756946 0.00470691291485635 -179.611285756948 0.96897859512059 -169.663919364852 
14.6                           0.965509577979807 -176.44360803001 0.00484145542329209 -179.73191069878 0.00484145542329211 -179.731910698781 0.968318602958729 -170.576920799732 
14.65                          0.964737589067021 -177.411247470506 0.00498496727369775 -179.831913443482 0.00498496727369776 -179.831913443484 0.967633304570563 -171.497871960836 
14.7                           0.963934241671022 -178.388328254086 0.00513829727049654 -179.912040148199 0.00513829727049657 -179.9120401482  0.966921184078629 -172.4270804578  
14.75                          0.963097566905924 -179.375244783782 0.00530238699404747 -179.973218781699 0.00530238699404747 -179.9732187817  0.96618060321147 -173.364872743508 
14.8                           0.962225430374771 179.627583354973 0.00547828184281178 179.98342642598  0.00547828184281182 179.983426425978 0.965409788858545 -174.311595577837 
14.85                          0.961315514710554 178.619709355141 0.00566714350339914 179.956561018308 0.00566714350339913 179.956561018307 0.964606819091672 -175.26761763086 
14.9                           0.960365299892158 177.600656945849 0.00587026405719567 179.94462713515  0.00587026405719567 179.94462713515  0.963769607430196 -176.233331241256 
14.95                          0.95937204100188 176.569917923151 0.00608908196832638 179.945831442409 0.00608908196832635 179.945831442408 0.962895885089773 -177.209154347747 
15                             0.958332743033721 175.526949426505 0.00632520024093081 179.958134489332 0.00632520024093079 179.958134489331 0.961983180910198 -178.195532613675 
15.05                          0.957244132292971 174.471170929984 0.00658040708564311 179.979241800877 0.00658040708564308 179.979241800877 0.961028798604665 -179.192941767501 
15.1                           0.956102623845317 173.401960912939 0.00685669949757725 -179.993403019662 0.00685669949757725 -179.993403019662 0.960029790909354 179.798109814952 
15.15                          0.954904284374776 172.318653169869 0.0071563102232241 -179.962622955608 0.00715631022322409 -179.962622955608 0.958982930135972 178.777078257248 
15.2                           0.95364478969043 171.220532713578 0.00748173868412162 -179.93150986234 0.00748173868412162 -179.93150986234 0.957884674538005 177.743381024842 
15.25                          0.952319375977568 170.106831219146 0.00783578653419806 -179.903424323473 0.00783578653419804 -179.903424323474 0.956731129790412 176.696393425596 
15.3                           0.9509227837136  168.976721948678 0.00822159865924319 -179.881993146047 0.00822159865924318 -179.881993146047 0.955518004747858 175.635444725451 
15.35                          0.949449192955669 167.829314088153 0.00864271058586258 -179.871104698899 0.00864271058586256 -179.871104698898 0.954240560482788 174.559813830548 
15.4                           0.94789214844606 166.663646417751 0.0091031034594397 -179.874902447919 0.00910310345943968 -179.874902447919 0.952893551404708 173.468724480533 
15.45                          0.946244472661691 165.478680225653 0.00960726798339285 -179.89777719936 0.00960726798339285 -179.89777719936 0.951471157017184 172.361339890382 
15.5                           0.944498164540514 164.27329136242  0.0101602789944194 -179.944358721785 0.0101602789944194 -179.944358721785 0.949966902568108 171.236756769854 
15.55                          0.942644281131904 163.046261318402 0.0107678826916996 179.980492427788 0.0107678826916996 179.980492427788 0.94837356647775 170.093998640601 
15.6                           0.940672798816453 161.796267190296 0.0114365989561165 179.871691903086 0.0114365989561165 179.871691903086 0.946683071970036 168.932008361208 
15.65                          0.938572449992978 160.521870384925 0.0121738417056955 179.723936291998 0.0121738417056955 179.723936291999 0.944886359762802 167.749639760099 
15.7                           0.93633053019848 159.221503888793 0.0129880608570421 179.531704348792 0.0129880608570421 179.531704348791 0.942973237963488 166.545648265871 
15.75                          0.933932669461575 157.893457911614 0.0138889102258122 179.289253421107 0.0138889102258122 179.289253421107 0.940932204431335 165.318680414901 
15.8                           0.931362560229041 156.535863691846 0.0148874466343361 178.990609671238 0.0148874466343362 178.990609671238 0.938750235758808 164.067262108266 
15.85                          0.928601632369494 155.146675234263 0.0159963666402483 178.629550609937 0.0159963666402483 178.629550609937 0.936412535634939 162.789785486254 
15.9                           0.925628663447552 153.723648737138 0.0172302887026141 178.19957837522  0.0172302887026141 178.199578375221 0.933902233606963 161.484494292235 
15.95                          0.922419309549973 152.264319465148 0.0186060903153278 177.693882086186 0.0186060903153277 177.693882086186 0.931200023061375 160.149467613724 
16                             0.918945538275775 150.765975842641 0.0201433117215966 177.105287468535 0.0201433117215966 177.105287468535 0.928283724486916 158.782601925239 
16.05                          0.915174940884185 149.225630594946 0.0218646403410721 176.426191769835 0.0218646403410721 176.426191769835 0.925127756622443 157.381591427876 
16.1                           0.911069894801864 147.639988875924 0.0237964930502826 175.648481744358 0.0237964930502825 175.648481744358 0.921702493772564 155.943906804408 
16.15                          0.90658654047121 146.005413525071 0.0259697169935698 174.76343217874  0.0259697169935698 174.76343217874  0.917973482220248 154.466772717176 
16.2                           0.90167352761857 144.317887955707 0.0284204336493935 173.761582045615 0.0284204336493935 173.761582045615 0.913900482114694 152.947144717698 
16.25                          0.896270475234266 142.572977780801 0.0311910553106778 172.632584919885 0.0311910553106778 172.632584919885 0.90943629336227 151.381686787103 
16.3                           0.890306076862671 140.765793283973 0.034331507624449 171.365029799309 0.034331507624449 171.365029799309 0.904525314962869 149.766751603126 
16.35                          0.883695768602733 138.890956478306 0.0379006956594423 169.946228003132 0.0379006956594422 169.946228003132 0.899101777352511 148.098367015959 
16.4                           0.876338862817145 136.942579145829 0.041968252734296 168.361961509852 0.0419682527342959 168.361961509852 0.893087577840735 146.372234397784 
16.45                          0.868115039027554 134.914262525615 0.0466166083642454 166.596188179651 0.0466166083642452 166.596188179651 0.886389642864941 144.583747953523 
16.5                           0.858880081332743 132.799136194041 0.0519433995801611 164.630700218953 0.051943399580161 164.630700218953 0.878896743026752 142.728049428306 
16.55                          0.848460771766614 130.589964713475 0.0580642206075364 162.444734727921 0.0580642206075362 162.444734727921 0.870475708369615 140.800140964762 
16.6                           0.836648915633469 128.279368282939 0.0651156461419867 160.014540480921 0.0651156461419865 160.014540480921 0.860967051913512 138.795091707727 
16.65                          0.823194632552899 125.860231766498 0.0732583515741474 157.312915281763 0.0732583515741472 157.312915281762 0.850180144760347 136.708393359972 
16.7                           0.807799374581795 123.326421000962 0.0826799558635477 154.308746566572 0.0826799558635477 154.308746566572 0.83788835813054 134.536549242076 
16.75                          0.790109764499177 120.673994825609 0.0935968805810064 150.966619293203 0.0935968805810062 150.966619293203 0.823825099370968 132.278023901912 
16.8                           0.769714498586378 117.903207450682 0.106253989621937 147.246606311036 0.106253989621937 147.246606311036 0.807682579311984 129.934738258746 
16.85                          0.746148543894875 115.021751479884 0.120919989348414 143.104435205955 0.120919989348414 143.104435205955 0.789116673695652 127.514365348441 
16.9                           0.718912061402239 112.049903525407 0.137875528401253 138.492337539795 0.137875528401253 138.492337539795 0.767763598748545 125.033743713596 
16.95                          0.687516157023003 109.028477868403 0.157389832617963 133.361024953612 0.157389832617963 133.361024953612 0.743277309269955 122.523717130744 
17                             0.651573246195151 106.030650991165 0.179681182970619 127.663362784128 0.179681182970619 127.663362784127 0.715399750659904 120.035478843027 
17.05                          0.610954042784889 103.178425316606 0.204858021019213 121.36032066643  0.204858021019213 121.36032066643  0.684076594804271 117.647735037493 
17.1                           0.566029227647484 100.662802150124 0.232843261010785 114.429468960906 0.232843261010785 114.429468960906 0.649622530019819 115.47220297881  
17.15                          0.517988293694566 98.7614699423097 0.263296623235131 106.875392727165 0.263296623235131 106.875392727165 0.612912369613184 113.651668026085 
17.2                           0.46916097287353 97.8350975479709 0.29556688993944 98.7397927217635 0.29556688993944 98.7397927217634 0.57551951417963 112.340727749205 
17.25                          0.423141366765022 98.2606487076412 0.328717459765205 90.1072175778923 0.328717459765205 90.1072175778922 0.53965711276206 111.65882231134  
17.3                           0.384359188980829 100.246101721362 0.361655517983936 81.1017540484033 0.361655517983935 81.1017540484032 0.507767868954919 111.618065549855 
17.35                          0.356755076463703 103.546860841854 0.393346951899936 71.8723100074114 0.393346951899935 71.8723100074113 0.481763195851572 112.060928222003 
17.4                           0.341853956091445 107.338340036509 0.423039199072688 62.5693144100284 0.423039199072688 62.5693144100284 0.46223227596114 112.669544808402 
17.45                          0.337679051092783 110.560243553835 0.450394630853733 53.3205570441625 0.450394630853733 53.3205570441624 0.448135680110136 113.072449673118 
17.5                           0.339731596621117 112.493727483192 0.475484235615602 44.2144888418639 0.475484235615602 44.2144888418639 0.437214769796048 112.983550418483 
17.55                          0.343103989028329 112.981528900832 0.498667377202134 35.2950777973644 0.498667377202135 35.2950777973643 0.426798865910914 112.27773106653  
17.6                           0.343950836852033 112.24565142103  0.520427177660936 26.5668419360609 0.520427177660937 26.5668419360608 0.41449951301666 110.9804548156   
17.65                          0.339856686093098 110.647841044791 0.541223381079826 18.0056437541119 0.541223381079827 18.0056437541118 0.398552315324086 109.218797084661 
17.7                           0.329620624003378 108.567402968442 0.561391670750837 9.57091854393158 0.561391670750837 9.57091854393145 0.377876229403566 107.182471281401 
17.75                          0.312948236191995 106.382187737538 0.581091044218348 1.2166722280989  0.581091044218349 1.21667222809876 0.352018826141382 105.114477466913 
17.8                           0.290259647527278 104.506278843453 0.600289704469011 -7.09979003723306 0.600289704469011 -7.09979003723321 0.321114832492078 103.334183305977 
17.85                          0.262665588742233 103.461421321366 0.618780332255561 -15.4115302832009 0.618780332255561 -15.411530283201 0.285928243312053 102.296133957951 
17.9                           0.232126650410489 103.973472736543 0.636219453418735 -23.7379058478725 0.636219453418734 -23.7379058478726 0.248030557423348 102.695082836881 
17.95                          0.201816331418489 107.048935483207 0.652187391115953 -32.0826981873245 0.652187391115953 -32.0826981873246 0.210196112964824 105.614297111354 
18                             0.176591117672841 113.791772156514 0.666263051063464 -40.4344750967925 0.666263051063463 -40.4344750967925 0.177091868192674 112.556039947087 
18.05                          0.162747864907937 124.346302034467 0.678102698676169 -48.7691379861513 0.678102698676168 -48.7691379861512 0.155757968418396 124.561902056947 
18.1                           0.165147657913421 136.259219079382 0.687507413279579 -57.0543078809372 0.687507413279579 -57.0543078809371 0.153200579933819 139.5545785193   
18.15                          0.183007005826436 145.700901355105 0.694463975205028 -65.2548072809002 0.694463975205028 -65.2548072809   0.169937954455832 152.279370381817 
18.2                           0.210813216721107 150.979191137351 0.699150250255815 -73.3382151193421 0.699150250255815 -73.3382151193419 0.199290119483759 159.893817311958 
18.25                          0.242779290938438 152.642014951848 0.701906455518852 -81.2794862249082 0.701906455518853 -81.2794862249081 0.233923074170689 163.098670951463 
18.3                           0.27484547555048 151.774462279754 0.703183091964489 -89.0639523693836 0.70318309196449 -89.0639523693836 0.268994997707098 163.394479405599 
18.35                          0.304531048194021 149.238122521865 0.703480606508171 -96.6885080162887 0.703480606508172 -96.6885080162886 0.301758745030428 161.901737330268 
18.4                           0.33040326432087 145.596333278668 0.703294148281619 -104.161220143567 0.70329414828162 -104.161220143567 0.330729603608919 159.316459649458 
18.45                          0.351683400014016 141.195759088059 0.70307140358348 -111.499847681466 0.70307140358348 -111.499847681466 0.355156404787576 156.05724906839  
18.5                           0.367999056392799 136.24310277217  0.70318565837361 -118.729793196049 0.70318565837361 -118.729793196049 0.37472372097234 152.377938865342 
18.55                          0.3792305661726  130.855908162066 0.703922125820643 -125.881905184005 0.703922125820642 -125.881905184005 0.389380039403945 148.43526841014  
18.6                           0.385416797650621 125.093634268438 0.705473765991742 -132.990393071746 0.705473765991741 -132.990393071746 0.399236304584742 144.328133212532 
18.65                          0.386701229138927 118.976238187163 0.707942819168404 -140.090974923317 0.707942819168402 -140.090974923317 0.404507833913254 140.120673145035 
18.7                           0.383307371381191 112.495021143125 0.711345256749682 -147.219281388341 0.71134525674968 -147.219281388341 0.405485227040621 135.856094507752 
18.75                          0.375536730783794 105.618510939968 0.715616647067918 -154.409493934312 0.715616647067916 -154.409493934312 0.402525219418535 131.564809228186 
18.8                           0.363784648834029 98.2949718220728 0.720619117389285 -161.693193179333 0.720619117389282 -161.693193179333 0.396054539559057 127.268581258912 
18.85                          0.34857037235135 90.4525831081324 0.72614993413012 -169.098421995211 0.726149934130118 -169.098421995211 0.386580257611696 122.981223891576 
18.9                           0.33057783260196 81.9984039648452 0.731952567735943 -176.649014245208 0.731952567735941 -176.649014245207 0.374699523391218 118.70564374703  
18.95                          0.310702672188281 72.8182411557939 0.737730829533842 175.63571254388  0.737730829533841 175.635712543881 0.361100638994363 114.426604111342 
19                             0.290098237201391 62.7820980403665 0.743165692106008 167.740773378185 0.743165692106008 167.740773378185 0.346547265844702 110.098652401937 
19.05                          0.270206458192189 51.7645478112942 0.747932812379565 159.654725609329 0.747932812379565 159.654725609329 0.331840216490602 105.629587827777 
19.1                           0.25274573386838 39.6942923190454 0.751716911515967 151.368229425136 0.751716911515966 151.368229425136 0.317759264183952 100.861951679797 
19.15                          0.239609300038509 26.6422304314863 0.754217662576817 142.872057312118 0.754217662576816 142.872057312118 0.305002205782878 95.5580142848378 
19.2                           0.232629886877065 12.9217082120026 0.75514139501847 134.154852182621 0.755141395018468 134.15485218262  0.29415716674612 89.3962581262436 
19.25                          0.233245745533552 -0.890263864811526 0.754174477946936 125.201170437464 0.754174477946932 125.201170437464 0.285756445944092 81.9879328107348 
19.3                           0.242253870628893 -14.1049519509805 0.750938219940994 115.990584566384 0.750938219940989 115.990584566383 0.280449141825941 72.9219414608794 
19.35                          0.259859445975391 -26.1890662114867 0.744931955921856 106.498819718101 0.744931955921849 106.498819718101 0.279277329034697 61.8484993470893 
19.4                           0.285971766743629 -36.9473309282803 0.735481146619475 96.7019860223264 0.735481146619469 96.7019860223261 0.283933893492065 48.6110780193252 
19.45                          0.320439976861334 -46.5126022366731 0.72172049760471 86.5847691205424 0.721720497604703 86.5847691205423 0.296742235466774 33.4021092031158 
19.5                           0.362993633991551 -55.21029601667  0.702654231508609 76.1526202300149 0.702654231508603 76.1526202300149 0.320079930161661 16.8319731320738 
19.55                          0.412920606487575 -63.4038117314734 0.677334013354979 65.4461560412359 0.677334013354976 65.446156041236  0.355317881837117 -0.225284556211857 
19.6                           0.468714190330601 -71.3795604139834 0.645158447633295 54.5532231177473 0.645158447633295 54.5532231177474 0.401900887279279 -16.9506146372484 
19.65                          0.527963492745863 -79.2902500820412 0.606216273490803 43.6118325132261 0.606216273490806 43.6118325132261 0.457218060291436 -32.8024474753909 
19.7                           0.587642451606626 -87.1542816001771 0.561507910479103 32.7982665986696 0.561507910479108 32.7982665986694 0.517294612636098 -47.5187113723254 
19.75                          0.644716407034285 -94.8948430951808 0.512881096216156 22.3008668368786 0.512881096216161 22.300866836878  0.57785887165481 -61.0103948368899 
19.8                           0.696777280632042 -102.394164218919 0.462659893087329 12.2883128119346 0.462659893087334 12.2883128119336 0.635301630002229 -73.2732646161067 
19.85                          0.742411858568684 -109.540211321274 0.413135776621336 2.88477060542206 0.413135776621339 2.88477060542064 0.687219078783258 -84.3469544849312 
19.9                           0.781203774228741 -116.253615206445 0.366153750953693 -5.84024364002074 0.366153750953695 -5.84024364002246 0.732476971339039 -94.300300521282 
19.95                          0.813480960015094 -122.494824318396 0.322924654509035 -13.8677783984146 0.322924654509035 -13.8677783984164 0.770945464248437 -103.223010436998 
20                             0.839991465187945 -128.258592578436 0.284047171262462 -21.2171333953366 0.284047171262461 -21.2171333953387 0.803122883388091 -111.216887893831 
20.05                          0.86163523013728 -133.563624276988 0.249645562096323 -27.9317439821706 0.24964556209632 -27.9317439821726 0.829805166563691 -118.387112476268 
20.1                           0.879293989746531 -138.442484729155 0.219533543867716 -34.0672242505271 0.219533543867713 -34.0672242505291 0.851860937757483 -124.835311121445 
20.15                          0.89374724168818 -142.93391009295 0.193353687743956 -39.6829057187352 0.193353687743952 -39.682905718737 0.870106812290126 -130.655150619169 
20.2                           0.905644986561142 -147.077777424703 0.170676529472435 -44.8366299912706 0.170676529472432 -44.8366299912722 0.885253329631276 -135.930205500383 
20.25                          0.91551100139338 -150.912210962248 0.151062531062297 -49.58197392336  0.151062531062294 -49.5819739233614 0.897892153714838 -140.733452882768 
20.3                           0.923759205448904 -154.472152627573 0.134096413064165 -53.9670680968492 0.134096413064162 -53.9670680968504 0.90850366112178 -145.127747110769 
20.35                          0.930713451363357 -157.788835919333 0.119403340609049 -58.0343584739866 0.119403340609046 -58.0343584739876 0.917472491376286 -149.166786381274 
20.4                           0.936626191251713 -160.889769301468 0.106654233485363 -61.8208726136607 0.106654233485361 -61.8208726136615 0.925104598977801 -152.896257211059 
20.45                          0.941694326871576 -163.798978636595 0.0955650982309  -65.358719867679 0.0955650982308978 -65.3587198676796 0.931642905821289 -156.354977565064 
20.5                           0.946071955851512 -166.537360365743 0.0858934215617708 -68.6756701684125 0.0858934215617691 -68.6756701684129 0.937280545320013 -159.575949054071 
20.55                          0.949880316643932 -169.123063069451 0.077433393889006 -71.7957285148104 0.0774333938890049 -71.7957285148108 0.942171593694108 -162.587282295076 
20.6                           0.953215418879954 -171.571854990615 0.0700109289488014 -74.7396652346988 0.0700109289488008 -74.739665234699 0.94643955732681 -165.412989013611 
20.65                          0.956153847805698 -173.897458144089 0.0634789653803436 -77.5254863001665 0.0634789653803432 -77.5254863001665 0.95018399669633 -168.07364910358 
20.7                           0.958757165013689 -176.111842322246 0.057713261674021 -80.168840863868 0.0577132616740209 -80.168840863868 0.953485661926052 -170.586966993082 
20.75                          0.961075245369109 -178.22547889688 0.0526087464327959 -82.6833695364503 0.0526087464327961 -82.6833695364503 0.956410465188563 -172.968233236784 
20.8                           0.963148813556033 179.752442552454 0.04807640948679 -85.0809996365805 0.0480764094867902 -85.0809996365806 0.959012555029875 -175.230706573718 
20.85                          0.965011380078101 177.813830521331 0.0440406843354821 -87.3721944146912 0.0440406843354826 -87.3721944146913 0.961336701452457 -177.385930038834 
20.9                           0.966690726523529 175.95153627386  0.0404372598538863 -89.5661630480483 0.0404372598538868 -89.5661630480485 0.963420153170037 -179.443992776689 
20.95                          0.968210051739777 174.159222692312 0.0372112583294698 -91.6710375644519 0.0372112583294704 -91.6710375644521 0.965294090469281 178.586252688484 
21                             0.969588861949809 172.43125348103  0.0343157215829925 -93.694022061588 0.0343157215829932 -93.6940220615882 0.966984767568282 176.697009673733 
21.05                          0.970843666594706 170.762599433807 0.0317103538292826 -95.6415187945912 0.0317103538292832 -95.6415187945917 0.968514415754399 174.881386458207 
21.1                           0.971988525983706 169.148758970529 0.0293604773031072 -97.5192349735352 0.0293604773031079 -97.5192349735358 0.969901961444617 173.133269934818 
21.15                          0.973035485242671 167.585690598147 0.0272361636539114 -99.3322734713125 0.0272361636539122 -99.3322734713132 0.971163600377324 171.447219429435 
21.2                           0.973994920491128 166.069755341917 0.0253115103344025 -101.085210095106 0.0253115103344032 -101.085210095107 0.972313259398837 169.818377143599 
21.25                          0.974875816839823 164.597667524865 0.0235640365643256 -102.782159615501 0.0235640365643263 -102.782159615502 0.973362969961039 168.242392340329 
21.3                           0.975685993092097 163.166452551474 0.0219741779648348 -104.426832366112 0.0219741779648354 -104.426832366113 0.974323171896956 166.715356928337 
21.35                          0.97643228451966 161.77341058237  0.0205248627115617 -106.022582912249 0.0205248627115622 -106.02258291225 0.975202961836834 165.233750531959 
21.4                           0.977120692450455 160.416085177228 0.0192011551471734 -107.572452028797 0.0192011551471739 -107.572452028798 0.976010297430381 163.794393482468 
21.45                          0.977756507422818 159.092236139912 0.0179899553290036 -109.079203015662 0.017989955329004 -109.079203015664 0.976752166099901 162.394406447641 
21.5                           0.978344411157927 157.799815928732 0.0168797450581264 -110.545353205438 0.0168797450581267 -110.54535320544 0.977434725176918 161.031175643829 
21.55                          0.978888561458587 156.536949100654 0.0158603726251005 -111.973201375524 0.0158603726251008 -111.973201375525 0.978063418832189 159.702322759078 
21.6                           0.979392663266404 155.30191434546  0.0149228698842077 -113.364851659988 0.014922869884208 -113.364851659988 0.978643076092004 158.405678865542 
21.65                          0.979860028434872 154.093128737705 0.0140592963903819 -114.72223446029 0.014059296390382 -114.722234460291 0.979177993364424 157.13926172146  
21.7                           0.980293626253571 152.909133893601 0.013262606248916 -116.047124774696 0.0132626062489162 -116.047124774697 0.97967200421949 155.901255962637 
21.75                          0.980696126351979 151.748583769044 0.0125265340764263 -117.341158300743 0.0125265340764264 -117.341158300744 0.980128538633348 154.689995765132 
21.8                           0.981069935293022 150.610233875717 0.0118454970840796 -118.605845610856 0.0118454970840796 -118.605845610857 0.980550673484619 153.503949628043 
21.85                          0.981417227915862 149.492931726054 0.0112145107963877 -119.842584656185 0.0112145107963877 -119.842584656185 0.98094117575676 152.341706980755 
21.9                           0.981739974289113 148.395608346108 0.0106291163316266 -121.052671816136 0.0106291163316266 -121.052671816137 0.98130253963355 151.201966364913 
21.95                          0.982039962977968 147.317270718983 0.010085317509857 -122.237311679741 0.0100853175098569 -122.237311679742 0.981637018461317 150.083524979491 
22                             0.982318821202635 146.256995041319 0.00957952633512618 -123.397625718645 0.00957952633512608 -123.397625718645 0.981946652379766 148.985269409074 
22.05                          0.982578032364152 145.213920691994 0.00910851563058554 -124.534659989366 0.00910851563058544 -124.534659989367 0.982233292284567 147.906167382006 
22.1                           0.982818951331946 144.187244826263 0.00866937779782184 -125.649391983773 0.00866937779782171 -125.649391983772 0.982498620672265 146.845260427287 
22.15                          0.983042817821142 143.176217520485 0.00825948883178371 -126.742736730839 0.0082594888317836 -126.742736730838 0.982744169826387 145.801657317795 
22.2                           0.98325076813363 142.180137402655 0.00787647685610891 -127.815552239296 0.0078764768561088 -127.815552239295 0.982971337728628 144.774528203171 
22.25                          0.983443845492693 141.198347712582 0.00751819455511632 -128.868644359219 0.00751819455511621 -128.868644359217 0.983181402017355 143.763099349035 
22.3                           0.98362300916467 140.230232742864 0.00718269497206633 -129.902771130753 0.00718269497206623 -129.902771130751 0.983375532264949 142.76664841051  
22.35                          0.983789142531146 139.275214618102 0.00686821022164124 -130.918646679673 0.00686821022164116 -130.91864667967 0.983554800803458 141.784500177628 
22.4                           0.983943060250345 138.332750375146 0.00657313273051521 -131.916944712122 0.00657313273051508 -131.916944712119 0.983720192293156 140.816022738415 
22.45                          0.984085514625731 137.402329311828 0.00629599867547047 -132.89830165454 0.0062959986754704 -132.898301654537 0.983872612199555 139.860624012435 
22.5                           0.98421720128258 136.483470575584 0.00603547333550161 -133.863319479243 0.00603547333550152 -133.86331947924 0.984012894320112 138.917748613586 
22.55                          0.984338764238853 135.575720966839 0.00579033811414373 -134.812568251316 0.00579033811414364 -134.812568251313 0.984141807481483 137.98687500612  
22.6                           0.984450800444531 134.678652934993 0.00555947902204868 -135.746588428259 0.00555947902204864 -135.746588428256 0.984260061511048 137.067512922275 
22.65                          0.984553863853331 133.79186274746  0.00534187643857339 -136.665892940128 0.00534187643857336 -136.665892940126 0.98436831257195 136.159201013774 
22.7                           0.984648469082066 132.914968814416 0.0051365959956466 -137.570969074687 0.0051365959956466 -137.570969074684 0.984467167938631 135.261504712744 
22.75                          0.984735094705513 132.047610153948 0.00494278044811459 -138.462280189196 0.00494278044811458 -138.462280189193 0.98455719027947 134.374014280518 
22.8                           0.984814186228404 131.189444983926 0.00475964241267964 -139.340267267993 0.00475964241267963 -139.340267267991 0.98463890150427 133.49634302524  
22.85                          0.984886158770782 130.340149428505 0.00458645787291451 -140.205350342753 0.00458645787291452 -140.205350342752 0.984712786226759 132.628125671442 
22.9                           0.984951399498381 129.499416328413 0.00442256036103893 -141.057929790366 0.00442256036103894 -141.057929790365 0.984779294885855 131.769016866595 
22.95                          0.985010269825744 128.666954145383 0.00426733573851219 -141.898387521658 0.0042673357385122 -141.898387521658 0.984838846563836 130.918689811358 
23                             0.985063107416379 127.842485952093 0.00412021750730083 -142.727088072601 0.00412021750730084 -142.727088072601 0.984891831534842 130.076835001677 
