! Touchstone file exported from HFSS 3D Layout Design 2026.1.0
!        File:           D:/Work/ADS/HFSS_VERDICT/hfss_sma_connector_cpw.aedt
!        Generated:      07:44:14 PM Aug  5, 2026
!        Design:         SINGLE_END_SMA_CPW_30MM
!        Project:        hfss_sma_connector_cpw
!
! Variables:
!        $sma_Base_D = 6.25mm
!        $sma_Base_L = 8mm
!        $sma_Feet_L = 4mm
!        $sma_Feet_W = 1mm
!        $sma_Front_L = 1.5mm
!        $sma_Front_W = 6.5mm
!        $sma_Hole_D = 1.25mm
!        $sma_PTFE_D = 4.2mm
!        $sma_Pin_D = 0.95mm
!        $sma_Pin_P = 1.7mm
!
# GHz S MA R 50.000000
! Terminal data exported
! Port[1] = Port1
! Port[2] = S1_1_Pin_T1
0.5                            0.0841672044195599 -135.431063828178 0.986236404130265 -42.26305953901  0.986236404130265 -42.26305953901  0.0845972659726648 -130.906580002289 
0.6                            0.0974907484745466 -144.524953644545 0.983430879474439 -50.5980795684724 0.983430879474432 -50.5980795684721 0.0978818093926808 -138.83038975527 
0.7                            0.109200971457729 -153.617143942614 0.980683225929869 -58.9072934414466 0.980683225929864 -58.9072934414461 0.109497937474544 -146.583948279491 
0.8                            0.119170418189664 -162.744950921686 0.978052523542387 -67.1931789457269 0.978052523542385 -67.1931789457264 0.119328674460685 -154.165190220188 
0.9                            0.127301797434861 -171.943503430179 0.975596098440824 -75.4588704120788 0.975596098440824 -75.4588704120785 0.127289793082364 -161.563536503475 
1                              0.133530638417647 178.750546628933 0.973361209678961 -83.7081861146129 0.973361209678962 -83.7081861146127 0.133331331709522 -168.760153344023 
1.1                            0.137827428577863 169.2961179642   0.971380393630064 -91.9454521293486 0.971380393630065 -91.9454521293486 0.137439928215061 -175.727388854362 
1.2                            0.140199699884961 159.645044338451 0.969669233443689 -100.175266370182 0.969669233443688 -100.175266370182 0.139641651694697 177.57258618746  
1.3                            0.140694780367644 149.739243833184 0.968225685178335 -108.402250622466 0.968225685178333 -108.402250622466 0.140005632338177 171.189959481343 
1.4                            0.139403934407579 139.507377575165 0.967030509558806 -116.630807245362 0.967030509558804 -116.630807245362 0.138649075469097 165.190246912734 
1.5                            0.136468603751991 128.860791224393 0.966048605244273 -124.864889588184 0.966048605244272 -124.864889588184 0.135744347056588 159.657839528718 
1.6                            0.13208948760166 117.688822720961 0.965231148273222 -133.10779482725 0.965231148273221 -133.10779482725 0.131528778099021 154.69945824049  
1.7                            0.126539182335253 105.854284359277 0.964518466978366 -141.361988979527 0.964518466978366 -141.361988979527 0.126317503647383 150.445791202248 
1.8                            0.120178709568749 93.1916311058492 0.963843558980255 -149.628974320155 0.963843558980255 -149.628974320155 0.120518532168804 147.047456424261 
1.9                            0.113476619332449 79.513868522515  0.963136108850295 -157.909208731867 0.963136108850296 -157.909208731867 0.114646270253383 144.657912774625 
2                              0.107024623406611 64.6401022274925 0.962326806484871 -166.202084503878 0.962326806484871 -166.202084503878 0.109323406222806 143.392432406754 
2.1                            0.101533494169989 48.4605048486031 0.961351710091138 -174.50597081785 0.961351710091138 -174.50597081785 0.105251481157302 143.255509919585 
2.2                            0.0977789472606672 31.0449033732311 0.960156356941089 177.18168018755  0.960156356941089 177.18168018755  0.103125569146158 144.052858260469 
2.3                            0.0964674585042485 12.7513458981678 0.958699311868905 168.864168898152 0.958699311868906 168.864168898152 0.103488990856096 145.350111499781 
2.4                            0.0980415141115793 -5.77835114312551 0.956954866655489 160.545335475921 0.95695486665549 160.545335475921 0.106580821162281 146.554721326882 
2.5                            0.102531434648615 -23.8123436003166 0.954914665506679 152.229313579982 0.954914665506679 152.229313579982 0.112271349350731 147.106975724606 
2.6                            0.109568038899097 -40.7945920358949 0.952588127304468 143.920268410009 0.952588127304469 143.920268410009 0.120130792961758 146.647358044815 
2.7                            0.118539469128026 -56.4749209137332 0.950001651013216 135.622138229236 0.950001651013217 135.622138229236 0.12957432353198 145.055107316238 
2.8                            0.128769976726351 -70.8598245733484 0.94719670836813 127.338397753122 0.947196708368131 127.338397753122 0.1399940525179  142.383136186903 
2.9                            0.1396344638494  -84.0941413831262 0.944227028906339 119.071859081417 0.944227028906338 119.071859081417 0.150836271989597 138.770409537819 
3                              0.150603589925258 -96.3663014470803 0.941155151582399 110.824521675188 0.941155151582399 110.824521675188 0.161630744993213 134.379044311286 
3.1                            0.161248412460712 -107.858296265159 0.93804864692716 102.597477920475 0.93804864692716 102.597477920475 0.171993217003439 129.361909015695 
3.2                            0.171229220773582 -118.72720497938 0.934976304541647 94.3908758137002 0.934976304541646 94.3908758137003 0.181617154444079 123.850627527449 
3.3                            0.180281113221584 -129.102505574661 0.932004540279673 86.203935887141  0.932004540279673 86.203935887141  0.190262898406624 117.953962312028 
3.4                            0.188200947119238 -139.089498411042 0.929194217564164 78.0350160940135 0.929194217564165 78.0350160940135 0.197747473046238 111.760451774231 
3.5                            0.194836748620279 -148.774275195662 0.926598010575311 69.8817161737871 0.926598010575311 69.8817161737871 0.203935989892447 105.342290579967 
3.6                            0.200079458528544 -158.228456457754 0.924258374331713 61.7410119776374 0.924258374331712 61.7410119776375 0.208734731496688 98.7591954235157 
3.7                            0.203856621034922 -167.513184137686 0.922206135238237 53.6094101511821 0.922206135238237 53.6094101511822 0.212085756925915 92.0618370373909 
3.8                            0.206127655780405 -176.682354987551 0.920459678857546 45.4831141666773 0.920459678857545 45.4831141666773 0.213962847995244 85.2947753288491 
3.9                            0.206880448918182 174.214754650676 0.919024689434841 37.3581936813037 0.919024689434841 37.3581936813038 0.214368647907708 78.4989654435669 
4                              0.206129083481056 165.131288631793 0.917894385635855 29.2307503266513 0.917894385635855 29.2307503266514 0.21333287954443 71.713936302012  
4.1                            0.203912591525764 156.020862793582 0.917050195345495 21.0970741323816 0.917050195345495 21.0970741323816 0.210911556884287 64.9797367106775 
4.2                            0.200294656519565 146.83571979358  0.916462815220169 12.9537857575869 0.91646281522017 12.953785757587  0.207187120528913 58.3387188868188 
4.3                            0.195364233425942 137.524865289692 0.916093604409117 4.79796052013395 0.916093604409118 4.79796052013386 0.202269438382671 51.8371881099529 
4.4                            0.189237092512316 128.032099438716 0.915896263746791 -3.37276909511762 0.91589626374679 -3.37276909511776 0.196297611132773 45.5268814302239 
4.5                            0.182058331469033 118.293918730015 0.915818750161374 -11.5601351423956 0.915818750161374 -11.5601351423957 0.189442494322257 39.4661286354335 
4.6                            0.1740059270399  108.237384214436 0.915805370609865 -19.7651821928256 0.915805370609865 -19.7651821928256 0.181909760776505 33.7203651557561 
4.7                            0.165295374187035 97.7782969272295 0.915798991216179 -27.9882429275727 0.915798991216179 -27.9882429275728 0.173943115734018 28.3613739601649 
4.8                            0.15618529753395 86.8204950808575 0.915743287066917 -36.2289418522808 0.915743287066917 -36.2289418522808 0.165826841353951 23.4642159490182 
4.9                            0.146983430470691 75.2579289784648 0.915584948558575 -44.4862266655892 0.915584948558576 -44.4862266655891 0.157886064749687 19.1003432115754 
5                              0.138051219427071 62.9824465909536 0.915275753780054 -52.7584257334909 0.915275753780055 -52.7584257334909 0.150481966348392 15.3252032159927 
5.1                            0.129803131592741 49.9015604646367 0.914774415422293 -61.0433289977262 0.914774415422293 -61.0433289977261 0.143997867460701 12.1595080744669 
5.2                            0.122693537412966 35.9702181496897 0.914048116719246 -69.338288573732 0.914048116719245 -69.338288573732 0.138811842689928 9.56639154688058 
5.3                            0.117181554200952 21.2350927756994 0.913073664481376 -77.6403343779332 0.913073664481375 -77.6403343779332 0.135254244053081 7.43223392342157 
5.4                            0.113667588465136 5.87577445457521 0.911838207699196 -85.9462994646345 0.911838207699197 -85.9462994646344 0.133555948240729 5.5640242579989  
5.5                            0.112410715311594 -9.78907849727302 0.91033949562091 -94.2529494232979 0.910339495620909 -94.2529494232978 0.133802916829754 3.71373891528569 
5.6                            0.113459240433422 -25.3574382297617 0.908585676937993 -102.557110221497 0.908585676937991 -102.557110221497 0.135916564719726 1.62619077901493 
5.7                            0.11663410835622 -40.4462590114553 0.906594668667343 -110.855789265046 0.906594668667343 -110.855789265045 0.139670130891509 -0.909828148314919 
5.8                            0.121577089774993 -54.7826984895933 0.90439314660229 -119.146285128825 0.904393146602288 -119.146285128825 0.144733498918432 -4.02985495567216 
5.9                            0.127835180044767 -68.2371703709734 0.90201522659634 -127.426282301301 0.902015226596339 -127.426282301301 0.150727164935015 -7.7899077273561 
6                              0.134939841016836 -80.8008234598875 0.899500916217724 -135.693928278143 0.899500916217724 -135.693928278143 0.157267944494108 -12.1826646555757 
6.1                            0.142458134032792 -92.540216063112 0.896894419339215 -143.947891332859 0.896894419339213 -143.947891332859 0.163998803277128 -17.1603886407603 
6.2                            0.150015396553512 -103.556385665511 0.894242372851895 -152.18739819896 0.894242372851893 -152.18739819896 0.17060372953933 -22.6551934039177 
6.3                            0.157299254437936 -113.958080288033 0.89159208645913 -160.412251660168 0.89159208645913 -160.412251660168 0.176812203278927 -28.5931651057975 
6.4                            0.164054581056616 -123.84783624206 0.888989845316733 -168.62282863468 0.888989845316731 -168.62282863468 0.182397831504759 -34.9026190357876 
6.5                            0.17007547986162 -133.316427449558 0.886479323053197 -176.820059758357 0.886479323053196 -176.820059758357 0.187174380389115 -41.5181045981992 
6.6                            0.175197276267446 -142.441823846535 0.884100141097387 174.994608254833 0.884100141097386 174.994608254833 0.190991090113136 -48.3817685856335 
6.7                            0.179289670350446 -151.290209741341 0.881886600510215 166.819266027077 0.881886600510213 166.819266027077 0.193728227269567 -55.4432502646758 
6.8                            0.182251320052069 -159.91774248857 0.879866605420565 158.65160914238  0.879866605420563 158.65160914238  0.195293292924738 -62.6588397884537 
6.9                            0.184005771535699 -168.372425784084 0.878060792966456 150.489018308888 0.878060792966456 150.489018308888 0.195618030032301 -69.9903082196178 
7                              0.184498546734872 -176.695846343097 0.876481883147345 142.328650230132 0.876481883147345 142.328650230132 0.194656245813645 -77.4036116677537 
7.1                            0.183695189636591 175.075291102815 0.875134262608973 134.167537126914 0.87513426260897 134.167537126914 0.192382408333352 -84.8675494299952 
7.2                            0.18158009473026 166.907807909869 0.874013818177164 126.002692521244 0.874013818177161 126.002692521244 0.188790950980813 -92.3523833445088 
7.3                            0.178155966223726 158.770810782862 0.87310803772609 117.831220458984 0.87310803772609 117.831220458984 0.183896204766886 -99.8283782725141 
7.4                            0.173443776642903 150.634478376738 0.872396396314422 109.650424825305 0.872396396314422 109.650424825305 0.177732869849451 -107.264184534075 
7.5                            0.167483108078952 142.468764470282 0.871851042981087 101.457914838233 0.871851042981085 101.457914838233 0.170356935731913 -114.624939105247 
7.6                            0.160332772353836 134.241873094289 0.871437796796618 93.2517022586304 0.871437796796612 93.2517022586304 0.161846970604726 -121.869901060499 
7.7                            0.152071624213387 125.918303919512 0.871117448694259 85.0302854239089 0.871117448694257 85.030285423909  0.152305735511276 -128.949343547563 
7.8                            0.142799514137577 117.456168069884 0.870847347873129 76.7927150109856 0.870847347873128 76.7927150109856 0.141862155237535 -135.800280506197 
7.9                            0.13263838987129 108.803305388355 0.870583228726389 68.5386365822301 0.870583228726387 68.5386365822303 0.130673819873684 -142.340388627261 
8                              0.121733674148149 99.8914417412673 0.870281208022393 60.26830557452   0.870281208022394 60.26830557452   0.118930435106111 -148.459180184729 
8.1                            0.110256266524537 90.6271194553811 0.869899855401487 51.9825715273201 0.869899855401484 51.9825715273204 0.106859033053069 -154.005144885593 
8.2                            0.0984059261955725 80.8772758633999 0.869402217101981 43.682830019131  0.869402217101981 43.6828300191314 0.0947323310924969 -158.767546500057 
8.3                            0.0864175517722544 70.4459895797263 0.868757657622113 35.3709429174833 0.868757657622112 35.3709429174834 0.0828822515116354 -162.45315972474 
8.4                            0.0745732552962236 59.0372878248962 0.867943380833626 27.0491299794824 0.867943380833627 27.0491299794825 0.0717203833091779 -164.665790443565 
8.5                            0.0632253809606693 46.1995232233561 0.866945503648482 18.7198373211818 0.866945503648482 18.7198373211817 0.0617624093932942 -164.921170732569 
8.6                            0.0528376679936619 31.2625014339295 0.865759582309052 10.3855905103416 0.865759582309054 10.3855905103417 0.053633806093748 -162.786536623117 
8.7                            0.0440443196104639 13.3568130015606 0.864390531726016 2.04884173451588 0.864390531726018 2.04884173451597 0.0479874053206125 -158.274451305501 
8.8                            0.0376712181660882 -8.16840428007198 0.862851927570527 -6.28817858342211 0.862851927570528 -6.28817858342193 0.0452412259003373 -152.363318453546 
8.9                            0.0345128153930655 -32.5470231416701 0.861164732902756 -14.6235953431398 0.861164732902756 -14.6235953431398 0.045236045842894 -146.875832005109 
9                              0.0347179258955742 -56.84581415473  0.859355539409702 -22.9559980326869 0.859355539409702 -22.9559980326872 0.0472037773900708 -143.384074006136 
9.1                            0.0374580642182005 -78.0654939309304 0.857454452164699 -31.2845179541829 0.857454452164699 -31.2845179541829 0.050138796511268 -142.436226331683 
9.2                            0.0415032166363603 -95.3395650584951 0.855492772536376 -39.6088679707561 0.855492772536374 -39.6088679707563 0.0531553317670657 -143.814139147485 
9.3                            0.0458591349278189 -109.262584871863 0.853500645299077 -47.9293419823613 0.853500645299074 -47.9293419823615 0.0556031511172694 -147.060388394164 
9.4                            0.0499013238258978 -120.66523547456 0.851504834303695 -56.2467740749501 0.851504834303692 -56.2467740749502 0.0570401262236929 -151.761097031989 
9.5                            0.0532824516701415 -130.167658141043 0.849526779035939 -64.5624599216754 0.849526779035942 -64.5624599216751 0.0571768460750625 -157.626589639067 
9.6                            0.0558389372312108 -138.149315729342 0.847581065352928 -72.8780454282461 0.847581065352929 -72.8780454282461 0.0558342154730516 -164.499301016163 
9.7                            0.0575382464479844 -144.808869111289 0.845674420494316 -81.1953897620302 0.845674420494315 -81.1953897620304 0.0529190301003255 -172.358242585399 
9.8                            0.0584565565150747 -150.221517887507 0.843805316698648 -89.5164117894563 0.843805316698645 -89.5164117894563 0.0484161370323308 178.643213856265 
9.9                            0.0587737801268605 -154.38640887789 0.841964239434475 -97.842930582643 0.841964239434476 -97.8429305826429 0.0424020166047793 168.055706863339 
10                             0.0587750304557662 -157.276946553349 0.840134644030323 -106.176512026612 0.840134644030323 -106.176512026612 0.0351069647026703 154.789657610008 
