! Touchstone file exported from HFSS 3D Layout Design 2026.1.0
!        File:           D:/Work/SIM/ADS_AUTO_SIM/projects/RFSOC_RF/TX_Fillter.aedt
!        Generated:      02:12:20 AM Aug 31, 2026
!        Design:         TX_BAND1_MCFIL_R27_CNN046
!        Project:        TX_Fillter
!
# GHz S MA R 50.000000
! Terminal data exported
! Port[1] = Port1
! Port[2] = Port2
14                             0.973999565973179 -162.88638115384 0.00353238630684436 -177.200431338181 0.00353238630684436 -177.200431338181 0.974935156028531 -159.638775912212 
14.05                          0.973532331955707 -163.756224329485 0.00359984806437353 -177.592882801543 0.00359984806437355 -177.592882801542 0.974489636550531 -160.49430733349 
14.1                           0.973050700567163 -164.63167151767 0.00367047755960023 -177.964153707894 0.00367047755960026 -177.964153707893 0.97403063654374 -161.355215214922 
14.15                          0.9725539638046  -165.512891476631 0.00374452522406463 -178.313742950174 0.00374452522406463 -178.313742950173 0.973557504385797 -162.221655206406 
14.2                           0.97204136631342 -166.400061951276 0.00382226629467599 -178.641183663417 0.00382226629467602 -178.641183663416 0.973069545517337 -163.093791154457 
14.25                          0.971512101400193 -167.293370268758 0.00390400356898648 -178.94605109122 0.00390400356898652 -178.946051091218 0.972566018877704 -163.971795638561 
14.3                           0.970965306638719 -168.193013982102 0.00399007048784524 -179.227971361798 0.00399007048784527 -179.227971361798 0.972046132981946 -164.855850550061 
14.35                          0.970400059020357 -169.099201566546 0.00408083458603197 -179.486631214418 0.00408083458603201 -179.486631214416 0.971509041596427 -165.746147717591 
14.4                           0.969815369592828 -170.012153173795 0.00417670135677383 -179.721788704642 0.00417670135677385 -179.721788704641 0.970953838964542 -166.642889583583 
14.45                          0.969210177523808 -170.932101449977 0.00427811858213546 -179.933284900668 0.00427811858213551 -179.933284900667 0.970379554527197 -167.546289936836 
14.5                           0.96858334351646 -171.859292423775 0.0043855811882833 179.878943437717 0.00438558118828334 179.878943437718 0.969785147074875 -168.456574706739 
14.55                          0.96793364249338 -172.793986471967 0.00449963669273656 179.714850231342 0.00449963669273659 179.714850231343 0.969169498258918 -169.373982825364 
14.6                           0.967259755452999 -173.736459370486 0.00462089132014967 179.574265569068 0.00462089132014974 179.574265569069 0.968531405379035 -170.29876716439 
14.65                          0.966560260387916 -174.687003440087 0.00475001687418858 179.456880409518 0.00475001687418861 179.45688040952  0.967869573351552 -171.23119555465 
14.7                           0.965833622137594 -175.645928796855 0.00488775846599924 179.362230635558 0.00488775846599927 179.362230635559 0.967182605748372 -172.171551897023 
14.75                          0.965078181027776 -176.613564719038 0.00503494321502959 179.289680642822 0.00503494321502962 179.289680642823 0.966468994779492 -173.12013737447 
14.8                           0.964292140125383 -177.590261143191 0.00519249005605308 179.238406688542 0.00519249005605311 179.238406688543 0.965727110071782 -174.077271776231 
14.85                          0.963473550909665 -178.576390304248 0.00536142080777136 179.207380271997 0.00536142080777141 179.207380271998 0.964955186072961 -175.043294946569 
14.9                           0.962620297127342 -179.572348536093 0.00554287268409575 179.195351860606 0.00554287268409579 179.195351860608 0.964151307881592 -176.018568372048 
14.95                          0.961730076560068 179.421441748634 0.00573811246003743 179.200835312755 0.00573811246003746 179.200835312755 0.963313395270493 -177.003476923117 
15                             0.960800380385658 178.404529878234 0.00594855254119505 179.222093376209 0.00594855254119507 179.22209337621  0.962439184631271 -177.99843076782 
15.05                          0.95982846975844 177.376434516995 0.00617576923046494 179.257124655366 0.00617576923046497 179.257124655367 0.961526208520141 -179.003867477843 
15.1                           0.95881134916675 176.336641008119 0.00642152353946145 179.303652437304 0.00642152353946148 179.303652437305 0.960571772428409 179.979745650266 
15.15                          0.957745736044636 175.284598433232 0.00668778495721218 179.35911574169  0.00668778495721223 179.359115741691 0.959572928332619 178.951909032729 
15.2                           0.956628026017009 174.219716352801 0.00697675866740287 179.420662909472 0.00697675866740288 179.420662909472 0.958526444496988 177.912087965584 
15.25                          0.955454253038994 173.141361186722 0.0072909168007272 179.485147967621 0.00729091680072723 179.485147967621 0.957428770901103 176.859709487669 
15.3                           0.95422004354617 172.048852188528 0.00763303442433173 179.549129900818 0.00763303442433173 179.549129900818 0.95627599954485 175.794158901489 
15.35                          0.952920563556633 170.941456960005 0.00800623111032262 179.608874826827 0.00800623111032262 179.608874826827 0.955063818735152 174.714775908718 
15.4                           0.951550457450573 169.818386445375 0.00841401909522148 179.660360913062 0.00841401909522148 179.660360913063 0.953787460278942 173.620850311164 
15.45                          0.950103776888592 168.678789335444 0.008860359248794 179.699285692382 0.008860359248794 179.699285692382 0.952441638285682 172.511617221359 
15.5                           0.948573898003739 167.521745802245 0.00934972632212876 179.72107524305  0.00934972632212877 179.721075243051 0.951020478010533 171.386251719474 
15.55                          0.946953424598318 166.346260473456 0.00988718525155139 179.720894498867 0.00988718525155133 179.720894498867 0.949517432832769 170.243862884974 
15.6                           0.945234074574572 165.151254543416 0.0104784806698733 179.693657759045 0.0104784806698733 179.693657759046 0.947925187046627 169.083487122367 
15.65                          0.943406546202236 163.935556903757 0.0111301422358122 179.634038281242 0.0111301422358122 179.634038281243 0.946235541622081 167.904080690748 
15.7                           0.941460360042049 162.697894161829 0.0118496089565286 179.536475671406 0.0118496089565286 179.536475671407 0.944439279443613 166.704511336872 
15.75                          0.939383671359416 161.436879399698 0.0126453763725827 179.395179634316 0.0126453763725827 179.395179634317 0.942526005720814 165.483548921752 
15.8                           0.937163046620594 160.150999511298 0.0135271713310509 179.204128518763 0.0135271713310509 179.204128518763 0.940483958240267 164.23985492237  
15.85                          0.934783196093081 158.838600942028 0.014506160130602 178.957060977066 0.014506160130602 178.957060977066 0.938299780835597 162.971970684509 
15.9                           0.932226652579345 157.497873646283 0.0155951971307739 178.647458951242 0.0155951971307738 178.647458951242 0.935958251817183 161.678304302741 
15.95                          0.929473383779327 156.126833078459 0.0168091225359127 178.268520084495 0.0168091225359126 178.268520084495 0.933441957029582 160.3571160135   
16                             0.926500322549522 154.723300049155 0.0181651200632951 177.813117519662 0.018165120063295 177.813117519662 0.930730894572193 159.006502013692 
16.05                          0.923280795211491 153.284878321942 0.0196831476674617 177.273744865413 0.0196831476674617 177.273744865413 0.92780199487549 157.624376671198 
16.1                           0.919783822819062 151.808929915976 0.021386457510377 176.642443863837 0.0213864575103769 176.642443863837 0.92462853558438 156.208453191828 
16.15                          0.915973263627739 150.292548245189 0.0233022250327882 175.910711956304 0.0233022250327881 175.910711956304 0.921179425339352 154.756222976358 
16.2                           0.911806756580104 148.732529513491 0.0254623113737659 175.069386496574 0.0254623113737659 175.069386496574 0.917418323813719 153.264934183123 
16.25                          0.907234415060512 147.125343272939 0.0279041885305424 174.108501784415 0.0279041885305424 174.108501784415 0.913302557007735 151.731570472405 
16.3                           0.902197207153116 145.467103860041 0.0306720624609805 173.017114384561 0.0306720624609805 173.017114384561 0.908781776625095 150.152831653008 
16.35                          0.896624943018294 143.753545749921 0.0338182354783926 171.783091372378 0.0338182354783925 171.783091372378 0.903796300372773 148.525119144631 
16.4                           0.890433772140657 141.980008024847 0.0374047549824501 170.392855270657 0.0374047549824501 170.392855270657 0.89827505672604 146.844531074748 
16.45                          0.883523074580972 140.141436653556 0.0415053991592991 168.831078653507 0.0415053991592991 168.831078653507 0.892133044631587 145.106874863308 
16.5                           0.875771614823531 138.232418948363 0.0462080485604641 167.080320982381 0.0462080485604641 167.080320982381 0.88526820946146 143.307709974648 
16.55                          0.867032822894698 136.247273748259 0.051617479472733 165.120600756651 0.0516174794727329 165.120600756651 0.877557639132255 141.442441178585 
16.6                           0.857129092792102 134.180235729249 0.0578585800056421 162.928898515906 0.057858580005642 162.928898515906 0.868853014464019 139.506494792593 
16.65                          0.845845077734862 132.025796220316 0.0650799141592263 160.47859241661  0.0650799141592263 160.47859241661  0.858975336094009 137.495629467795 
16.7                           0.832920181640479 129.779301413038 0.0734574112561259 157.738841115446 0.073457411256126 157.738841115446 0.84770915361663 135.406462798486 
16.75                          0.818040918579963 127.437970054505 0.0831976871322645 154.673953676972 0.0831976871322643 154.673953676972 0.834796943957773 133.237340364801 
16.8                           0.800834752146852 125.002588025644 0.0945400327324584 151.24283134293  0.0945400327324583 151.24283134293  0.819935102405377 130.989740441319 
16.85                          0.78086879241547 122.480280054796 0.107755333555125 147.398643161838 0.107755333555125 147.398643161838 0.802774504731225 128.670498784601 
16.9                           0.75765985433062 119.888957288223 0.123139010462731 143.089021507181 0.123139010462731 143.089021507181 0.782931168921235 126.295244676295 
16.95                          0.730707505204896 117.264271413457 0.140993501558516 138.257246222764 0.140993501558516 138.257246222764 0.760016583796559 123.893514551644 
17                             0.699569139583451 114.670049231648 0.161594195648332 132.845117860139 0.161594195648332 132.845117860139 0.733702683473749 121.515907618779 
17.05                          0.664004341559015 112.212840512121 0.185132294918565 126.798427757051 0.185132294918565 126.798427757051 0.703841292336484 119.243008370832 
17.1                           0.624218264312335 110.059351173855 0.211631539120174 120.075907040514 0.211631539120173 120.075907040514 0.670655551347862 117.193891270818 
17.15                          0.581213156032194 108.449922479049 0.240847220441899 112.661874129667 0.240847220441899 112.661874129667 0.634996478187104 115.527779887627 
17.2                           0.537181128689128 107.688549251035 0.272178075596609 104.581011078111 0.272178075596609 104.581011078111 0.598589816306821 114.425632057734 
17.25                          0.495706955700474 108.070975349777 0.304647361293055 95.9107662157324 0.304647361293055 95.9107662157324 0.564082677141002 114.033884159338 
17.3                           0.461342638687849 109.712159773548 0.337013527128626 86.7842579389756 0.337013527128626 86.7842579389756 0.534615054673515 114.366566022984 
17.35                          0.438165214827813 112.322980754855 0.368021937504554 77.3773903263721 0.368021937504554 77.3773903263721 0.512797802289948 115.212750216309 
17.4                           0.427740812640588 115.167288172623 0.396714879189495 67.8804060473734 0.396714879189496 67.8804060473734 0.499509275656288 116.148996104824 
17.45                          0.428083505937293 117.389268500746 0.422653806872787 58.4632562919207 0.422653806872787 58.4632562919206 0.493378489734797 116.700601008679 
17.5                           0.434711984477185 118.448333063351 0.445951042806324 49.248341266683  0.445951042806324 49.248341266683  0.491403610057961 116.536262800147 
17.55                          0.44274703641339 118.246194394838 0.467126816140409 40.2993387709508 0.467126816140409 40.2993387709508 0.490157048743011 115.544471232812 
17.6                           0.44834615161902 116.966891578024 0.48689224148379 31.6256589711264 0.48689224148379 31.6256589711264 0.486719319548363 113.782931265804 
17.65                          0.449050468706341 114.887404170142 0.505954973961595 23.1960245177959 0.505954973961595 23.1960245177959 0.479021655681274 111.391597750039 
17.7                           0.443537512040021 112.278477559286 0.524890521343008 14.9542760429545 0.524890521343007 14.9542760429545 0.46578160531706 108.533293019564 
17.75                          0.431262341909729 109.38188796397  0.544075986729072 6.83325993092958 0.544075986729071 6.8332599309296  0.446307383370777 105.37264244261  
17.8                           0.412200700337545 106.426426290957 0.563665391427317 -1.23450463130722 0.563665391427316 -1.23450463130716 0.420335495431474 102.082733140109 
17.85                          0.38673980774714 103.661293267935 0.583588569792041 -9.30907561616426 0.58358856979204 -9.30907561616422 0.387960365250473 98.8710346917051 
17.9                           0.355705821178456 101.401004036158 0.603565575554579 -17.4375045068505 0.603565575554579 -17.4375045068505 0.349665974427616 96.0256106481102 
17.95                          0.320513906923184 100.082610571966 0.623137383652369 -25.6498866461172 0.623137383652369 -25.6498866461171 0.30646518376646 93.9950919349619 
18                             0.283439806769523 100.329055044727 0.641717798331792 -33.9569683570191 0.641717798331792 -33.956968357019 0.260185874720791 93.5331043397156 
18.05                          0.248000249617095 102.964880277806 0.658669437964483 -42.3496295179942 0.658669437964483 -42.3496295179941 0.214034366284992 95.9454469982315 
18.1                           0.219253367449758 108.778057546135 0.673398745961754 -50.8006839258984 0.673398745961754 -50.8006839258983 0.173685433465445 103.308261242102 
18.15                          0.203187623288747 117.661562867395 0.685454284858585 -59.2691721557892 0.685454284858584 -59.2691721557892 0.148456961267616 117.395099655858 
18.2                           0.20389922727422 127.594412857791 0.694605147011012 -67.7067183341803 0.694605147011012 -67.7067183341803 0.147817841332605 135.098760257426 
18.25                          0.220247926279993 135.634071475125 0.700878147927436 -76.0648548873439 0.700878147927435 -76.0648548873438 0.170613816792269 148.700536453245 
18.3                           0.246819793580844 140.30463965112  0.704544636322699 -84.3018587366049 0.704544636322699 -84.3018587366048 0.206276427769018 155.553460234442 
18.35                          0.277778735725112 141.847562832245 0.706064403626729 -92.3878141136799 0.706064403626728 -92.3878141136799 0.245767906957652 157.532212466829 
18.4                           0.308881481520845 141.078777587098 0.706006407810971 -100.307233273838 0.706006407810971 -100.307233273838 0.28409087506694 156.631889054123 
18.45                          0.337518942001509 138.728472917238 0.704968494222819 -108.059300031353 0.704968494222819 -108.059300031353 0.318748221681248 154.070619504976 
18.5                           0.362232544021586 135.307352168094 0.703512217822082 -115.656328667479 0.703512217822082 -115.656328667479 0.348552946327575 150.52796886051  
18.55                          0.382293670124797 131.143450472645 0.70211950776441 -123.121217656264 0.702119507764409 -123.121217656264 0.373023120858974 146.383650186609 
18.6                           0.397421564874308 126.438846188268 0.701170127738684 -130.48458474639 0.701170127738683 -130.48458474639 0.392071134313785 141.852585879838 
18.65                          0.407606487176502 121.31282377391  0.700934756468103 -137.782044125206 0.700934756468103 -137.782044125206 0.405832996663102 137.056249032558 
18.7                           0.413003731561022 115.830346931963 0.701577682161617 -145.051855649525 0.701577682161617 -145.051855649525 0.414572156390318 132.060980167619 
18.75                          0.413875432005021 110.020028629711 0.703164206739615 -152.333007582642 0.703164206739615 -152.333007582642 0.418628029291047 126.899145547821 
18.8                           0.410565241594809 103.885226802697 0.705669621734787 -159.663702564386 0.705669621734787 -159.663702564386 0.418393392806379 121.580878590914 
18.85                          0.403495900094639 97.4106871409908 0.708988268997358 -167.080188499363 0.708988268997357 -167.080188499363 0.414310731167956 116.100168583675 
18.9                           0.393182539686137 90.566282537419  0.712942384173379 -174.615890118527 0.712942384173379 -174.615890118527 0.406880416296919 110.437089791525 
18.95                          0.380256068337185 83.3089547632423 0.717291023031861 177.699167986351 0.71729102303186 177.699167986351 0.396675041672938 104.556963353658 
19                             0.365491518199716 75.5839468166642 0.721739367102019 169.838619470903 0.721739367102019 169.838619470903 0.384355164095237 98.4068042079621 
19.05                          0.349836073614278 67.326874899565  0.725948126422026 161.779649227575 0.725948126422026 161.779649227575 0.370682903565921 91.9094588195439 
19.1                           0.334430570082686 58.4691459556005 0.729541736152346 153.502493435497 0.729541736152347 153.502493435498 0.356532060399759 84.9565421874252 
19.15                          0.320616168594563 48.9503160856516 0.732112904780235 144.989592023094 0.732112904780237 144.989592023095 0.342896992384116 77.4029172557325 
19.2                           0.309914166670841 38.7407329959388 0.733220397074606 136.224576128808 0.733220397074608 136.224576128808 0.330906333257125 69.0681918294534 
19.25                          0.303962663748594 27.8731102262049 0.732377546487342 127.191467893218 0.732377546487345 127.191467893218 0.321847410556355 59.7539135657397 
19.3                           0.30439491171096 16.4701636439638 0.72903181385628 117.874691367926 0.729031813856282 117.874691367926 0.317194637455413 49.2860154844692 
19.35                          0.312659964023677 4.74353661504186 0.722541487267273 108.260675505963 0.722541487267276 108.260675505963 0.318603217847311 37.5841991422841 
19.4                           0.329814892506275 -7.05339041587385 0.712164340011119 98.3418539612773 0.712164340011121 98.3418539612773 0.327790724730116 24.7367507000099 
19.45                          0.356333172397473 -18.7001898250138 0.69708272193599 88.1235403798773 0.697082721935992 88.1235403798772 0.346234943481384 11.0305291771431 
19.5                           0.391956373437463 -30.0621508414632 0.676494123858491 77.6332454896282 0.676494123858492 77.6332454896281 0.374721315371347 -3.10767301321842 
19.55                          0.435599991973786 -41.088519029059 0.6497846448776  66.9304021911589 0.649784644877601 66.9304021911589 0.412925123160415 -17.2349272937385 
19.6                           0.485351559689081 -51.7698774526452 0.616764345382722 56.1126134411239 0.616764345382723 56.112613441124  0.459253869008561 -30.9966455034005 
19.65                          0.53863434770107 -62.0922635752114 0.577884825625472 45.3137543791161 0.577884825625473 45.3137543791163 0.511053555990154 -44.1564837359166 
19.7                           0.592573066174512 -72.0144972747954 0.53432081819352 34.6912116207021 0.534320818193521 34.6912116207024 0.565117743157358 -56.5710941805267 
19.75                          0.644481331301089 -81.4722338483597 0.487833127926306 24.4043800986981 0.487833127926308 24.4043800986985 0.618322376196298 -68.156203769162 
19.8                           0.692292232103308 -90.3970570806642 0.440442242510487 14.5914459640558 0.440442242510491 14.5914459640562 0.668165628923459 -78.8675324609878 
19.85                          0.7347738554567  -98.7360836719958 0.394048856103001 5.3525392016297  0.394048856103005 5.35253920163017 0.713048300566309 -88.6944197419955 
19.9                           0.771495880409085 -106.463129706184 0.350150418564317 -3.25636558753649 0.350150418564321 -3.25636558753602 0.752267047470788 -97.6566089215139 
19.95                          0.802631609470468 -113.580008923713 0.30972424023733 -11.2197301130839 0.309724240237334 -11.2197301130835 0.785815455911327 -105.798790258101 
20                             0.82871450132578 -120.111229419447 0.273255871005946 -18.5530706204199 0.273255871005951 -18.5530706204196 0.814124224494588 -113.182766093778 
20.05                          0.850432405222258 -126.096265617325 0.240847096518148 -25.29223157195  0.240847096518153 -25.2922315719498 0.837834140026899 -119.879272524317 
20.1                           0.868489727662559 -131.582312968493 0.212342593445589 -31.4840668196076 0.212342593445593 -31.4840668196076 0.857638676228215 -125.96119087419 
20.15                          0.883532265915813 -136.618799408943 0.187439663756664 -37.1795753310601 0.187439663756668 -37.1795753310602 0.874193717464672 -131.498832455927 
20.2                           0.896116214719105 -141.253811136146 0.165768705710386 -42.4294424175273 0.165768705710389 -42.4294424175275 0.888076181131354 -136.557179416819 
20.25                          0.906703138208071 -145.53208047804 0.146945553115281 -47.2814743138754 0.146945553115283 -47.2814743138757 0.899772471036823 -141.194615021426 
20.3                           0.915667769567525 -149.494067072098 0.130601988488063 -51.7793432122901 0.130601988488065 -51.7793432122905 0.909682515531047 -145.462637387753 
20.35                          0.923310676454517 -153.175725445866 0.116401278971603 -55.9621581316688 0.116401278971604 -55.9621581316692 0.9181304683539  -149.406147410269 
20.4                           0.929871586168391 -156.608662618393 0.104044301349105 -59.8645138259313 0.104044301349106 -59.8645138259316 0.92537716211009 -153.064026133483 
20.45                          0.935541466464059 -159.820491124718 0.093270200807631 -63.516789742768 0.0932702008076318 -63.5167897427684 0.93163194090843 -156.469822796995 
20.5                           0.940472711671279 -162.835259110226 0.0838541522598615 -66.9455592762401 0.0838541522598622 -66.9455592762404 0.937062928521575 -159.652450850353 
20.55                          0.944787394588163 -165.673890447283 0.075603795202824 -70.1740286877356 0.0756037952028245 -70.174028687736 0.941805518362276 -162.636838691661 
20.6                           0.948583800150053 -168.354600033223 0.0683552495475396 -73.2224623260322 0.0683552495475399 -73.2224623260324 0.945969202740943 -165.444511795572 
20.65                          0.951941532723981 -170.893268581671 0.0619692032387134 -76.1085731630709 0.0619692032387136 -76.1085731630711 0.949642980608337 -168.094099845599 
20.7                           0.954925482651696 -173.303772032909 0.0563273123572492 -78.8478705334043 0.0563273123572493 -78.8478705334044 0.952899603578458 -170.601771386327 
20.75                          0.957588899771979 -175.598266440881 0.0513290104205017 -81.4539639993532 0.0513290104205018 -81.4539639993532 0.95579889723551 -172.981602664251 
20.8                           0.959975776236463 -177.787431947489 0.0468887446806475 -83.9388258357419 0.0468887446806475 -83.9388258357417 0.958390357440651 -175.245888812797 
20.85                          0.962122698399049 -179.880680528536 0.042933616920778 -86.3130162120327 0.042933616920778 -86.3130162120325 0.96071518291323 -177.405405611712 
20.9                           0.964060291548293 178.113667633003 0.0394013881502607 -88.5858756350203 0.0394013881502606 -88.5858756350201 0.962807871175119 -179.469629441858 
20.95                          0.965814352308843 176.188234570037 0.0362388007988285 -90.7656891253679 0.0362388007988284 -90.7656891253675 0.964697476598502 178.553077829596 
21                             0.967406740949666 174.33645764988  0.0334001726623101 -92.8598262367982 0.03340017266231 -92.8598262367977 0.966408606672393 176.655313244339 
21.05                          0.96885608850831 172.55248182046  0.0308462206009848 -94.8748605553957 0.0308462206009847 -94.8748605553951 0.967962214942443 174.830501536729 
21.1                           0.970178360476782 170.831067936334 0.0285430769563619 -96.8166718279435 0.0285430769563618 -96.8166718279429 0.969376235470901 173.072784216985 
21.15                          0.971387308846013 169.167514590176 0.0264614668272258 -98.6905334074251 0.0264614668272258 -98.6905334074243 0.970666093254868 171.376925557593 
21.2                           0.972494836801776 167.557591290644 0.0245760192270225 -100.501187290432 0.0245760192270225 -100.501187290432 0.971845117107202 169.738232672885 
21.25                          0.97351129470366 165.997481183193 0.0228646895110716 -102.252908661189 0.0228646895110717 -102.252908661189 0.972924875463224 168.15248737086  
21.3                           0.97444572170034 164.483731810583 0.0213082742468596 -103.94956154907 0.0213082742468597 -103.94956154907 0.973915450972626 166.615887861068 
21.35                          0.975306044092068 163.013212660907 0.0198900029166718 -105.594646946393 0.0198900029166719 -105.594646946392 0.974825666220664 165.124998735587 
21.4                           0.976099239085373 161.583078459734 0.0185951935393967 -107.191344515123 0.0185951935393968 -107.191344515122 0.975663270230657 163.676707913715 
21.45                          0.976831470701721 160.190737335946 0.0174109615418879 -108.742548829019 0.017410961541888 -108.742548829018 0.976435093330883 162.268189465277 
21.5                           0.9775082031572  158.833823134015 0.0163259730659431 -110.250900946105 0.0163259730659433 -110.250900946105 0.977147176372711 160.896871411375 
21.55                          0.978134295916716 157.510171263846 0.0153302354265476 -111.718815980251 0.0153302354265477 -111.718815980251 0.977804879049798 159.560407752287 
21.6                           0.978714083763599 156.217797577259 0.0144149186953609 -113.148507235752 0.014414918695361 -113.148507235751 0.978412971105431 158.256654096191 
21.65                          0.979251444553979 154.954879841348 0.0135722034177061 -114.542007381518 0.0135722034177062 -114.542007381518 0.97897570946219 156.983646364428 
21.7                           0.979749856799813 153.719741446244 0.0127951503213792 -115.901187068772 0.0127951503213793 -115.901187068771 0.979496903716656 155.739582133178 
21.75                          0.980212448811217 152.510837040786 0.0120775885746118 -117.22777133541 0.0120775885746119 -117.227771335409 0.979979971975054 154.522804241009 
21.8                           0.980642040802062 151.326739836209 0.0114140197258938 -118.523354089452 0.0114140197258938 -118.523354089451 0.980427988635482 153.331786349423 
21.85                          0.981041181103377 150.166130356885 0.0107995349325837 -119.789410921396 0.0107995349325838 -119.789410921396 0.980843725427452 152.165120191478 
21.9                           0.981412177421901 149.027786449727 0.0102297434767056 -121.027310459535 0.0102297434767057 -121.027310459535 0.981229686783413 151.021504283493 
21.95                          0.981757123915032 147.910574391214 0.00970071089005294 -122.238324452114 0.00970071089005294 -122.238324452114 0.981588140427164 149.899733908221 
22                             0.982077924719495 146.813440954003 0.00920890527893668 -123.423636734751 0.0092089052789367 -123.423636734751 0.981921143910802 148.798692205865 
22.05                          0.982376314462647 145.735406314489 0.00875115066158185 -124.584351219901 0.00875115066158182 -124.584351219901 0.98223056770763 147.717342232796 
22.1                           0.982653876197204 144.675557699096 0.00832458631641959 -125.721499026808 0.00832458631641962 -125.721499026808 0.982518115367217 146.654719867652 
22.15                          0.982912057128139 143.633043681013 0.00792663129395554 -126.836044854727 0.00792663129395549 -126.836044854728 0.982785341156068 145.609927461225 
22.2                           0.983152182441467 142.6070690509   0.00755495337392403 -127.928892688792 0.007554953373924 -127.928892688792 0.983033665539426 144.582128140729 
22.25                          0.98337546749597 141.596890195195 0.00720744185747554 -129.000890916464 0.0072074418574755 -129.000890916464 0.983264388803754 143.570540691081 
22.3                           0.983583028598721 140.601810924286 0.00688218367480143 -130.052836922582 0.00688218367480136 -130.052836922583 0.983478703073122 142.57443494608  
22.35                          0.983775892551861 139.621178700154 0.0065774423648412 -131.085481222575 0.00657744236484111 -131.085481222576 0.983677702934276 141.593127631152 
22.4                           0.983955005130285 138.654381219499 0.00629163954797083 -132.099531185985 0.00629163954797077 -132.099531185985 0.983862394853137 140.625978606798 
22.45                          0.984121238626625 137.700843313754 0.00602333856683765 -133.095654396136 0.00602333856683755 -133.095654396137 0.9840337055387  139.672387468341 
22.5                           0.984275398580433 136.760024132165 0.00577123001643914 -134.074481686213 0.00577123001643904 -134.074481686213 0.984192489387829 138.731790463093 
22.55                          0.984418229791998 135.831414578138 0.00553411892349974 -135.036609887198 0.00553411892349967 -135.036609887199 0.984339535125545 137.803657690836 
22.6                           0.984550421707408 134.914534972627 0.00531091336830689 -135.982604318943 0.00531091336830679 -135.982604318944 0.98447557173945 136.887490557643 
22.65                          0.984672613249676 134.008932921361 0.00510061437036651 -136.913001051933 0.00510061437036641 -136.913001051933 0.984601273793431 135.982819456633 
22.7                           0.984785397160785 133.114181365431 0.00490230688329691 -137.828308964154 0.00490230688329682 -137.828308964155 0.984717266194297 135.089201652355 
22.75                          0.984889323910977 132.229876797028 0.00471515176495424 -138.729011614593 0.00471515176495419 -138.729011614593 0.984824128475242 134.20621934819  
22.8                           0.984984905224347 131.355637624209 0.00453837860640443 -139.615568952477 0.00453837860640435 -139.615568952477 0.98492239865172 133.333477918532 
22.85                          0.985072617263571 130.491102670316 0.00437127931848353 -140.48841887917 0.00437127931848348 -140.48841887917 0.985012576698113 132.470604289534 
22.9                           0.985152903511219 129.635929795261 0.00421320238769516 -141.347978677725 0.00421320238769512 -141.347978677725 0.985095127687516 131.617245454022 
22.95                          0.985226177380517 128.789794627235 0.00406354772439691 -142.194646323424 0.00406354772439688 -142.194646323423 0.985170484631647 130.773067107754 
23                             0.985292824584404 127.952389394654 0.00392176203589884 -143.028801687148 0.00392176203589882 -143.028801687148 0.985239051053357 129.937752395575 
