! Touchstone file exported from HFSS 3D Layout Design 2026.1.0
!        File:           D:/Work/SIM/ADS_AUTO_SIM/projects/RFSOC_RF/TX_Fillter.aedt
!        Generated:      03:09:39 AM Aug 31, 2026
!        Design:         TX_BAND1_MCFIL_R35_CNN021
!        Project:        TX_Fillter
!
# GHz S MA R 50.000000
! Terminal data exported
! Port[1] = Port1
! Port[2] = Port2
14                             0.974030716166337 -161.683019093497 0.00366731127499538 -175.445951480513 0.00366731127499538 -175.445951480513 0.973910394804117 -161.869476900196 
14.05                          0.973558764514975 -162.55715244275 0.00374114380953366 -175.818918421335 0.00374114380953366 -175.818918421335 0.973426405483318 -162.745064567043 
14.1                           0.97307212784068 -163.437098779334 0.00381857980640633 -176.171381225745 0.00381857980640633 -176.171381225745 0.972926950216895 -163.626735322425 
14.15                          0.972570080548902 -164.32303331082 0.00389990617753163 -176.502974142606 0.00389990617753161 -176.502974142607 0.972411253373583 -164.514678713283 
14.2                           0.972051848469353 -165.215140594275 0.0039854380255919 -176.813378836703 0.00398543802559189 -176.813378836703 0.971878486974637 -165.409094416787 
14.25                          0.971516604775171 -166.113615157731 0.00407552172906647 -177.102332848244 0.00407552172906647 -177.102332848244 0.971327766269779 -166.310192917796 
14.3                           0.970963465487867 -167.018662171716 0.0041705383876612 -177.369638859712 0.00417053838766118 -177.369638859712 0.970758144862101 -167.218196241384 
14.35                          0.97039148451852 -167.930498175687 0.00427090767233106 -177.615174777618 0.00427090767233105 -177.615174777618 0.970168609327847 -168.133338745809 
14.4                           0.969799648188882 -168.849351864746 0.00437709212991279 -177.838904620413 0.00437709212991274 -177.838904620412 0.969558073269527 -169.055867981877 
14.45                          0.969186869168109 -169.775464942608 0.00448960199909307 -178.040890184065 0.00448960199909307 -178.040890184064 0.968925370732163 -169.986045625362 
14.5                           0.968551979751726 -170.709093047533 0.00460900060220319 -178.221303433353 0.00460900060220318 -178.221303433353 0.968269248902453 -170.924148489903 
14.55                          0.967893724398719 -171.650506758655 0.00473591038635635 -178.380439540058 0.00473591038635634 -178.380439540058 0.967588359998975 -171.870469628681 
14.6                           0.967210751430296 -172.599992691087 0.0048710196979853 -178.518730459093 0.0048710196979853 -178.518730459092 0.966881252247989 -172.825319534175 
14.65                          0.966501603779351 -173.55785468914 0.00501509038719695 -178.636758900976 0.00501509038719691 -178.636758900975 0.96614635982356 -173.789027446431 
14.7                           0.965764708662708 -174.524415128171 0.00516896635291807 -178.735272524768 0.00516896635291806 -178.735272524768 0.965381991612174 -174.761942781536 
14.75                          0.964998366028353 -175.500016336849 0.00533358315701423 -178.815198141134 0.00533358315701419 -178.815198141134 0.964586318640258 -175.744436693481 
14.8                           0.964200735606456 -176.485022153131 0.00550997885598037 -178.877655682306 0.00550997885598034 -178.877655682306 0.963757359977438 -176.736903784249 
14.85                          0.963369822365369 -177.479819628902 0.00569930622309775 -178.923971666657 0.00569930622309774 -178.923971666656 0.962892966898159 -177.739763978856 
14.9                           0.962503460141183 -178.484820900181 0.0059028465629402 -178.955691862915 0.00590284656294019 -178.955691862915 0.961990805048626 -178.753464584257 
14.95                          0.961599293170645 -179.500465241994 0.00612202535477729 -178.974592845735 0.00612202535477729 -178.974592845735 0.961048334323621 -179.778482553521 
15                             0.960654755211255 179.472778670502 0.00635843000294192 -178.982692133241 0.00635843000294195 -178.982692133241 0.960062786107456 179.184673020497 
15.05                          0.959667045877349 178.434410270116 0.00661383002203368 -178.982256611454 0.00661383002203368 -178.982256611453 0.959031137473217 178.135458154469 
15.1                           0.958633103755263 177.383894347187 0.00689020004462994 -178.975808982607 0.00689020004462994 -178.975808982607 0.957950081862565 177.073290935644 
15.15                          0.957549575781745 176.320658009016 0.00718974611104908 -178.966132026409 0.0071897461110491 -178.966132026409 0.956815995682147 175.997548159087 
15.2                           0.956412782274759 175.244087313291 0.00751493578715293 -178.956270536354 0.00751493578715293 -178.956270536354 0.955624900148815 174.907561600625 
15.25                          0.955218676891048 174.153523534644 0.00786853276023461 -178.949530887158 0.00786853276023461 -178.949530887157 0.954372417590466 173.802613879341 
15.3                           0.953962800645737 173.048259017829 0.0082536366884053 -178.949478302927 0.00825363668840531 -178.949478302926 0.953053721257401 172.681933856998 
15.35                          0.952640228960125 171.927532564531 0.00867372923009931 -178.959932025818 0.00867372923009931 -178.959932025818 0.951663477514465 171.544691514303 
15.4                           0.951245510497537 170.790524293483 0.00913272736291289 -178.984958727612 0.00913272736291288 -178.984958727612 0.950195779059008 170.389992235441 
15.45                          0.949772596294576 169.636349905199 0.00963504532182726 -179.028864656476 0.00963504532182728 -179.028864656476 0.948644067534189 169.216870422648 
15.5                           0.948214757384965 168.464054273276 0.0101856667543977 -179.096187162344 0.0101856667543977 -179.096187162344 0.947001043568836 168.024282351613 
15.55                          0.946564488731059 167.272604273697 0.0107902290151993 -179.191686390775 0.0107902290151993 -179.191686390775 0.945258561858347 166.811098166197 
15.6                           0.944813396805528 166.060880752059 0.011455121916686 -179.320338071553 0.011455121916686 -179.320338071553 0.943407508386112 165.576092897235 
15.65                          0.9429520675797  164.82766951609  0.0121876037347216 -179.487328450637 0.0121876037347216 -179.487328450637 0.941437656246345 164.317936375154 
15.7                           0.940969910945712 163.571651227719 0.0129959378542376 -179.698052520339 0.0129959378542376 -179.698052520339 0.939337495735025 163.03518189006  
15.75                          0.938854976689569 162.291390055666 0.0138895541582013 -179.958116793322 0.0138895541582014 -179.958116793322 0.937094033384924 161.726253436273 
15.8                           0.936593735993347 160.985320937311 0.0148792401411944 179.726652055387 0.0148792401411944 179.726652055387 0.934692553381627 160.389431362098 
15.85                          0.934170821016414 159.65173528894  0.0159773678035491 179.35019128152  0.0159773678035492 179.35019128152  0.932116333244094 159.022836231537 
15.9                           0.931568713310752 158.288764999463 0.0171981636962593 178.906177426989 0.0171981636962593 178.906177426989 0.929346303702501 157.62441069563  
15.95                          0.928767369567745 156.894364548755 0.0185580310910432 178.387991374243 0.0185580310910432 178.387991374243 0.926360640253377 156.191899171726 
16                             0.925743770353276 155.466291115267 0.0200759352006354 177.788671417901 0.0200759352006354 177.788671417901 0.923134270787843 154.722825146894 
16.05                          0.922471373918589 154.00208259004  0.0217738647317615 177.100852512173 0.0217738647317615 177.100852512173 0.919638279815207 153.214465968842 
16.1                           0.918919452702989 152.499033513788 0.0236773858743425 176.316689637887 0.0236773858743425 176.316689637887 0.915839184954293 151.66382508315  
16.15                          0.915052284576192 150.954169128858 0.0258163081555343 175.427762952425 0.0258163081555343 175.427762952425 0.911698055328257 150.067601849551 
16.2                           0.910828164003183 149.364218033203 0.0282254854139757 174.424962033573 0.0282254854139756 174.424962033573 0.907169434059709 148.422159369822 
16.25                          0.906198189989464 147.725584409    0.0309457793859761 173.298346108197 0.0309457793859761 173.298346108197 0.902200018045384 146.723491260687 
16.3                           0.901104777840383 146.03432158416  0.0340252177756014 172.036976690046 0.0340252177756013 172.036976690046 0.896727037550679 144.967189125387 
16.35                          0.89547983070467 144.286109943186 0.0375203826188976 170.628718590172 0.0375203826188976 170.628718590172 0.890676266183296 143.148413804573 
16.4                           0.889242495464479 142.476244205849 0.0414980670925069 169.060004914129 0.0414980670925068 169.060004914129 0.883959579444176 141.261875617302 
16.45                          0.882296417940498 140.59963826338  0.0460372375090452 167.315561620104 0.0460372375090452 167.315561620104 0.876471969633251 139.301832205164 
16.5                           0.874526409171979 138.650860767951 0.0512313282441662 165.37808783459  0.0512313282441662 165.37808783459  0.868087921321993 137.262118007741 
16.55                          0.865794446751452 136.624222546425 0.0571908740923657 163.227890019664 0.0571908740923657 163.227890019664 0.858657064619733 135.136227990947 
16.6                           0.855934979964644 134.513949240193 0.0640464358190044 160.842472293703 0.0640464358190043 160.842472293703 0.847999071479858 132.917491837246 
16.65                          0.84474961612077 132.314491738907 0.0719516821024104 158.196093430636 0.0719516821024105 158.196093430636 0.835897877043709 130.599396172081 
16.7                           0.832001493328199 130.021056403143 0.0810863258038651 155.259316021501 0.0810863258038652 155.259316021501 0.822095553260364 128.176145685391 
16.75                          0.817410086144471 127.630481326885 0.0916583319158693 151.998599121421 0.0916583319158694 151.998599121421 0.806286637608099 125.643605044486 
16.8                           0.800647996034016 125.142649107664 0.103904361750212 148.376028299198 0.103904361750212 148.376028299198 0.788114590207579 123.00083964233  
16.85                          0.781342669357013 122.562713908631 0.118086732222052 144.349343624973 0.118086732222052 144.349343624973 0.767173561579598 120.252581448828 
16.9                           0.759088230078323 119.90452454993  0.134484224773401 139.87252317781  0.134484224773402 139.87252317781  0.743021105471195 117.4130863213   
16.95                          0.733475891814441 117.195710772394 0.153372985086595 134.897305847914 0.153372985086596 134.897305847914 0.715211099786534 114.51199490379  
17                             0.704155398038522 114.484860356677 0.174992961568526 129.376168011924 0.174992961568526 129.376168011924 0.683360686413114 111.602862953046 
17.05                          0.67094284348474 111.850791719053 0.199495939983601 123.267328468921 0.199495939983601 123.267328468921 0.64726877503394 108.774720642772 
17.1                           0.633987160270189 109.412589154066 0.226875228637088 116.542184977845 0.226875228637088 116.542184977845 0.607101600012374 106.165733444476 
17.15                          0.59398891451022 107.335956177742 0.256886771221142 109.194940962848 0.256886771221142 109.194940962848 0.563642738659565 103.97455871269  
17.2                           0.552418371719811 105.825823113365 0.288987105516337 101.252867154269 0.288987105516337 101.252867154269 0.518555990100277 102.457615440496 
17.25                          0.511602365566394 105.08860784313  0.322328411440049 92.7838691011472 0.32232841144005 92.7838691011472 0.474520247310835 101.889127466177 
17.3                           0.474479366990922 105.249317532039 0.355848613713328 83.896842634251  0.355848613713328 83.896842634251  0.434993661950022 102.455323714796 
17.35                          0.443871732045545 106.238625936764 0.388459216255604 74.7313865507042 0.388459216255604 74.7313865507042 0.403372509884377 104.087853931815 
17.4                           0.421427465440199 107.727538199495 0.419274228846305 65.4376025580062 0.419274228846306 65.4376025580063 0.381651038561423 106.345079349891 
17.45                          0.406827850366336 109.209120182787 0.447784504130316 56.1519763259783 0.447784504130316 56.1519763259783 0.369346956310466 108.519375950179 
17.5                           0.39788513633881 110.209227370979 0.473904687500703 46.9777232606599 0.473904687500703 46.9777232606599 0.363629274723662 109.96216383038  
17.55                          0.391465381276813 110.462874865318 0.497890807898615 37.975430837551  0.497890807898615 37.975430837551  0.360585131320344 110.343444086156 
17.6                           0.384533235354876 109.943256894616 0.52018637213829 29.1645512208109 0.52018637213829 29.1645512208109 0.356573729342071 109.661955860816 
17.65                          0.374768314788751 108.789768306328 0.541265368022199 20.5322489727551 0.541265368022199 20.5322489727551 0.348919051038842 108.112227743163 
17.7                           0.360722820330117 107.230272379974 0.561514016244622 12.0451286979901 0.561514016244622 12.0451286979901 0.335992257885211 105.967062616097 
17.75                          0.341749157520206 105.54330844218  0.581161896694989 3.66057060782373 0.581161896694989 3.66057060782371 0.317036497125236 103.529305451671 
17.8                           0.31789954771949 104.062028929641 0.600255753404186 -4.66390641970076 0.600255753404185 -4.66390641970078 0.291986563652885 101.143336913624 
17.85                          0.289901941794659 103.210004249114 0.618665814209095 -12.9636637778135 0.618665814209094 -12.9636637778135 0.261391220044441 99.2552818410224 
17.9                           0.259255680305264 103.558323609635 0.636117320119807 -21.2622695035777 0.636117320119806 -21.2622695035777 0.22648603547289 98.5346650145667 
17.95                          0.228463705796605 105.872669643426 0.652242634171531 -29.5690122515   0.652242634171529 -29.5690122515   0.189498706126336 100.098512771951 
18                             0.201341232146312 111.022826022497 0.666648737876546 -37.8785645583539 0.666648737876545 -37.8785645583538 0.154396239475608 105.834116786262 
18.05                          0.18297466919715 119.424954045297 0.678991282463189 -46.1727404125267 0.678991282463187 -46.1727404125266 0.128208843324695 118.152489052441 
18.1                           0.178185359418929 129.915179543901 0.689042191666341 -54.4240892879011 0.689042191666339 -54.424089287901 0.120583260410222 136.421091594202 
18.15                          0.188304173363675 139.658451957829 0.696736623121071 -62.6007397614526 0.69673662312107 -62.6007397614524 0.135402838252586 153.075207245919 
18.2                           0.209993549835124 146.373988518243 0.702189134909966 -70.6716189907139 0.702189134909965 -70.6716189907138 0.165403816723198 162.671826397484 
18.25                          0.23802679172402 149.696793699455 0.705677302805878 -78.6111038628348 0.705677302805877 -78.6111038628346 0.201547346791162 166.338704793767 
18.3                           0.267978500372652 150.318902602035 0.707600049577225 -86.4023695988618 0.707600049577223 -86.4023695988617 0.238305205303589 166.422533787311 
18.35                          0.296867979136852 149.0443763995   0.708423469180245 -94.0391037082604 0.708423469180244 -94.0391037082603 0.272765427967665 164.45637701028  
18.4                           0.322867586148315 146.482727972567 0.708627161024689 -101.525672096845 0.708627161024688 -101.525672096845 0.303397829787182 161.295843682272 
18.45                          0.344920977287753 143.041373154214 0.708660214626785 -108.876110188318 0.708660214626785 -108.876110188318 0.329415739796613 157.416935260932 
18.5                           0.362465004612525 138.980262105937 0.708910708100042 -116.1124114512  0.708910708100041 -116.1124114512  0.350461521145704 153.091223260629 
18.55                          0.375247802056755 134.460763382137 0.709688231556828 -123.262534705294 0.709688231556827 -123.262534705294 0.366436231811635 148.477011384473 
18.6                           0.383213055092184 129.579411012732 0.711216533551644 -130.358425068702 0.711216533551644 -130.358425068702 0.377399872364718 143.667461431348 
18.65                          0.386429172129878 124.389633440061 0.713632787333593 -137.434208743571 0.713632787333591 -137.434208743571 0.383512563009642 138.717170050957 
18.7                           0.385050192100675 118.91539555181  0.716990537036175 -144.524618335168 0.716990537036173 -144.524618335168 0.385003058364802 133.657523101441 
18.75                          0.379300018096136 113.159503340102 0.721264452806055 -151.663646152902 0.721264452806054 -151.663646152902 0.38215695723834 128.505795994623 
18.8                           0.369474176064049 107.108209096571 0.726356136779557 -158.883405243299 0.726356136779555 -158.883405243299 0.375319258027374 123.270374232465 
18.85                          0.355954683568423 100.732972334741 0.732101109139625 -166.213192359021 0.732101109139623 -166.213192359021 0.364906681397449 117.953096771627 
18.9                           0.339234261361537 93.9897280680265 0.738277602335492 -173.678782031592 0.73827760233549 -173.678782031592 0.351425127198475 112.548875869467 
18.95                          0.319946377849694 86.8157874720749 0.744617777239311 178.697977026618 0.74461777723931 178.697977026618 0.335487119870461 107.042123697353 
19                             0.298897856180241 79.1247281680578 0.750821354394223 170.899159138367 0.750821354394221 170.899159138367 0.317823638343055 101.399060997483 
19.05                          0.277101284528887 70.8008525554773 0.75657042658142 162.910244214491 0.756570426581419 162.910244214491 0.29928523957608 95.5548897463005 
19.1                           0.255804863492328 61.6980652520776 0.761542578283083 154.71902130859  0.761542578283083 154.71902130859  0.28083031106703 89.3956509925714 
19.15                          0.236515198563319 51.6545853274075 0.765417839118942 146.313954763812 0.765417839118942 146.313954763812 0.263505324075626 82.7374379118245 
19.2                           0.220998168764938 40.5431041804107 0.767874130984926 137.682223978442 0.767874130984927 137.682223978442 0.248433560741489 75.3118509419244 
19.25                          0.211219571015842 28.3719192402256 0.768566514915943 128.807867313288 0.768566514915943 128.807867313287 0.236839949224304 66.7764454774391 
19.3                           0.209168888013372 15.4043421502939 0.767088438057304 119.670704462844 0.767088438057304 119.670704462843 0.230133037141052 56.7779065515519 
19.35                          0.216559677490674 2.17440460668097 0.762919012602713 110.246942372779 0.762919012602713 110.246942372778 0.230011515750392 45.0876095519674 
19.4                           0.234537292062402 -10.7091906013274 0.755369826046722 100.512519607532 0.755369826046721 100.512519607532 0.238457902450459 31.7751827098457 
19.45                          0.263557647041175 -22.8501847268288 0.743558012031413 90.4501602294375 0.743558012031412 90.4501602294373 0.257429654295658 17.2904213912979 
19.5                           0.303390908899192 -34.1830751734354 0.726446363098688 80.0604875801813 0.726446363098686 80.0604875801811 0.288236463990457 2.31994545979605 
19.55                          0.353062192743399 -44.8667397090132 0.702995367040934 69.3759865741433 0.702995367040933 69.3759865741432 0.330911020034155 -12.502743370209 
19.6                           0.410705682865778 -55.1076153514523 0.672445410510751 58.474001999539  0.67244541051075 58.4740019995389 0.383922303631384 -26.7815727457146 
19.65                          0.47352557923874 -65.0408337074264 0.634673204922512 47.4823643272043 0.634673204922513 47.4823643272042 0.444324683597135 -40.3375179024895 
19.7                           0.538066979952026 -74.6944895797207 0.59046970764223 36.571252368454  0.590469707642232 36.5712523684541 0.508271343341199 -53.0992370610335 
19.75                          0.600804304558902 -84.0112688443248 0.541555908258531 25.9299136798934 0.541555908258534 25.9299136798934 0.571767625540143 -65.0240245117686 
19.8                           0.658815510222008 -92.8942065624637 0.490267401126725 15.7351988839942 0.490267401126729 15.7351988839941 0.631436845379974 -76.0751584127034 
19.85                          0.710233257599606 -101.25032564748 0.439039655423673 6.12412434844197 0.439039655423678 6.12412434844172 0.685021898033541 -86.2303334298256 
19.9                           0.754317747864803 -109.017587948658 0.389936068967368 -2.82002404392965 0.389936068967372 -2.82002404393007 0.731482645859302 -95.493639419559 
19.95                          0.791225054276068 -116.172935333192 0.344390973360519 -11.0665898586582 0.344390973360523 -11.0665898586587 0.770767544545805 -103.898654475618 
20                             0.821658179735236 -122.727252076755 0.303184803665477 -18.626578598727 0.30318480366548 -18.6265785987278 0.803452469766928 -111.502818790975 
20.05                          0.846554761370907 -128.714877909653 0.266565411741279 -25.5385116594393 0.266565411741281 -25.5385116594401 0.83040888266358 -118.37799802046 
20.1                           0.866875897302647 -134.183097967873 0.234416607045128 -31.8557445317356 0.234416607045129 -31.8557445317365 0.852572905674117 -124.601465998674 
20.15                          0.883493408044227 -139.184057533297 0.206410960762908 -37.637139678539 0.206410960762909 -37.6371396785399 0.870816477312844 -130.249274562125 
20.2                           0.897146291172375 -143.769505141038 0.18212290499514 -42.9411305874961 0.18212290499514 -42.941130587497 0.885892335147434 -135.3922512854  
20.25                          0.908436615462774 -147.98784807289 0.161101802828154 -47.8224301620957 0.161101802828155 -47.8224301620966 0.898422503991844 -140.09407891877 
20.3                           0.917843768074857 -151.882799068651 0.142913909849876 -52.3305213833225 0.142913909849876 -52.3305213833234 0.908908139862496 -144.410755239394 
20.35                          0.925744770507501 -155.492997347633 0.127163300500816 -56.5092291274979 0.127163300500816 -56.5092291274986 0.917747440905251 -148.390851032222 
20.4                           0.932434548129976 -158.852167000919 0.113499875587858 -60.396886698115 0.113499875587857 -60.3968866981156 0.925254747290286 -152.076164370822 
20.45                          0.938143642503961 -161.989535249807 0.101620077976839 -64.0267909162904 0.101620077976839 -64.026790916291 0.931677802357064 -155.502524273284 
20.5                           0.943052703488308 -164.930347863945 0.0912638808723004 -67.4277667861416 0.0912638808723002 -67.4277667861421 0.937212185865751 -158.700605946626 
20.55                          0.94730392613409 -167.696393267537 0.0822101613166943 -70.6247442586858 0.0822101613166941 -70.6247442586863 0.942012889009696 -161.696688782321 
20.6                           0.951009895858194 -170.306491622545 0.0742716367200429 -73.6392986125403 0.0742716367200426 -73.6392986125408 0.9462033827723  -164.513328587128 
20.65                          0.954260355795159 -172.776930702915 0.0672899746392557 -76.4901339307335 0.0672899746392555 -76.4901339307338 0.949882632397791 -167.169937514939 
20.7                           0.957127359410513 -175.1218441332  0.0611313570526969 -79.1935042891257 0.0611313570526967 -79.1935042891258 0.953130489725125 -169.683276170968 
20.75                          0.959669189954939 -177.353534454056 0.0556825981838139 -81.7635749172172 0.0556825981838138 -81.7635749172173 0.956011830550087 -172.067867139552 
20.8                           0.961933346865397 -179.482746512576 0.0508478195564929 -84.2127290229734 0.0508478195564928 -84.2127290229733 0.958579731970219 -174.336340619243 
20.85                          0.963958829074715 178.481102358212 0.046545640263563 -86.5518271276006 0.046545640263563 -86.5518271276006 0.960877919346847 -176.499722600625 
20.9                           0.965777888880713 176.529728987021 0.0427068221727087 -88.7904257465874 0.0427068221727087 -88.7904257465871 0.962942658521892 -178.567675021922 
20.95                          0.967417386493938 174.65582201511  0.0392723060372837 -90.936961701062 0.0392723060372838 -90.9369617010619 0.964804226329869 179.45130391948  
21                             0.96889984244219 172.852905459885 0.0361915778688453 -92.9989075843892 0.0361915778688454 -92.9989075843888 0.96648805971123 177.549712385148 
21.05                          0.970244260382456 171.115223852989 0.0334213113978493 -94.9829031164784 0.0334213113978495 -94.9829031164781 0.968015658952145 175.720904685072 
21.1                           0.971466774573994 169.437645311728 0.0309242398316133 -96.8948663757347 0.0309242398316134 -96.8948663757344 0.969405301968648 173.958973486772 
21.15                          0.972581162707314 167.815579516127 0.028668217322623 -98.7400882401796 0.0286682173226231 -98.7400882401792 0.970672612635162 172.25865054349  
21.2                           0.973599254735947 166.244908087562 0.0266254370898024 -100.523312803778 0.0266254370898026 -100.523312803778 0.971831015757217 170.615222748237 
21.25                          0.974531260898902 164.721925303841 0.0247717788151556 -102.248806057607 0.0247717788151558 -102.248806057606 0.972892103508608 169.024460901718 
21.3                           0.975386036568362 163.243287449292 0.0230862627572659 -103.920414728963 0.0230862627572661 -103.920414728962 0.973865932320206 167.482559056828 
21.35                          0.976171297406673 161.805969397705 0.0215505920480514 -105.541616843907 0.0215505920480516 -105.541616843907 0.974761264819406 165.986082688501 
21.4                           0.97689379520106 160.40722727128  0.0201487679670329 -107.115565309238 0.0201487679670331 -107.115565309237 0.975585768104731 164.531924251315 
21.45                          0.977559462394393 159.044566219433 0.0188667657212859 -108.64512558872 0.0188667657212861 -108.645125588719 0.976346177125388 163.117264941846 
21.5                           0.978173531548538 157.71571252539  0.0176922604964237 -110.132908367005 0.0176922604964239 -110.132908367005 0.977048430018495 161.739541689661 
21.55                          0.978740634618901 156.418589382757 0.0166143953706943 -111.581297945889 0.0166143953706945 -111.581297945889 0.977697780787959 160.396418569187 
21.6                           0.979264885878136 155.151295794226 0.0156235841745  -112.992476995351 0.0156235841745002 -112.992476995351 0.978298893577917 159.08576196194  
21.65                          0.979749951525322 153.912088134824 0.0147113435933414 -114.368448181337 0.0147113435933416 -114.368448181337 0.978855921918157 157.805618910792 
21.7                           0.980199108395888 152.699363996344 0.0138701498045997 -115.71105310936 0.0138701498045998 -115.71105310936 0.979372575637747 156.554198199866 
21.75                          0.980615293703924 151.511647990807 0.0130933157496349 -117.02198895456 0.013093315749635 -117.02198895456 0.979852177610315 155.329853769183 
21.8                           0.981001147369834 150.347579241367 0.0123748858065634 -118.302823092111 0.0123748858065635 -118.302823092111 0.980297712075663 154.131070135446 
21.85                          0.981359048188248 149.205900331078 0.0117095451734623 -119.555005994719 0.0117095451734624 -119.555005994719 0.980711865951524 152.956449541803 
21.9                           0.98169114485531 148.085447514757 0.0110925417190446 -120.779882624637 0.0110925417190447 -120.779882624637 0.981097064286574 151.804700602098 
21.95                          0.981999382686948 146.985142028296 0.0105196184261596 -121.978702514744 0.0105196184261597 -121.978702514744 0.981455500796288 150.674628240623 
22                             0.982285526709937 145.903982354099 0.00998695485742764 -123.152628705624 0.00998695485742766 -123.152628705623 0.981789164255204 149.565124757981 
22.05                          0.982551181687238 144.8410373217   0.00949111632374663 -124.302745682313 0.00949111632374664 -124.302745682313 0.98209986138393 148.475161878459 
22.1                           0.982797809542074 143.795439939822 0.00902900964488179 -125.430066434755 0.00902900964488177 -125.430066434755 0.982389236759799 147.403783655109 
22.15                          0.98302674456653 142.766381870568 0.00859784456460877 -126.535538749286 0.0085978445646088 -126.535538749286 0.982658790191197 146.350100126235 
22.2                           0.983239206736477 141.753108468746 0.00819510002723594 -127.620050824295 0.00819510002723596 -127.620050824295 0.982909891923065 145.313281631789 
22.25                          0.983436313402255 140.754914319686 0.00781849464287422 -128.684436291045 0.0078184946428742 -128.684436291045 0.983143795981665 144.29255371067  
22.3                           0.983619089581606 139.771139217769 0.00746596076973416 -129.729478710256 0.00746596076973412 -129.729478710256 0.983361651917837 143.287192510583 
22.35                          0.983788477045912 138.801164535452 0.00713562172639605 -130.755915606069 0.00713562172639602 -130.755915606069 0.98356451516762 142.296520651127 
22.4                           0.983945342361511 137.844409938989 0.00682577171820656 -131.764442091307 0.0068257717182065 -131.764442091307 0.983753356215676 141.319903488544 
22.45                          0.984090484023501 136.900330412647 0.00653485812197583 -132.75571413124 0.00653485812197578 -132.75571413124 0.983929068719125 140.356745737153 
22.5                           0.984224638799152 135.968413557904 0.00626146582385983 -133.73035148727 0.00626146582385978 -133.73035148727 0.984092476726202 139.406488408176 
22.55                          0.984348487381063 135.048177138294 0.00600430334824535 -134.688940376885 0.00600430334824531 -134.688940376884 0.984244341104655 138.468606031537 
22.6                           0.984462659435943 134.139166844047 0.00576219055188953 -135.632035881854 0.0057621905518895 -135.632035881853 0.984385365278511 137.542604130443 
22.65                          0.98456773812289 133.240954253783 0.00553404768854534 -136.560164132743 0.00553404768854526 -136.560164132743 0.984516200358002 136.628016922171 
22.7                           0.984664264144877 132.353134973164 0.00531888567570434 -137.47382429452 0.00531888567570428 -137.473824294519 0.984637449735825 135.724405221667 
22.75                          0.984752739388566 131.475326932735 0.00511579741763103 -138.373490375001 0.00511579741763099 -138.373490375   0.984749673213011 134.831354527263 
22.8                           0.984833630200232 130.607168829196 0.00492395005814942 -139.259612875378 0.0049239500581494 -139.259612875377 0.98485339070926 133.948473270241 
22.85                          0.984907370339367 129.748318696124 0.00474257805317746 -140.132620299712 0.00474257805317743 -140.132620299712 0.984949085605443 133.075391212015 
22.9                           0.984974363646165 128.898452591699 0.00457097696720811 -140.992920538358 0.00457097696720811 -140.992920538357 0.985037207759808 132.211757974548 
22.95                          0.985034986454545 128.057263392347 0.00440849791015696 -141.840902138455 0.00440849791015696 -141.840902138454 0.985118176234198 131.357241691173 
23                             0.985089589778397 127.224459682405 0.00425454254153337 -142.67693547315 0.00425454254153336 -142.67693547315 0.985192381762022 130.511527766426 
