! Touchstone file exported from HFSS 3D Layout Design 2026.1.0
!        File:           D:/Work/SIM/ADS_AUTO_SIM/projects/RFSOC_RF/TX_Fillter.aedt
!        Generated:      12:52:33 AM Aug 31, 2026
!        Design:         TX_BAND1_MCFIL_R16_CNN044
!        Project:        TX_Fillter
!
# GHz S MA R 50.000000
! Terminal data exported
! Port[1] = Port1
! Port[2] = Port2
14                             0.971268100485952 -169.621239142048 0.00390287956745459 -178.074246558608 0.00390287956745459 -178.074246558608 0.974099170343353 -162.262918687141 
14.05                          0.970726884709081 -170.524642801413 0.00398217710211484 -178.445142317323 0.00398217710211488 -178.445142317323 0.973635087282559 -163.114409369967 
14.1                           0.970168291185569 -171.434748694256 0.0040653695692661 -178.796379220526 0.00406536956926614 -178.796379220526 0.973156782783131 -163.971346109234 
14.15                          0.969591461198859 -172.351775308741 0.00415276442771714 -179.127664207251 0.00415276442771715 -179.127664207252 0.972663566143274 -164.83389429628 
14.2                           0.968995479109374 -173.275952389571 0.00424469894742507 -179.438754074807 0.0042446989474251 -179.438754074807 0.972154701083067 -165.702227938476 
14.25                          0.96837936761206 -174.207521668908 0.00434154342823792 -179.729463619327 0.00434154342823792 -179.729463619327 0.971629401952153 -166.576530220083 
14.3                           0.967742082515494 -175.146737655649 0.0044437047901067 -179.999674493195 0.00444370479010672 -179.999674493195 0.971086829554677 -167.456994107673 
14.35                          0.967082506985599 -176.093868488646 0.00455163057997566 179.750655223265 0.00455163057997569 179.750655223265 0.970526086545861 -168.343823004387 
14.4                           0.966399445189206 -177.049196860096 0.0046658134465179 179.521480754047 0.00466581344651793 179.521480754047 0.969946212348291 -169.237231457751 
14.45                          0.965691615263626 -178.013021016052 0.00478679614075973 179.312659700443 0.00478679614075976 179.312659700443 0.969346177528718 -170.137445926322 
14.5                           0.964957641527898 -178.985655841775 0.00491517710860199 179.123940512942 0.00491517710860201 179.123940512942 0.968724877567726 -171.044705611035 
14.55                          0.964196045839195 -179.967434040586 0.00505161675050806 178.954950444401 0.00505161675050809 178.954950444401 0.968081125944836 -171.959263357799 
14.6                           0.96340523798365 179.041292584127 0.00519684443444988 178.805183093333 0.0051968444344499 178.805183093332 0.967413646450125 -172.881386638668 
14.65                          0.9625835049743  178.040151732907 0.00535166636088734 178.673985674227 0.00535166636088736 178.673985674227 0.966721064620179 -173.811358619785 
14.7                           0.96172899910945 177.028749088077 0.00551697439349173 178.560546180594 0.00551697439349175 178.560546180594 0.966001898180477 -174.74947932528 
14.75                          0.960839724622003 176.006666651796 0.0056937559869611 178.463880634534 0.00569375598696113 178.463880634534 0.965254546358043 -175.696066907444 
14.8                           0.959913522723542 174.97346092894  0.0058831053641769 178.382820642486 0.0058831053641769 178.382820642486 0.964477277906567 -176.65145903476 
14.85                          0.958948054815399 173.928660937492 0.00608623611978418 178.316001498402 0.00608623611978419 178.316001498402 0.963668217660752 -177.616014410843 
14.9                           0.957940783601637 172.871766026888 0.00630449545685522 178.261851090759 0.00630449545685522 178.261851090759 0.962825331406506 -178.590114438997 
14.95                          0.956888951794596 171.802243482217 0.00653938029858879 178.218579876083 0.00653938029858878 178.218579876083 0.961946408817819 -179.574165048984 
15                             0.955789558051089 170.719525889249 0.00679255555918482 178.184172176705 0.00679255555918482 178.184172176705 0.961029044168648 179.431401295246 
15.05                          0.954639329714501 169.623008231931 0.00706587490852048 178.156379041797 0.00706587490852048 178.156379041797 0.960070614477298 178.426123385636 
15.1                           0.953434691863041 168.512044690142 0.00736140442574878 178.132712876671 0.0073614044257488 178.132712876671 0.959068254680006 177.409508833883 
15.15                          0.952171732074212 167.385945101122 0.00768144960948953 178.110443994149 0.00768144960948955 178.110443994149 0.958018829357374 176.381031381843 
15.2                           0.950846160207209 166.243971042934 0.00802858629937642 178.086599173268 0.00802858629937639 178.086599173268 0.956918900449349 175.340127927567 
15.25                          0.949453262373867 165.085331492544 0.00840569616837296 178.057962224698 0.00840569616837295 178.057962224698 0.95576469028805 174.28619523188  
15.3                           0.947987848110197 163.909178004486 0.00881600757115512 178.021076460795 0.00881600757115515 178.021076460796 0.954552039148822 173.218586265672 
15.35                          0.946444189567577 162.714599348515 0.00926314268546875 177.972248853455 0.00926314268546874 177.972248853455 0.953276356362971 172.136606152678 
15.4                           0.944815951307456 161.500615536002 0.00975117206623322 177.907555538582 0.00975117206623322 177.907555538582 0.951932563844087 171.03950765644  
15.45                          0.94309610899551 160.266171155025 0.0102846779530708 177.822848196263 0.0102846779530708 177.822848196263 0.950515030645218 169.926486153298 
15.5                           0.941276854937706 159.010127923039 0.0108688279392939 177.713760705205 0.0108688279392939 177.713760705205 0.949017496875761 168.796674025677 
15.55                          0.93934948796519 157.73125635354  0.0115094609345588 177.575715343339 0.0115094609345587 177.575715343339 0.947432984951248 167.649134401558 
15.6                           0.937304284636619 156.42822641941  0.0122131877472389 177.403927687405 0.0122131877472389 177.403927687405 0.945753695709052 166.482854156986 
15.65                          0.93513034805885 155.099597080597 0.0129875090919534 177.193409255541 0.0129875090919534 177.193409255541 0.943970886376588 165.296736088988 
15.7                           0.932815429796419 153.743804527843 0.0138409544121653 176.938966839297 0.0138409544121654 176.938966839298 0.942074726698015 164.089590156695 
15.75                          0.930345719303837 152.359148977918 0.0147832456213584 176.635197383774 0.0147832456213584 176.635197383774 0.940054128675295 162.860123679529 
15.8                           0.927705594018215 150.943779840331 0.0158254907382523 176.276477193167 0.0158254907382523 176.276477193167 0.937896544314598 161.606930374172 
15.85                          0.924877321623679 149.495679062726 0.0169804134571353 175.856944157693 0.0169804134571353 175.856944157692 0.93558772443206 160.32847810859  
15.9                           0.921840703956185 148.012642455314 0.0182626259955779 175.370471608222 0.0182626259955779 175.370471608222 0.93311142989128 159.023095254644 
15.95                          0.918572649447656 146.492258798867 0.0196889541472025 174.810632296461 0.0196889541472025 174.81063229646  0.930449084527192 157.688955535639 
16                             0.915046657775424 144.931886564446 0.02127882539118 174.170650858965 0.02127882539118 174.170650858965 0.927579356343854 156.324061298995 
16.05                          0.911232196320205 143.328628129199 0.023054733229725 173.443342939941 0.023054733229725 173.443342939941 0.92447765021845 154.92622520885  
16.1                           0.90709394294562 141.679301482489 0.0250427936926953 172.6210389077   0.0250427936926954 172.6210389077   0.921115491136435 153.49305046708  
16.15                          0.902590863271643 139.980409613238 0.027273413198558 171.695489792066 0.027273413198558 171.695489792065 0.91745977173785 152.021909862454 
16.2                           0.897675082793781 138.22810810539  0.0297820906824454 170.657752688319 0.0297820906824454 170.657752688319 0.913471831482781 150.509924260711 
16.25                          0.892290504709776 136.418172026762 0.0326103809901036 169.4980524196   0.0326103809901036 169.4980524196   0.909106326889972 148.953941652448 
16.3                           0.8863711131057  134.545964109019 0.0358070507071848 168.205615742564 0.0358070507071848 168.205615742563 0.904309843031413 147.350518678742 
16.35                          0.879838888510956 132.606407692313 0.0394294612335887 166.76847386838  0.0394294612335887 166.768473868379 0.899019186031108 145.695907825074 
16.4                           0.872601249765371 130.593970280329 0.0435452158249371 165.173228652622 0.0435452158249371 165.173228652622 0.89315928558655 143.986055476111 
16.45                          0.864547925101118 128.502667351371 0.0482341052943684 163.404777673191 0.0482341052943684 163.404777673191 0.886640627602126 142.216619168981 
16.5                           0.855547151544513 126.326102145998 0.0535903771546152 161.445993909583 0.0535903771546152 161.445993909583 0.879356134340719 140.383017311316 
16.55                          0.845441115567027 124.057566851038 0.0597253283569739 159.277357463755 0.0597253283569738 159.277357463755 0.871177421883951 138.480532330817 
16.6                           0.834040599140257 121.690246061057 0.0667701709451852 156.876540755134 0.0667701709451851 156.876540755135 0.861950408899186 136.50450019789  
16.65                          0.821118920445836 119.2175879702   0.0748790240665421 154.217956598937 0.0748790240665421 154.217956598937 0.851490357507475 134.450637735275 
16.7                           0.806405522656064 116.63394756707  0.0842317152616067 151.272293311497 0.0842317152616068 151.272293311497 0.839576651077963 132.315587231988 
16.75                          0.789580079918445 113.935666756579 0.095035784881245 148.006086763639 0.0950357848812451 148.006086763639 0.825948048353685 130.097799621071 
16.8                           0.770268941806831 111.122849204755 0.107526621057964 144.381422305229 0.107526621057964 144.381422305229 0.810299949103167 127.798936908482 
16.85                          0.748047407446001 108.202224830427 0.121963945637126 140.355927588112 0.121963945637126 140.355927588112 0.792286585245784 125.426052658902 
16.9                           0.722454079921233 105.191687853987 0.138621896112822 135.883317991167 0.138621896112823 135.883317991167 0.771533283920428 122.994895503595 
16.95                          0.693027742583209 102.127316675141 0.157768817032789 130.914889898841 0.15776881703279 130.914889898841 0.747667215186998 120.534731660872 
17                             0.659382712271765 99.0738492121198 0.179632054291802 125.402500595273 0.179632054291803 125.402500595274 0.72037899094606 118.094978070779 
17.05                          0.62134383826857 96.139388289917  0.204343696794435 119.303651171611 0.204343696794437 119.303651171611 0.689530236241407 115.753400420914 
17.1                           0.579162005681896 93.4937341480933 0.231867442376907 112.589134099779 0.231867442376908 112.589134099779 0.655318607436729 113.624126926529 
17.15                          0.533813335050604 91.3853096260095 0.261917098454105 105.253057471605 0.261917098454106 105.253057471605 0.618491473671608 111.860507156654 
17.2                           0.487329883485534 90.1407281120255 0.293893917397457 97.3236846441336 0.293893917397458 97.3236846441335 0.580549743587384 110.642654026798 
17.25                          0.442993824986515 90.1110441257388 0.32688577118236 88.8716176383919 0.32688577118236 88.8716176383918 0.543803958511887 110.135145159801 
17.3                           0.40506238051444 91.5135066832218 0.359768362004927 80.010499206737  0.359768362004927 80.0104992067369 0.511083987393041 110.40714092451  
17.35                          0.377641786910525 94.1734481236154 0.391409899729938 70.8864620336078 0.391409899729938 70.8864620336078 0.484985894306904 111.340514289907 
17.4                           0.362830951108476 97.3704750488755 0.420916209951984 61.6569638724934 0.420916209951984 61.6569638724934 0.466872603666806 112.600828650054 
17.45                          0.359380473076191 100.09559582977  0.447812338604603 52.4653399470646 0.447812338604602 52.4653399470647 0.45623176639508 113.737222546084 
17.5                           0.363261027978409 101.586903695143 0.472084562374892 43.4200240377236 0.472084562374891 43.4200240377237 0.450892489679507 114.362533410452 
17.55                          0.369628977480401 101.600122080406 0.494085479176919 34.5846337559496 0.494085479176918 34.5846337559498 0.447919280594721 114.276573731045 
17.6                           0.374443870410073 100.276933076752 0.514368189092065 25.9794126160152 0.514368189092064 25.9794126160155 0.444526974292548 113.467773202897 
17.65                          0.375005590288849 97.9086449428829 0.533523136446561 17.590209064826  0.533523136446561 17.5902090648263 0.438580847432393 112.045049535732 
17.7                           0.369795612613309 94.7931340838678 0.552059308236697 9.38021863427482 0.552059308236698 9.3802186342751  0.428692051170305 110.171412826671 
17.75                          0.358130272996814 91.1903313814124 0.570336761274597 1.30110145416368 0.570336761274598 1.30110145416393 0.414112594850747 108.02857139978  
17.8                           0.339873326250795 87.3302290554826 0.588539248399544 -6.69803646355406 0.588539248399545 -6.69803646355388 0.394598701677984 105.81029921946  
17.85                          0.315268383076499 83.4445674976812 0.606673040523128 -14.6640125981512 0.606673040523128 -14.6640125981511 0.370323522005837 103.735029183913 
17.9                           0.284882620916586 79.8161007245801 0.624582688362952 -22.6349521875953 0.624582688362953 -22.6349521875952 0.341862982380969 102.071453577438 
17.95                          0.249647437918603 76.8583532363483 0.641979894209729 -30.6373054942917 0.641979894209729 -30.6373054942916 0.310256805051936 101.174401694433 
18                             0.21101338884101 75.2640726328305 0.658484696973913 -38.6842872105552 0.658484696973912 -38.6842872105552 0.277144126802997 101.525180857779 
18.05                          0.171326254061645 76.3028616278381 0.67367794151402 -46.7757075561787 0.673677941514019 -46.7757075561788 0.244966258528298 103.747356486246 
18.1                           0.13474211111758 82.3254899272029 0.687161051193285 -54.8992311675274 0.687161051193283 -54.8992311675274 0.217157870927131 108.496108642342 
18.15                          0.109010261119584 96.5219576560856 0.698615125082989 -63.0330050772427 0.698615125082986 -63.0330050772426 0.197977581343779 116.011443411591 
18.2                           0.104676431778236 117.258318828963 0.70784874820622 -71.1493723492974 0.707848748206217 -71.1493723492973 0.191243494751727 125.349902440894 
18.25                          0.123421108842577 133.812674691692 0.7148247317609  -79.2191361900697 0.714824731760898 -79.2191361900696 0.198024068149756 134.336668130823 
18.3                           0.15510334440145 141.537008660881 0.719660721758334 -87.2156910927997 0.719660721758332 -87.2156910927996 0.215736945394401 141.040364153561 
18.35                          0.190795744521015 143.177253873684 0.722605445294426 -95.1183794669266 0.722605445294424 -95.1183794669264 0.240040820132801 144.899283022968 
18.4                           0.225929667349165 141.425768080228 0.723998291225897 -102.914655213222 0.723998291225896 -102.914655213222 0.267011683755372 146.314556168066 
18.45                          0.258314903944202 137.76070237372  0.724222592117617 -110.600944298922 0.724222592117617 -110.600944298922 0.293893525913428 145.922532731952 
18.5                           0.286890730226505 132.945777281126 0.723661969926376 -118.182366846846 0.723661969926376 -118.182366846846 0.318973811477152 144.265005934637 
18.55                          0.311190182915034 127.385702017687 0.722665754243414 -125.671646813131 0.722665754243414 -125.671646813131 0.341279564967648 141.730312222274 
18.6                           0.331096170273097 121.300296139239 0.721525666430521 -133.087571296749 0.721525666430521 -133.087571296749 0.36032788113788 138.579114106064 
18.65                          0.346715248830165 114.808688882856 0.720463052531134 -140.453307872401 0.720463052531134 -140.453307872401 0.37595545443155 134.980411475208 
18.7                           0.358306430564093 107.972290209837 0.71962441429022 -147.794795932462 0.719624414290219 -147.794795932462 0.388207571245274 131.039640944766 
18.75                          0.366240699540257 100.818353763877 0.719082627730108 -155.139337265994 0.719082627730106 -155.139337265995 0.397267036427671 126.817589666577 
18.8                           0.370979818665076 93.3540465856532 0.71884157719389 -162.514442990421 0.718841577193887 -162.514442990422 0.403409335541149 122.342247996181 
18.85                          0.373067445312748 85.5758242881703 0.718842518902918 -169.946952760595 0.718842518902914 -169.946952760596 0.406974832402153 117.615717943691 
18.9                           0.373127111311959 77.4766298627564 0.718971019151477 -177.462422097501 0.718971019151473 -177.462422097501 0.408351803792889 112.617754233591 
18.95                          0.371862121499066 69.0523124030535 0.719063641472761 174.915235441011 0.719063641472758 174.915235441011 0.407966335177919 107.307111137667 
19                             0.370052625348083 60.307943284671  0.71891366114931 167.16387361201  0.718913661149307 167.16387361201  0.406277075973153 101.621702661989 
19.05                          0.368545503337451 51.2640025152978 0.718275035824043 159.263047545291 0.718275035824042 159.263047545291 0.403774815704206 95.4786362670652 
19.1                           0.368233760306175 41.9615429158539 0.716863810139635 151.193833425641 0.716863810139635 151.193833425641 0.400988655143271 88.7754117542976 
19.15                          0.370024179500316 32.4645233191445 0.714356305702567 142.938666289448 0.71435630570257 142.938666289448 0.398501545306015 81.393935799704  
19.2                           0.374794837945216 22.8570491576692 0.710384124440261 134.481400095143 0.710384124440265 134.481400095143 0.396976823250305 73.2093828784991 
19.25                          0.383346433685783 13.234066010326  0.704527454147341 125.807868159078 0.704527454147347 125.807868159077 0.397192215356247 64.1060486469795 
19.3                           0.396351197435271 3.6865349118176  0.696310571696603 116.907269564072 0.696310571696609 116.907269564071 0.400067110350199 54.0014988819105 
19.35                          0.414299581567717 -5.71457936294248 0.685206593661477 107.774679590004 0.685206593661484 107.774679590003 0.406654174768443 42.8773323803224 
19.4                           0.437440750899955 -14.9291962910757 0.670661460447097 98.4148107956547 0.670661460447102 98.414810795654  0.41805626584587 30.8089662848651 
19.45                          0.465714463990884 -23.9488137559125 0.652147672874583 88.8467662655476 0.652147672874587 88.8467662655469 0.435241588970037 17.980273324165  
19.5                           0.498683904520587 -32.7862339020757 0.629253099818511 79.108916317715  0.629253099818512 79.1089163177143 0.458778584409382 4.6689077993178  
19.55                          0.535497427385578 -41.4585572681951 0.601796508027775 69.2623445433287 0.601796508027775 69.2623445433282 0.488581130365735 -8.79875393773987 
19.6                           0.574917791403869 -49.970594838156 0.569941250491837 59.3909364576887 0.569941250491837 59.3909364576885 0.523789161896391 -22.1048413881611 
19.65                          0.615444411354797 -58.3052006881841 0.534262228806901 49.5966361515977 0.534262228806901 49.5966361515977 0.562864051887673 -34.9843583590887 
19.7                           0.655515571872277 -66.4234016605342 0.495724713192352 39.9898923579181 0.495724713192355 39.9898923579186 0.603875100789643 -47.2441957875442 
19.75                          0.693734364059828 -74.2727094446304 0.455564434690761 30.6773202766592 0.455564434690767 30.6773202766599 0.64486638187997 -58.7613670623635 
19.8                           0.729045676510746 -81.7990119376444 0.415102411942331 21.749941146418  0.415102411942339 21.7499411464189 0.684173900428202 -69.4716145027981 
19.85                          0.760815447627453 -88.9571737504327 0.375556116423005 13.2751045362367 0.375556116423016 13.2751045362376 0.720608650585173 -79.3562909581144 
19.9                           0.788809479622077 -95.7173922796273 0.33790259693303 5.29353783485801 0.337902596933042 5.29353783485872 0.753492033577001 -88.4304343772958 
19.95                          0.813105792775792 -102.066846658981 0.302817852546432 -2.17898007497203 0.302817852546445 -2.17898007497158 0.782584024922827 -96.7324523801962 
20                             0.833984680522553 -108.007871238659 0.270684020057051 -9.14701664900182 0.270684020057064 -9.14701664900173 0.807962307177409 -104.315388516817 
20.05                          0.851829499881691 -113.554387819582 0.241638648997008 -15.6298153652319 0.241638648997021 -15.6298153652322 0.829899525247955 -111.239861250624 
20.1                           0.867053460325878 -118.728011955588 0.215639647871534 -21.6559197852431 0.215639647871545 -21.6559197852438 0.848764143740207 -117.568749160546 
20.15                          0.880053855798501 -123.554656524271 0.192527629322629 -27.2587932872419 0.192527629322639 -27.2587932872431 0.864951939354136 -123.363527960359 
20.2                           0.891188270479449 -128.061945677643 0.172076712222529 -32.4736173631375 0.172076712222538 -32.473617363139 0.878844691695746 -128.682003147499 
20.25                          0.900765645375767 -132.277438873468 0.154031582838185 -37.3351563556198 0.154031582838193 -37.3351563556216 0.89078892508214 -133.577107646063 
20.3                           0.9090461036475  -136.227523586834 0.138132219774519 -41.8764612086221 0.138132219774525 -41.8764612086241 0.901087673381074 -138.096442410148 
20.35                          0.916245214552404 -139.936801685416 0.124129000450605 -46.1281753771957 0.124129000450609 -46.1281753771977 0.909999829011723 -142.282292950159 
20.4                           0.922540005346479 -143.427812461249 0.111790958502035 -50.1182434848215 0.111790958502038 -50.1182434848235 0.917743396139361 -146.171922963705 
20.45                          0.928075220815612 -146.720970336252 0.10090948916423 -53.8718727008111 0.100909489164232 -53.871872700813 0.924500387185315 -149.798008520667 
20.5                           0.932969094480697 -149.834630245888 0.0912992118274082 -57.4116418657729 0.09129921182741 -57.4116418657747 0.930422088348941 -153.189125220277 
20.55                          0.937318341583885 -152.785222271784 0.0827971753466673 -60.7576887659202 0.0827971753466684 -60.7576887659216 0.935634044143869 -156.370235856318 
20.6                           0.941202321793894 -155.587418150766 0.0752611864463267 -63.9279314889912 0.0752611864463273 -63.9279314889923 0.940240478370028 -159.363149710032 
20.65                          0.944686432749152 -158.254306856505 0.0685677519139781 -66.9382972378782 0.0685677519139786 -66.938297237879 0.94432807078238 -162.186939602989 
20.7                           0.947824839409607 -160.797566088725 0.0626099288832547 -69.8029434219695 0.0626099288832549 -69.8029434219699 0.947969110701953 -164.85831192452 
20.75                          0.950662652335278 -163.227622656679 0.0572952494969099 -72.5344631035034 0.0572952494969101 -72.5344631035033 0.951224093830012 -167.391930030858 
20.8                           0.953237659615637 -165.553798540203 0.0525438055938196 -75.1440713287203 0.0525438055938198 -75.1440713287198 0.954143842826739 -169.800694134598 
20.85                          0.9555817025307  -167.784441669505 0.0482865299550901 -77.6417715030577 0.0482865299550904 -77.6417715030568 0.956771231113826 -172.095982030054 
20.9                           0.957721769291373 -169.92704174373 0.0444636819262355 -80.036502443616 0.0444636819262358 -80.0365024436148 0.959142581403561 -174.287855357576 
20.95                          0.959680866715363 -171.988332079449 0.0410235293650945 -82.3362675012429 0.0410235293650948 -82.3362675012412 0.961288800193411 -176.385235989378 
21                             0.961478717298943 -173.97437878384 0.0379212108960997 -84.5482474730364 0.0379212108961002 -84.5482474730344 0.963236299162735 -178.396056759053 
21.05                          0.9631323189716  -175.890658635716 0.0351177591986475 -86.6788991038925 0.035117759198648 -86.6788991038903 0.965007745081576 179.672609702988 
21.1                           0.964656396677508 -177.742127025791 0.0325792655151006 -88.7340409149021 0.0325792655151013 -88.7340409148997 0.966622671844029 177.814440746217 
21.15                          0.966063768509529 -179.533277213551 0.0302761664919536 -90.7189279652599 0.0302761664919545 -90.7189279652574 0.968097981595574 176.023769265364 
21.2                           0.967365644110499 178.731807963406 0.0281826361147353 -92.6383169935946 0.0281826361147362 -92.6383169935919 0.969448356513002 174.29550264758  
21.25                          0.968571869165631 177.049410920678 0.02627606742064 -94.496523217705 0.026276067420641 -94.4965232177023 0.970686598442357 172.625053061875 
21.3                           0.969691126797017 175.416139817441 0.0245366306216566 -96.2974699113951 0.0245366306216575 -96.2974699113925 0.971823910124605 171.008277368985 
21.35                          0.970731104339966 173.828893940365 0.0229468961113298 -98.0447317298298 0.0229468961113308 -98.0447317298272 0.972870128975936 169.441425201185 
21.4                           0.971698632175986 172.284833319824 0.0214915124968143 -99.7415726231281 0.0214915124968153 -99.7415726231256 0.973833922198358 167.92109399125  
21.45                          0.972599799897307 170.781352009125 0.0201569312721326 -101.390979062181 0.0201569312721336 -101.390979062179 0.974722950259409 166.444189923214 
21.5                           0.973440053989393 169.31605453768  0.0189311710290864 -102.995689200129 0.0189311710290874 -102.995689200127 0.975544004402542 165.00789393987  
21.55                          0.974224280368964 167.886735118203 0.0178036152016697 -104.558218506221 0.0178036152016706 -104.558218506219 0.976303122756   163.609632077807 
21.6                           0.974956874450596 166.49135924752  0.0167648382761605 -106.080882334319 0.0167648382761613 -106.080882334318 0.97700568873783 162.247049514487 
21.65                          0.975641800892876 165.128047391468 0.0158064561921104 -107.56581582455 0.0158064561921111 -107.565815824549 0.977656514760578 160.91798780689  
21.7                           0.976282644763208 163.795060487811 0.0149209973286118 -109.014991482031 0.0149209973286125 -109.01499148203 0.978259913684092 159.620464880835 
21.75                          0.976882655534003 162.490787038196 0.0141017910334821 -110.430234729894 0.0141017910334827 -110.430234729893 0.978819760019491 158.352657396667 
21.8                           0.977444785063272 161.213731591822 0.0133428711264207 -111.813237693812 0.0133428711264212 -111.813237693812 0.979339542528958 157.112885172911 
21.85                          0.977971720505046 159.962504450422 0.0126388922048075 -113.165571440892 0.0126388922048079 -113.165571440892 0.979822409576551 155.899597396399 
21.9                           0.978465912928372 158.735812447254 0.0119850569147096 -114.488696866271 0.0119850569147099 -114.488696866271 0.980271208350767 154.711360386855 
21.95                          0.978929602289189 157.532450672426 0.0113770526301154 -115.783974395309 0.0113770526301156 -115.783974395309 0.980688518888907 153.546846717218 
22                             0.979364839290508 156.351295033759 0.0108109962191392 -117.052672647318 0.0108109962191393 -117.052672647318 0.981076683677759 152.404825519115 
22.05                          0.979773504577688 155.191295556801 0.0102833857742212 -118.29597618777 0.0102833857742212 -118.29597618777 0.981437833477798 151.284153826655 
22.1                           0.980157325643223 154.051470340015 0.00979105835032362 -119.514992479458 0.0097910583503236 -119.514992479458 0.981773909913477 150.18376883196  
22.15                          0.980517891756004 152.930900091788 0.00933115289590787 -120.710758128839 0.00933115289590778 -120.71075812884 0.982086685286001 149.102680942966 
22.2                           0.980856667181066 151.828723185112 0.00890107768033164 -121.884244511343 0.00890107768033151 -121.884244511343 0.982377779993669 148.039967548695 
22.25                          0.981175002915316 150.744131173691 0.00849848162180024 -123.036362848705 0.00849848162180007 -123.036362848705 0.982648677885718 146.994767409656 
22.3                           0.981474147131071 149.676364720062 0.00812122900509918 -124.167968801971 0.00812122900509899 -124.167968801971 0.982900739826379 145.966275601755 
22.35                          0.98175525449115 148.624709892285 0.00776737715050239 -125.279866635706 0.00776737715050219 -125.279866635706 0.983135215704739 144.953738951231 
22.4                           0.982019394475806 147.588494790858 0.00743515665655737 -126.372813001827 0.00743515665655711 -126.372813001827 0.983353255091572 143.956451906049 
22.45                          0.982267558842008 146.567086472029 0.00712295389160884 -127.447520385353 0.00712295389160855 -127.447520385353 0.983555916715381 142.973752795941 
22.5                           0.982500668318942 145.55988813755  0.00682929545338214 -128.504660248989 0.00682929545338186 -128.504660248988 0.983744176905532 142.005020439178 
22.55                          0.982719578629561 144.566336564327 0.00655283435390095 -129.544865908826 0.00655283435390068 -129.544865908825 0.983918937129747 141.049671059193 
22.6                           0.982925085915999 143.585899750409 0.00629233771947187 -130.568735169422 0.00629233771947163 -130.568735169421 0.9840810307358  140.107155478603 
22.65                          0.983117931636557 142.618074756346 0.00604667582327324 -131.576832742994 0.00604667582327302 -131.576832742993 0.984231228992432 139.176956561967 
22.7                           0.983298806993223 141.662385723249 0.00581481229194255 -132.569692474454 0.00581481229194236 -132.569692474453 0.98437024651186 138.25858688197  
22.75                          0.983468356941278 140.718382050886 0.00559579534806457 -133.54781939138 0.00559579534806441 -133.547819391378 0.984498746125489 137.351586586586 
22.8                           0.983627183826134 139.785636720929 0.00538874996811774 -134.511691595721 0.00538874996811761 -134.511691595721 0.984617343275193 136.455521447333 
22.85                          0.983775850687031 138.863744752029 0.00519287085066348 -135.461762012092 0.00519287085066339 -135.461762012091 0.984726609974607 135.569981070936 
22.9                           0.983914884262482 137.952321774751 0.00500741610271758 -136.398460005756 0.00500741610271756 -136.398460005754 0.984827078388064 134.694577258662 
22.95                          0.984044777728209 137.051002715678 0.00483170156362485 -137.322192881949 0.00483170156362488 -137.322192881948 0.984919244068913 133.82894249928  
23                             0.984165993194756 136.15944058101  0.00466509569562259 -138.233347276903 0.00466509569562268 -138.233347276902 0.985003568893894 132.972728583136 
