! Touchstone file exported from HFSS 3D Layout Design 2026.1.0
!        File:           D:/Work/ADS/HFSS_VERDICT/hfss_sma_connector_cpw.aedt
!        Generated:      04:15:40 PM Aug  5, 2026
!        Design:         SINGLE_END_SMA_CPW_30MM
!        Project:        hfss_sma_connector_cpw
!
! Variables:
!        $sma_Base_D = 6.25mm
!        $sma_Base_L = 8mm
!        $sma_Feet_L = 4mm
!        $sma_Feet_W = 1mm
!        $sma_Front_L = 1.5mm
!        $sma_Front_W = 6.5mm
!        $sma_Hole_D = 1.25mm
!        $sma_PTFE_D = 4.2mm
!        $sma_Pin_D = 0.95mm
!        $sma_Pin_P = 1.7mm
!
# GHz S MA R 50.000000
! Terminal data exported
! Port[1] = Port1
! Port[2] = S1_1_Pin_T1
0.5                            0.075854190017228 -139.098591699992 0.987004476594584 -42.1377688926484 0.987004476594583 -42.1377688926484 0.0763570096530873 -126.96947599612 
0.6                            0.08839118287361 -148.984852967331 0.984385894838979 -50.459985640046 0.984385894838979 -50.4599856400459 0.0888180280488694 -134.148165331481 
0.7                            0.099720232972677 -158.867328895792 0.981817787930051 -58.7603985108727 0.981817787930052 -58.7603985108726 0.099995209037288 -141.145984990581 
0.8                            0.109749699029555 -168.782534998892 0.979326516482962 -67.0417685286377 0.979326516482962 -67.0417685286377 0.109811167207418 -147.961731133372 
0.9                            0.118409063786198 -178.763614302942 0.97694178247668 -75.3064532112335 0.97694178247668 -75.3064532112335 0.118215349550736 -154.587941389629 
1                              0.12565115752037 171.156897763087 0.974693305272036 -83.5569462363321 0.974693305272035 -83.556946236332 0.125183503274788 -161.011017957848 
1.1                            0.13145461093076 160.945019624498 0.972606155990463 -91.7960543283345 0.972606155990462 -91.7960543283344 0.130719166532677 -167.211084178122 
1.2                            0.135826219656851 150.56370625539  0.970697027152697 -100.026870823143 0.970697027152695 -100.026870823143 0.134856252372098 -173.161873714191 
1.3                            0.13880335051883 139.971552760077 0.968971934187612 -108.252648488125 0.968971934187611 -108.252648488125 0.137662121156084 -178.830738469031 
1.4                            0.140456654222038 129.121795314808 0.967425266962471 -116.476631607489 0.967425266962469 -116.476631607489 0.139240827220445 175.821087134732 
1.5                            0.140893314796768 117.961709512007 0.966039957360747 -124.701881904381 0.966039957360746 -124.70188190438 0.139736359346051 170.837678012142 
1.6                            0.140260920795371 106.432692393379 0.964788515191308 -132.931118315762 0.964788515191308 -132.931118315762 0.139335623554268 166.26657412674  
1.7                            0.138751771264324 94.471585551317  0.963634709772855 -141.166582172437 0.963634709772855 -141.166582172437 0.138270604594242 162.155181488151 
1.8                            0.136606956986429 82.0141499539451 0.962535705065463 -149.409934213818 0.962535705065463 -149.409934213818 0.136818559981005 158.544549635149 
1.9                            0.134118780600526 69.001945630125  0.961444481766496 -157.662186594457 0.961444481766496 -157.662186594457 0.135298289444068 155.459818368537 
2                              0.131628952226547 55.3938953506393 0.960312398236369 -165.923670793445 0.960312398236369 -165.923670793445 0.134059747155575 152.897500946106 
2.1                            0.129518757095357 41.1828822330822 0.959091754771569 -174.194040648821 0.959091754771568 -174.194040648821 0.133464200439485 150.811733617283 
2.2                            0.128186923655171 26.4150394532346 0.957738235401793 177.52769165771  0.957738235401793 177.52769165771  0.13385384421376 149.104392815541 
2.3                            0.128012908816596 11.204946129759  0.956213111318875 169.243090074551 0.956213111318876 169.243090074551 0.135513950198831 147.625795542916 
2.4                            0.129309228370133 -4.26365771732089 0.954485103191928 160.954204125488 0.954485103191927 160.954204125488 0.138636085027587 146.190653590872 
2.5                            0.132274833961366 -19.7595251468173 0.952531817985179 152.663458779797 0.952531817985178 152.663458779797 0.143293941104367 144.606998210054 
2.6                            0.136966256669081 -35.044632382436 0.950340700104159 144.373530905088 0.950340700104159 144.373530905088 0.149440189925519 142.707990228924 
2.7                            0.1432979525311  -49.9178901205657 0.947909465873458 136.087218849739 0.947909465873457 136.087218849738 0.156924336858581 140.374607704189 
2.8                            0.15106989171375 -64.2435534014484 0.945246022279381 127.80731171364  0.94524602227938 127.80731171364  0.165523575811074 137.543005135394 
2.9                            0.160009172652129 -77.9567889017565 0.942367902499688 119.536464478575 0.942367902499687 119.536464478575 0.174976150645118 134.198509371174 
3                              0.169810835649355 -91.0517425708976 0.939301278660022 111.277084409818 0.939301278660024 111.277084409818 0.185009581361155 130.36268171223  
3.1                            0.180168997055414 -103.562629772775 0.936079633606089 103.031233083175 0.936079633606089 103.031233083176 0.195360711096053 126.079504433556 
3.2                            0.19079635981698 -115.546007364844 0.932742186341659 94.8005471476109 0.932742186341661 94.8005471476109 0.205787930112093 121.404099426506 
3.3                            0.20143419290521 -127.06776555022 0.929332169508697 86.586179630815  0.9293321695087  86.5861796308151 0.216077405756989 116.394940112397 
3.4                            0.211855949479463 -138.195075169462 0.925895052516213 78.3887623589189 0.925895052516215 78.388762358919  0.226045295200023 111.109164285791 
3.5                            0.221867228311343 -148.99214183766 0.922476792343997 70.2083889956189 0.922476792344   70.2083889956189 0.235537516486529 105.600155522414 
3.6                            0.2313039248997  -159.518435395186 0.919122177986394 62.0446173810493 0.919122177986397 62.0446173810492 0.244428175655542 99.9165974261703 
3.7                            0.240029687235296 -169.828347956205 0.915873316491431 53.8964892992439 0.915873316491433 53.8964892992439 0.252617372261677 94.1023998405826 
3.8                            0.247933302342938 -179.971587784804 0.912768290933064 45.7625655212797 0.912768290933065 45.7625655212796 0.260028854759275 88.1970946309427 
3.9                            0.254926352497755 170.006103376047 0.909840005307228 37.6409739260149 0.909840005307229 37.6409739260148 0.266607839028219 82.2364501457737 
4                              0.260941324239858 160.062135769542 0.907115219546029 29.529468638155  0.90711521954603 29.5294686381549 0.272319200711318 76.2531542505134 
4.1                            0.265930272851021 150.156274974489 0.904613770265924 21.4254983796654 0.904613770265925 21.4254983796653 0.277146177739726 70.2774769847505 
4.2                            0.269864103526276 140.24991769566  0.902347969627087 13.326282537791  0.902347969627087 13.326282537791  0.281089656991439 64.337857848298  
4.3                            0.27273250651743 130.305465876847 0.900322175461538 5.22889374664277 0.900322175461537 5.22889374664282 0.284168059594148 58.4613791324187 
4.4                            0.274544564056737 120.285816213152 0.898532529965621 -2.86965399820816 0.898532529965621 -2.86965399820811 0.286417778371454 52.6740921821583 
4.5                            0.275330022843725 110.15398649159  0.896966870816637 -10.9723125699981 0.896966870816636 -10.972312569998 0.287894055801092 47.0011624331677 
4.6                            0.275141189173054 99.8729144570096 0.895604826398612 -19.0819032193016 0.895604826398611 -19.0819032193014 0.288672120006706 41.4667948824043 
4.7                            0.274055345356352 89.4054876802029 0.894418114517209 -27.2010175357237 0.894418114517207 -27.2010175357234 0.288848319058345 36.0938977183823 
4.8                            0.272177495183219 78.7148929480862 0.893371069948295 -35.3319174822333 0.893371069948293 -35.3319174822331 0.28854091151896 30.9034425433292 
4.9                            0.269643110936985 67.7654076650517 0.892421428678361 -43.4764367762022 0.89242142867836 -43.4764367762019 0.287890089364918 25.913491071012  
5                              0.266620365395444 56.5237848955539 0.891521394172262 -51.6358867513005 0.89152139417226 -51.6358867513004 0.287056741617207 21.1378881916923 
5.1                            0.263311090473155 44.9613893489936 0.890619002503165 -59.810970874495 0.890619002503162 -59.8109708744949 0.286219438597516 16.5846777775489 
5.2                            0.259949437632386 33.0571912465606 0.88965978910595 -68.0017132326306 0.88965978910595 -68.0017132326306 0.285569166814244 12.2543843083157 
5.3                            0.256797002490899 20.8015736950111 0.888588742418993 -76.2074073360191 0.888588742418992 -76.2074073360193 0.285301521112749 8.13841260053419 
5.4                            0.254133168921563 8.20061689500475 0.88735251161614 -84.4265920854666 0.887352511616141 -84.4265920854669 0.285606403172175 4.2179222790118  
5.5                            0.252239844200203 -4.71990219329175 0.885901817126482 -92.6570610865734 0.885901817126485 -92.6570610865738 0.286655781936306 0.463583790814008 
5.6                            0.251380796717917 -17.911992016873 0.884193987254474 -100.89590918954 0.884193987254476 -100.89590918954 0.28859066273084 -3.16343960315013 
5.7                            0.251777464975398 -31.3057880506339 0.88219550173475 -109.139616519045 0.882195501734754 -109.139616519046 0.291508917348738 -6.70914871791374 
5.8                            0.25358494788178 -44.8137375523349 0.879884364032499 -117.384166791792 0.879884364032505 -117.384166791792 0.295455829101464 -10.2231960050512 
5.9                            0.256873035565201 -58.3385350217075 0.877252074005232 -125.625194985095 0.877252074005235 -125.625194985095 0.30041894281886 -13.7547333606924 
6                              0.261616700700779 -71.7833221906476 0.874304969749973 -133.858159408953 0.874304969749974 -133.858159408954 0.306328087259321 -17.348354908304 
6.1                            0.267698245751021 -85.0617084049565 0.871064768053091 -142.078533136126 0.871064768053092 -142.078533136126 0.313060466340608 -21.0408440755657 
6.2                            0.274920167320014 -98.1052547872974 0.867568232391909 -150.282007999556 0.867568232391908 -150.282007999556 0.32044981698574 -24.8591903063379 
6.3                            0.283025211693409 -110.8671390818  0.863865995216728 -158.464701419099 0.863865995216727 -158.464701419099 0.32829807412884 -28.8199919812596 
6.4                            0.291719089142235 -123.322102781704 0.860020633780816 -166.62335395922 0.860020633780814 -166.62335395922 0.336387864928591 -32.9300507044687 
6.5                            0.300691913429519 -135.463759708215 0.856104145502109 -174.755505082074 0.856104145502105 -174.755505082074 0.344494395965964 -37.1877808784655 
6.6                            0.309635909435211 -147.300632400359 0.852194996805086 177.140363853019 0.852194996805085 177.140363853019 0.352395730464251 -41.5850217766518 
6.7                            0.318258463082682 -158.852041386102 0.848374931948265 169.064727375737 0.848374931948262 169.064727375737 0.359880916333458 -46.1089048980877 
6.8                            0.32629069496876 -170.14452641685 0.844725725142827 161.016959075997 0.844725725142824 161.016959075997 0.366755820044306 -50.7435389119735 
6.9                            0.333492327952267 178.790926747895 0.841326040592594 152.995321417501 0.841326040592593 152.995321417501 0.372846809620596 -55.4713827364141 
7                              0.339653809580251 167.920846404466 0.838248534177889 144.997000558732 0.838248534177889 144.997000558732 0.378002616207973 -60.2742613261561 
7.1                            0.344596609861663 157.210544207911 0.835557293043325 137.018182271848 0.835557293043325 137.018182271848 0.382094806461489 -65.1340336902447 
7.2                            0.348172473632128 146.624853330698 0.833305671633422 129.054163417682 0.833305671633423 129.054163417682 0.385017335477062 -70.0329533452497 
7.3                            0.350262240708542 136.128483284964 0.831534549958879 121.099492362672 0.831534549958877 121.099492362672 0.386685634008204 -74.953775547381 
7.4                            0.350774691009345 125.686108662864 0.830271015125517 113.148131054903 0.830271015125517 113.148131054903 0.387035620277154 -79.8796700383971 
7.5                            0.349645736540325 115.262276508929 0.829527450913244 105.193631018582 0.829527450913245 105.193631018582 0.386022918991095 -84.7939970943654 
7.6                            0.346838166787241 104.821190085928 0.829301010418253 97.2293150888098 0.82930101041825 97.2293150888099 0.383622422447428 -89.6800001310256 
7.7                            0.342342053153317 94.3264081481022 0.829573439104012 89.2484561447135 0.829573439104011 89.2484561447135 0.379828150602942 -94.5204592085452 
7.8                            0.336175824546441 83.7404893973266 0.830311203522919 81.2444433484877 0.830311203522919 81.2444433484877 0.374653178859807 -99.2973332749924 
7.9                            0.328387932064364 73.0246125554145 0.831465855823369 73.2109255446179 0.831465855823367 73.210925544618  0.368129239636344 -103.991389133257 
8                              0.319058916317623 62.138215699693  0.832974515090613 65.1419208391875 0.832974515090611 65.1419208391876 0.360305522389274 -108.581763089828 
8.1                            0.308303562948605 51.0387285431161 0.834760260679474 57.0318817041972 0.834760260679474 57.0318817041972 0.351246280707948 -113.045313893294 
8.2                            0.296272659434368 39.6815251906633 0.836732096829344 48.8757077554427 0.836732096829342 48.8757077554428 0.341027239814577 -117.355483238835 
8.3                            0.283153613640984 28.0203120222063 0.838783956875652 40.668706604779  0.838783956875651 40.6687066047789 0.329731739499415 -121.480156001036 
8.4                            0.26916879723935 16.0082957285007 0.840792002183275 32.4065222379051 0.840792002183273 32.4065222379052 0.31744959778983 -125.37768908154 
8.5                            0.254569807567182 3.60065606923572 0.842609401343748 24.0850874614287 0.842609401343747 24.0850874614287 0.304286005379831 -128.989951342078 
8.6                            0.239624608728894 -9.2409230231628 0.844058401718945 15.7007090521497 0.844058401718945 15.70070905215   0.290396171419448 -132.231548993917 
8.7                            0.224591916319554 -22.5405821023384 0.844922192632175 7.25037568739573 0.844922192632177 7.25037568739592 0.276072653984941 -134.978128870438 
8.8                            0.209670706813887 -36.2954168935044 0.844944878075821 -1.26819348608438 0.844944878075822 -1.26819348608439 0.261898371721227 -137.070946482949 
8.9                            0.19489456152307 -50.449693892685 0.843840349679178 -9.86017480940562 0.843840349679178 -9.86017480940579 0.248815331340321 -138.377546991491 
9                              0.179900307672469 -64.81030229499  0.841145018759679 -18.5520295010179 0.841145018759676 -18.5520295010179 0.237579432807647 -138.856874768733 
9.1                            0.16369453880143 -78.6075824804912 0.83482392752126 -27.4128051669222 0.834823927521264 -27.4128051669222 0.228399509287423 -138.106631149566 
9.2                            0.14900532026286 -88.9152205787085 0.817752829623825 -36.1933213300489 0.817752829623821 -36.1933213300492 0.229207598660851 -135.038580344491 
9.3                            0.153962033422731 -97.7824525424777 0.798002937639124 -43.4918841617449 0.798002937639124 -43.4918841617451 0.254739034752754 -135.273613225591 
9.4                            0.161954283823927 -113.635413416158 0.803314236978495 -50.6020288746692 0.803314236978491 -50.6020288746691 0.265957557296725 -142.063912564242 
9.5                            0.157794724937617 -131.048134200067 0.813685460527463 -59.1002556062425 0.813685460527468 -59.1002556062429 0.253988311016026 -147.125289142543 
9.6                            0.140905071787227 -146.704683910088 0.813865562083503 -68.552827083158 0.8138655620835  -68.5528270831582 0.237586238264039 -148.048185546796 
9.7                            0.112231913503915 -153.783405990889 0.793271988648219 -78.4632509066697 0.793271988648229 -78.4632509066695 0.233936005420683 -144.103822410632 
9.8                            0.108522197978411 -138.664671794692 0.741788953623675 -87.0330303450664 0.741788953623679 -87.0330303450666 0.270184942961179 -140.545492300012 
9.9                            0.172951366781134 -140.410017224657 0.700568522091897 -91.2329890286474 0.700568522091925 -91.2329890286463 0.326808072067912 -148.112422206932 
10                             0.223836739326032 -161.165908791002 0.717929497908958 -95.1957952972317 0.717929497908956 -95.1957952972317 0.343545507048176 -160.352588563671 
