! Touchstone file exported from HFSS 3D Layout Design 2026.1.0
!        File:           D:/Work/ADS/HFSS_VERDICT/hfss_sma_connector_cpw.aedt
!        Generated:      12:58:46 PM Aug  6, 2026
!        Design:         SINGLE_END_SMA_CPW_30MM
!        Project:        hfss_sma_connector_cpw
!
! Variables:
!        $sma_Base_D = 6.25mm
!        $sma_Base_L = 8mm
!        $sma_Feet_L = 4mm
!        $sma_Feet_W = 1mm
!        $sma_Front_L = 1.5mm
!        $sma_Front_W = 6.5mm
!        $sma_Hole_D = 1.25mm
!        $sma_PTFE_D = 4.2mm
!        $sma_Pin_D = 0.95mm
!        $sma_Pin_P = 1.7mm
!
# GHz S MA R 50.000000
! Terminal data exported
! Port[1] = Port1
! Port[2] = S1_1_Pin_T1
0.5                            0.0738176728926002 -133.516154935468 0.98723426828202 -41.7908154298954 0.98723426828202 -41.7908154298955 0.0741405683384031 -131.949555801253 
0.6                            0.0858100837078886 -142.253861255344 0.984704568073045 -50.0469921401975 0.984704568073043 -50.0469921401974 0.0860832403170639 -140.13753938407 
0.7                            0.0965267140345504 -150.977643791308 0.982206076564199 -58.2789368508966 0.982206076564197 -58.2789368508964 0.0967025062968101 -148.166032233824 
0.8                            0.105858701249752 -159.722650126296 0.979793633542131 -66.4903006502447 0.979793633542129 -66.4903006502446 0.105896646106822 -156.037749181154 
0.9                            0.113717705989002 -168.519856070442 0.977507621024539 -74.6842609875574 0.977507621024538 -74.6842609875572 0.113586859183154 -163.746259739009 
1                              0.120038239066694 -177.400017694962 0.97537995769286 -82.8638492563732 0.975379957692859 -82.8638492563732 0.119719005143057 -171.277637984686 
1.1                            0.12477937854759 173.603588940279 0.973435040337528 -91.0321550928646 0.973435040337528 -91.0321550928646 0.124265297163067 -178.610835173135 
1.2                            0.127926237649427 164.452938889802 0.971688719628379 -99.1923949370089 0.971688719628379 -99.1923949370089 0.127225961271287 174.282909721995 
1.3                            0.129491697843649 155.103082921291 0.97014693454102 -107.347877073264 0.97014693454102 -107.347877073264 0.12863126815226 167.441472862878 
1.4                            0.129518899221596 145.499693294069 0.968804742516708 -115.501900521492 0.968804742516708 -115.501900521492 0.128544447549461 160.913971715179 
1.5                            0.128084959470066 135.57608492091  0.967646024088539 -123.657618724217 0.96764602408854 -123.657618724217 0.127066002103587 154.76351508737  
1.6                            0.125306426375428 125.249577477256 0.966643922594901 -131.817891306806 0.966643922594901 -131.817891306806 0.124339924132978 149.070341742069 
1.7                            0.121347048128238 114.41731229471  0.965761980204198 -139.98514100899 0.965761980204198 -139.98514100899 0.120562263431893 143.934715367457 
1.8                            0.116428489433022 102.952250194083 0.964955885382979 -148.161228381758 0.964955885382979 -148.161228381758 0.115992242412858 139.478037454578 
1.9                            0.110844378727263 90.7014896559525 0.964175721769552 -156.347353547644 0.964175721769553 -156.347353547644 0.110965270530151 135.8388634963   
2                              0.104976901122953 77.4919347260702 0.963368589562539 -164.543991722289 0.96336858956254 -164.543991722289 0.105904980125782 133.157673681898 
2.1                            0.0993117106652944 63.1531024653032 0.96248145300586 -172.750866888015 0.962481453005861 -172.750866888015 0.101326701034495 131.541527867169 
2.2                            0.0944393795206281 47.571148644121  0.961464051723837 179.033034267299 0.961464051723838 179.033034267299 0.0978176201066442 131.002334856771 
2.3                            0.0910205303557163 30.7813355854786 0.960271702794401 170.809408403272 0.960271702794402 170.809408403272 0.0959745430609009 131.38078839572  
2.4                            0.0896887212557854 13.0688990091784 0.958867818875406 162.580544283019 0.958867818875407 162.580544283019 0.0962930777696742 132.304339965496 
2.5                            0.0908960809229909 -5.0116470642072 0.957225979251806 154.349199356145 0.957225979251806 154.349199356145 0.0990421640892127 133.243979349617 
2.6                            0.094774070931134 -22.7797624091458 0.95533141736626 146.118451460653 0.95533141736626 146.118451460653 0.104194775086335 133.671176293177 
2.7                            0.10110798990592 -39.6675051496954 0.95318182954927 137.891534621524 0.953181829549269 137.891534621524 0.111460648253948 133.214865656425 
2.8                            0.109440170622142 -55.3724442368402 0.950787461667464 129.671668914821 0.950787461667464 129.671668914821 0.120391573301434 131.7183114474   
2.9                            0.119217289872023 -69.8468376952138 0.948170487252492 121.461894526096 0.948170487252491 121.461894526096 0.130491181767432 129.197132915981 
3                              0.129899745527428 -83.1987136966376 0.945363745128879 113.264919436856 0.945363745128878 113.264919436856 0.141287360901039 125.763249524423 
3.1                            0.141013416219682 -95.5975611942619 0.942408949690275 105.082988721282 0.942408949690275 105.082988721282 0.152364972221185 121.563136649187 
3.2                            0.15216216804483 -107.218113244066 0.939354517561278 96.9177814302061 0.939354517561278 96.9177814302061 0.163373548893352 116.742462244685 
3.3                            0.16302254405633 -118.216206334754 0.936253167881749 88.7703387470373 0.936253167881748 88.7703387470373 0.174023592741864 111.430841431588 
3.4                            0.173333278717911 -128.722562106177 0.9331594502532  80.6410247998215 0.933159450253202 80.6410247998215 0.184079315572053 105.737843397014 
3.5                            0.182884964530598 -138.844372621746 0.930127337399809 72.529519448126  0.930127337399808 72.529519448126  0.193351265482245 99.7541113964181 
3.6                            0.191511461920433 -148.669418928288 0.927207993345192 64.4348407051751 0.927207993345191 64.4348407051751 0.201689978385473 93.5543002284496 
3.7                            0.199083188110701 -158.27045125006 0.924447797460545 56.3553932908489 0.924447797460544 56.3553932908489 0.20898083882031 87.2003248208264 
3.8                            0.205502006972905 -167.709033300833 0.921886674750445 48.2890391426887 0.921886674750446 48.2890391426887 0.215140028565718 80.7443379854845 
3.9                            0.210697412098764 -177.038683445315 0.919556756774943 40.2331854767366 0.919556756774943 40.2331854767365 0.220111398870369 74.2312775465542 
4                              0.214623771856731 173.692621339779 0.917481377832163 32.1848860824791 0.917481377832162 32.1848860824792 0.223864144331033 67.7009930683994 
4.1                            0.217258489024016 164.440448441352 0.915674398230418 24.1409518335252 0.915674398230419 24.1409518335251 0.226391211683389 61.1900160591556 
4.2                            0.218600991279869 155.162290529316 0.914139840280443 16.0980667786304 0.914139840280444 16.0980667786303 0.2277084192192  54.733040249365  
4.3                            0.218672509638244 145.816219709196 0.91287182180301 8.0529065456365  0.912871821803011 8.0529065456364  0.227854284068292 48.3641589733397 
4.4                            0.217516623148021 136.359742655005 0.911854774713846 0.00225607106539599 0.911854774713846 0.00225607106530199 0.226890552178451 42.1178753908104 
4.5                            0.215200552326037 126.748823002368 0.91106394061076 -8.05687618013527 0.911063940610761 -8.05687618013532 0.224903396188235 36.0298602387235 
4.6                            0.211817169190384 116.937086379118 0.910466139224369 -16.1271503245642 0.910466139224369 -16.1271503245642 0.222005183280379 30.1373791524629 
4.7                            0.207487650331764 106.875291886401 0.910020807249156 -24.2107964167653 0.910020807249156 -24.2107964167653 0.218336607970614 24.4792450604366 
4.8                            0.202364613599839 96.5112531740166 0.90968130292778 -32.3095281265391 0.90968130292778 -32.309528126539 0.214068818857621 19.0950723734873 
4.9                            0.196635418115414 85.7905330269891 0.909396464808013 -40.4244719563004 0.909396464808013 -40.4244719563004 0.209404928455962 14.0235318120554 
5                              0.190525026803283 74.658416175048  0.909112401002612 -48.556115260503 0.909112401002612 -48.556115260503 0.204579978102976 9.29926469763605 
5.1                            0.184297381660748 63.0638468942467 0.908774468578632 -56.7042761780782 0.908774468578633 -56.7042761780781 0.199858072105506 4.94818851635124 
5.2                            0.178253611145151 50.9660783920601 0.908329382853301 -64.8680981621438 0.908329382853302 -64.8680981621437 0.195525119959047 0.9812270750663  
5.3                            0.172724694579902 38.3444623016179 0.907727375774195 -73.0460710340341 0.907727375774194 -73.0460710340342 0.191875690906937 -2.6128594145512 
5.4                            0.168055856955174 25.2107376858763 0.906924304331439 -81.2360793886867 0.906924304331439 -81.2360793886867 0.189193268279324 -5.87391051280869 
5.5                            0.164580760221301 11.6211449346456 0.905883597519431 -89.4354777779727 0.905883597519431 -89.4354777779727 0.187724990035043 -8.87352027640246 
5.6                            0.162586410504678 -2.31672665222064 0.904577926881742 -97.641190498836 0.904577926881742 -97.641190498836 0.187654567798684 -11.7122582073863 
5.7                            0.162274608718162 -16.4483114469594 0.902990493321869 -105.849832166956 0.902990493321868 -105.849832166956 0.189079388743625 -14.5097599295828 
5.8                            0.16373049052485 -30.5905331502853 0.901115842266892 -114.057843749387 0.901115842266893 -114.057843749387 0.191998136109131 -17.3893432177141 
5.9                            0.166909192842428 -44.5603557151559 0.898960149142666 -122.261637549527 0.898960149142667 -122.261637549527 0.196312639117448 -20.4614961880591 
6                              0.171645733548984 -58.2033051048131 0.896540954302732 -130.457743942244 0.896540954302733 -130.457743942244 0.201843076783827 -23.811180390331 
6.1                            0.177683889038392 -71.4118671968663 0.89388636650643 -138.64295254179 0.893886366506428 -138.64295254179 0.208351644921195 -27.4919266735736 
6.2                            0.184713491528249 -84.1297944326546 0.891033791661435 -146.814440964689 0.891033791661436 -146.814440964689 0.215568381917435 -31.5266666164701 
6.3                            0.192405538946288 -96.3452219616903 0.888028274144067 -154.969885353822 0.888028274144064 -154.969885353822 0.223214092426283 -35.9130749589057 
6.4                            0.200438900225232 -108.078549255864 0.884920558191088 -163.107548217122 0.884920558191086 -163.107548217123 0.23101777443104 -40.6306851452138 
6.5                            0.208517244312055 -119.370164291978 0.881764985077131 -171.226340720048 0.88176498507713 -171.226340720049 0.238728169662378 -45.64771136753  
6.6                            0.216377776524146 -130.270668344005 0.87861733849475 -179.325858161341 0.87861733849475 -179.325858161341 0.246120353915508 -50.926519105751 
6.7                            0.223794300574157 -140.834229554431 0.875532737884443 172.593611213394 0.875532737884442 172.593611213394 0.252998720675999 -56.4274831357721 
6.8                            0.230576886722657 -151.114628668968 0.87256366068397 164.531102766849 0.872563660683969 164.531102766849 0.259197631450229 -62.1114111208309 
6.9                            0.236569802087838 -161.163243277005 0.869758153262315 156.485015304996 0.869758153262316 156.485015304996 0.264580722741426 -67.9408677039843 
7                              0.24164876370046 -171.028276369683 0.867158270106215 148.453171642722 0.867158270106215 148.453171642722 0.269039557934617 -73.8807328108265 
7.1                            0.245718139672967 179.245286195562 0.864798764297703 140.432897160332 0.864798764297705 140.432897160332 0.272492069033395 -79.8982633939003 
7.2                            0.24870844500837 169.615329035643 0.862706041018548 132.421113583976 0.862706041018548 132.421113583976 0.274881062987974 -85.9628527923014 
7.3                            0.250574312471367 160.042077815945 0.860897380054357 124.414445235583 0.860897380054358 124.414445235583 0.27617295874908 -92.0456187590598 
7.4                            0.251293022824511 150.487504874806 0.859380432154178 116.409334937206 0.859380432154176 116.409334937206 0.276356855339685 -98.1189063069384 
7.5                            0.250863621608767 140.914734466043 0.858152995760785 108.402166548559 0.858152995760785 108.402166548559 0.275443989771297 -104.155764262726 
7.6                            0.249306611621988 131.287484292202 0.857203082653345 100.389390758775 0.857203082653345 100.389390758775 0.273467610834323 -110.129442274695 
7.7                            0.246664178958039 121.569570211993 0.856509281110456 92.3676503136092 0.856509281110455 92.3676503136093 0.270483257759925 -116.012955569082 
7.8                            0.24300087772775 111.724505289842 0.856041421742043 84.3339004666143 0.856041421742042 84.3339004666144 0.266569381085178 -121.778776186227 
7.9                            0.238404657869195 101.715241352883 0.855761543834542 76.2855202410783 0.855761543834544 76.2855202410784 0.261828168843395 -127.398730148807 
8                              0.23298806516623 91.5041312923654 0.855625149849956 68.2204101767971 0.855625149849953 68.2204101767972 0.256386339680875 -132.844207540716 
8.1                            0.226889365032003 81.053234036879  0.855582724249113 60.1370726169832 0.855582724249112 60.1370726169832 0.250395535798631 -138.086821504809 
8.2                            0.220273233178371 70.3251393036318 0.855581481456293 52.0346711737478 0.855581481456293 52.0346711737478 0.244031801222755 -143.099671702223 
8.3                            0.213330510321481 59.2845458332869 0.855567296895156 43.9130666567432 0.855567296895156 43.9130666567431 0.2374934875632  -147.859357744394 
8.4                            0.20627633807749 47.9008583819136 0.855486763831007 35.7728273534059 0.855486763831006 35.7728273534058 0.23099683542275 -152.348817605449 
8.5                            0.199345809977694 36.1520224945839 0.855289306099296 27.6152121042651 0.855289306099297 27.6152121042651 0.224768510533837 -156.560898287743 
8.6                            0.192786169808543 24.029610154139  0.854929262352844 19.4421252246698 0.854929262352846 19.4421252246696 0.219034632856979 -160.50227825443 
8.7                            0.186844732326726 11.5447183025762 0.854367842639402 11.2560431419891 0.854367842639403 11.2560431419887 0.214006424172464 -164.196984407341 
8.8                            0.181752314208588 -1.26646116659664 0.853574846190715 3.0599137708412  0.853574846190716 3.05991377084085 0.209863533632818 -167.688412005922 
8.9                            0.177703213815754 -14.3392897898338 0.852530024517285 -5.14296884165359 0.852530024517285 -5.14296884165394 0.206737206947414 -171.038699006847 
9                              0.174834526942503 -27.5817286088989 0.851223980064742 -13.3491103182692 0.851223980064741 -13.3491103182695 0.204696315796376 -174.324758057232 
9.1                            0.173209147354565 -40.8811878364169 0.849658509743786 -21.5549761548978 0.849658509743788 -21.5549761548978 0.203739306562516 -177.631240034052 
9.2                            0.172807085863204 -54.1166193820133 0.847846333823507 -29.7571587750292 0.847846333823509 -29.757158775029 0.20379403915906 178.958176567256 
9.3                            0.173528004509264 -67.1729837672121 0.845810190459842 -37.9525428948253 0.84581019045984 -37.9525428948254 0.204725534618705 175.369112798064 
9.4                            0.175204574095723 -79.9540503753671 0.843581319028571 -46.1384603387606 0.84358131902857 -46.1384603387604 0.206349665731439 171.54257729233  
9.5                            0.1776230732507  -92.3903088971374 0.841197395296215 -54.3128258321161 0.841197395296216 -54.3128258321158 0.208449694663797 167.437892817432 
9.6                            0.180546175872671 -104.440977221491 0.838700012929874 -62.4742462940568 0.838700012929875 -62.4742462940564 0.210792645697669 163.032644328026 
9.7                            0.183733505313523 -116.091221903143 0.83613182553823 -70.6220975682891 0.836131825538227 -70.6220975682888 0.213143492801284 158.320571573789 
9.8                            0.18695740347277 -127.346726128237 0.83353347060894 -78.7565641097334 0.833533470608939 -78.7565641097331 0.21527640283595 153.308516201527 
9.9                            0.190013290460825 -138.227612109782 0.830940393288891 -86.878638650521 0.83094039328889 -86.8786386505207 0.216983269161084 148.013308408599 
10                             0.192725271778888 -148.763016116845 0.828379678007501 -94.9900801058538 0.828379678007501 -94.9900801058538 0.21808026386076 142.459096236486 
