! Touchstone file exported from HFSS 3D Layout Design 2026.1.0
!        File:           D:/Work/SIM/ADS_AUTO_SIM/projects/RFSOC_RF/TX_Fillter.aedt
!        Generated:      08:17:11 AM Aug 31, 2026
!        Design:         TX_BAND1_MCFIL_R75_CNN033
!        Project:        TX_Fillter
!
# GHz S MA R 50.000000
! Terminal data exported
! Port[1] = Port1
! Port[2] = Port2
14                             0.973392568696992 -164.925627883789 0.00350399550751232 -177.25562128339 0.00350399550751232 -177.25562128339 0.975908731304884 -157.375621226825 
14.05                          0.972916114210885 -165.801134967104 0.00357031030712991 -177.636138086394 0.00357031030712992 -177.636138086394 0.975487142614383 -158.20810959014 
14.1                           0.972424985898336 -166.682361984698 0.00363974455178496 -177.995197670724 0.00363974455178495 -177.995197670724 0.975052818943982 -159.045552556232 
14.15                          0.971918468963618 -167.569483369681 0.00371254544680937 -178.332298884996 0.00371254544680937 -178.332298884996 0.974605137322229 -159.888091925011 
14.2                           0.971395801495588 -168.462682684433 0.0037889846658965 -178.64697573069 0.0037889846658965 -178.64697573069 0.97414343311512 -160.73587710759 
14.25                          0.970856170561892 -169.362153214572 0.00386936106055993 -178.938805329784 0.00386936106055995 -178.938805329784 0.973666996517405 -161.589065633833 
14.3                           0.970298707910928 -170.268098609982 0.00395400368987307 -179.207416802135 0.00395400368987311 -179.207416802135 0.973175068686058 -162.447823700862 
14.35                          0.969722485235087 -171.180733577405 0.00404327520993411 -179.452501090671 0.00404327520993412 -179.452501090671 0.972666837472866 -163.312326766497 
14.4                           0.969126508942374 -172.100284629559 0.0041375756676195 -179.67382175951 0.00413757566761951 -179.67382175951 0.972141432707083 -164.182760192054 
14.45                          0.968509714376177 -173.026990896339 0.00423734674905868 -179.871226773161 0.0042373467490587 -179.871226773161 0.971597920972208 -165.059319939409 
14.5                           0.967870959414385 -173.961105004272 0.00434307654002337 179.955338756502 0.00434307654002337 179.955338756503 0.97103529981284 -165.942213327853 
14.55                          0.967209017369157 -174.902894031125 0.00445530486324657 179.805818894901 0.00445530486324657 179.805818894901 0.970452491298273 -166.831659856868 
14.6                           0.966522569097068 -175.852640543365 0.00457462926678285 179.680032351506 0.00457462926678285 179.680032351505 0.969848334858505 -167.727892101725 
14.65                          0.965810194215905 -176.810643725105 0.00470171174814758 179.577657194824 0.00470171174814759 179.577657194825 0.969221579295621 -168.631156689607 
14.7                           0.96507036130861 -177.777220608184 0.00483728631145579 179.498214961659 0.00483728631145579 179.498214961659 0.968570873858552 -169.541715364953 
14.75                          0.964301416976368 -178.752707414252 0.00498216746950986 179.441054349814 0.00498216746950985 179.441054349815 0.96789475825158 -170.459846153757 
14.8                           0.963501573581112 -179.73746102104 0.00513725982024936 179.405334728414 0.00513725982024936 179.405334728415 0.967191651426327 -171.385844637816 
14.85                          0.962668895492046 179.268139433438 0.00530356884776665 179.39000974465  0.00530356884776664 179.39000974465  0.966459838982433 -172.320025351324 
14.9                           0.961801283620492 178.263690793287 0.0054822131229368 179.39381134764  0.0054822131229368 179.39381134764  0.965697458973169 -173.262723313817 
14.95                          0.960896457991391 177.248763956244 0.00567443810849252 179.41523458576  0.00567443810849251 179.415234585761 0.964902485877772 -174.214295715307 
15                             0.95995193805705 176.222901754535 0.00588163180916889 179.452523559603 0.00588163180916887 179.452523559603 0.964072712461249 -175.175123771573 
15.05                          0.958965020407665 175.185616622723 0.0061053425506488 179.503658924602 0.00610534255064878 179.503658924602 0.963205729193288 -176.145614769968 
15.1                           0.957932753472169 174.136388027154 0.00634729922303394 179.566347331066 0.00634729922303392 179.566347331066 0.962298900839111 -177.126204328901 
15.15                          0.956851908729622 173.074659628246 0.00660943438735157 179.638013161053 0.00660943438735156 179.638013161054 0.961349339764275 -178.117358897315 
15.2                           0.955718947863151 171.999836142912 0.00689391071949504 179.715792867854 0.00689391071949505 179.715792867855 0.960353875409977 -179.119578524136 
15.25                          0.954529985181787 170.911279869932 0.00720315135778172 179.796532142692 0.00720315135778171 179.796532142693 0.959309019291987 179.866600068115 
15.3                           0.953280744506303 169.808306836003 0.00753987483141427 179.876786023921 0.00753987483141427 179.876786023922 0.958210924750521 178.840600066607 
15.35                          0.951966509557851 168.690182514316 0.00790713538171677 179.952821927569 0.00790713538171679 179.952821927569 0.957055340525109 177.801800763897 
15.4                           0.950582066696213 167.556117060901 0.00830836965122446 -179.979374582164 0.00830836965122447 -179.979374582164 0.955837557040795 176.749533315315 
15.45                          0.949121638619214 166.405260006448 0.00874745091387007 -179.924091642838 0.00874745091387008 -179.924091642837 0.954552344061589 175.683076000192 
15.5                           0.947578807345574 165.236694332844 0.00922875226051234 -179.885881115352 0.00922875226051236 -179.885881115352 0.95319387808294 174.601648921027 
15.55                          0.945946424446505 164.049429854228 0.00975722044770218 -179.869547523079 0.00975722044770221 -179.869547523079 0.951755657483477 173.504408065661 
15.6                           0.944216506049213 162.842395811944 0.0103384624761688 -179.880136844653 0.0103384624761688 -179.880136844653 0.950230403019702 172.390438647566 
15.65                          0.942380109585844 161.614432581524 0.0109788474044068 -179.922926274578 0.0109788474044068 -179.922926274578 0.948609940703118 171.258747628441 
15.7                           0.940427188575883 160.36428237797  0.0116856264412468 179.996583774231 0.0116856264412468 179.996583774231 0.946885063418483 170.108255315815 
15.75                          0.938346420871846 159.090578833748 0.0124670750235324 179.872674013225 0.0124670750235324 179.872674013226 0.945045366787105 168.937785916627 
15.8                           0.936125004720449 157.791835312858 0.0133326614011566 179.699405435839 0.0133326614011566 179.699405435839 0.943079053702228 167.746056916701 
15.85                          0.933748415634141 156.466431815848 0.0142932472591663 179.470611658162 0.0142932472591662 179.470611658162 0.940972700602592 166.531667147113 
15.9                           0.931200115353639 155.112600327199 0.0153613271515991 179.179882717108 0.0153613271515991 179.179882717108 0.938710976825162 165.293083394006 
15.95                          0.928461202012747 153.728408462391 0.0165513150604267 178.820538501095 0.0165513150604266 178.820538501095 0.936276306186299 164.02862541249  
16                             0.925509987867353 152.311741293944 0.0178798882928438 178.385589866446 0.0178798882928437 178.385589866447 0.933648457150896 162.736449224012 
16.05                          0.922321487464952 150.860281284522 0.019366401269714 177.867685328505 0.0193664012697139 177.867685328505 0.930804044395307 161.414528620237 
16.1                           0.91886679471686 149.371486347762 0.0210333846248492 177.25904098827  0.0210333846248491 177.25904098827  0.927715920044833 160.060634880835 
16.15                          0.915112321762917 147.842566220687 0.0229071485190152 176.551351040677 0.0229071485190151 176.551351040677 0.924352427117956 158.672314863037 
16.2                           0.911018865527842 146.270457607755 0.0250185132516662 175.73567578886  0.025018513251666 175.73567578886  0.920676480443076 157.246867877429 
16.25                          0.906540459193985 144.651799012872 0.0274036951617752 174.802303543601 0.027403695161775 174.802303543601 0.91664443121136 155.781322190864 
16.3                           0.901622955247675 142.98290691848  0.0301053813789858 173.740582113238 0.0301053813789856 173.740582113238 0.912204660102844 154.27241269461  
16.35                          0.896202274278051 141.259756169467 0.0331740329379011 172.53871480133  0.0331740329379009 172.53871480133  0.907295830433253 152.716562405163 
16.4                           0.890202239768819 139.477969343962 0.0366694614110202 171.183514981603 0.0366694614110199 171.183514981603 0.901844717282621 151.109872283712 
16.45                          0.88353190519018 137.632822974168 0.0406627280935295 169.660112538358 0.0406627280935292 169.660112538358 0.895763512269466 149.448126779642 
16.5                           0.876082269299978 135.719283407084 0.0452384140442722 167.951605003441 0.0452384140442719 167.951605003441 0.888946489633992 147.726827181996 
16.55                          0.867722276271356 133.73209296485  0.0504972986597564 166.038646579597 0.0504972986597561 166.038646579597 0.881265914533535 145.941272350843 
16.6                           0.85829402434637 131.665939616193 0.0565594544051386 163.898970315592 0.0565594544051384 163.898970315592 0.872567093283121 144.086718363154 
16.65                          0.8476071897348  129.515763318705 0.0635676992014302 161.506844092066 0.0635676992014299 161.506844092067 0.862662535965932 142.158667647753 
16.7                           0.835432866847737 127.277283664764 0.0716912176093134 158.832472553166 0.0716912176093134 158.832472553166 0.851325378106936 140.15336826349  
16.75                          0.821497432165003 124.947882426276 0.081128921675843 155.841379291248 0.081128921675843 155.841379291248 0.838282588498293 138.068650829107 
16.8                           0.805477831881209 122.528048793675 0.0921117026232949 152.493843806342 0.0921117026232951 152.493843806342 0.823209248145507 135.905301724128 
16.85                          0.787001158532112 120.023702141032 0.104902031104619 148.744536865973 0.104902031104619 148.744536865974 0.80572660744479 133.669273996398 
16.9                           0.765653936621859 117.449846859851 0.119788297671208 144.542609787171 0.119788297671208 144.542609787172 0.785409141773905 131.375172295715 
16.95                          0.741010657197525 114.836155701618 0.13706982297252 139.832660212447 0.137069822972521 139.832660212447 0.761809933727788 129.051587513345 
17                             0.712696931807868 112.235103524786 0.157026872915467 134.557214889826 0.157026872915468 134.557214889826 0.734519630417799 126.748892001755 
17.05                          0.68050881780068 109.732846175135 0.179869271254262 128.661582043266 0.179869271254263 128.661582043266 0.70328075396613 124.549729989127 
17.1                           0.644610852770509 107.461370636391 0.205659625758448 122.1019591574   0.205659625758449 122.1019591574   0.668181043920338 122.580933651024 
17.15                          0.605817072530755 105.606058775418 0.234216588445106 114.857182176636 0.234216588445107 114.857182176636 0.62993325936566 121.021633716949 
17.2                           0.565897092036487 104.39412014793  0.265023127234938 106.942993512229 0.265023127234939 106.942993512229 0.590190452732214 120.094467418782 
17.25                          0.527723330894532 104.03874537304  0.297190145987635 98.4250309922524 0.297190145987635 98.4250309922522 0.551724933922448 120.016934248344 
17.3                           0.494933938992352 104.618855268038 0.329536197434884 89.4239696845581 0.329536197434884 89.423969684558  0.518157902614369 120.892936341733 
17.35                          0.470849106328522 105.931994672006 0.36080812580057 80.1061798578169 0.36080812580057 80.1061798578169 0.492964914514739 122.572937727845 
17.4                           0.456944061899937 107.459010220039 0.38998156698652 70.6585161931661 0.38998156698652 70.6585161931661 0.477986238767791 124.603277828115 
17.45                          0.451949367534763 108.557698245728 0.416505884021281 61.2546914324258 0.416505884021281 61.254691432426  0.47242306965244 126.383835786504 
17.5                           0.452420267930322 108.756494900488 0.440376969868421 52.0262262829865 0.440376969868421 52.0262262829867 0.47321362316366 127.443620677794 
17.55                          0.454248102081731 107.890165642246 0.462028109653914 43.0479783289228 0.462028109653915 43.047978328923  0.476438243766769 127.595467959207 
17.6                           0.453911979361849 106.031338300083 0.482125122502946 34.3396393979225 0.482125122502948 34.3396393979226 0.478612068291543 126.895300212566 
17.65                          0.448946907809337 103.359819296221 0.501366030449276 25.8777083422458 0.501366030449278 25.877708342246  0.477252496547048 125.523852797597 
17.7                           0.437857692486807 100.074328774244 0.520339273696582 17.6109767921832 0.520339273696585 17.6109767921833 0.470871132802641 123.698106887207 
17.75                          0.419853985487306 96.3609223318313 0.539445486099746 9.47483575143906 0.539445486099748 9.47483575143909 0.458752058760743 121.63560547123  
17.8                           0.39462357559273 92.3986860288868 0.558864878941738 1.40259831662926 0.55886487894174 1.40259831662926 0.440749877787923 119.555328108186 
17.85                          0.362214163071058 88.3882498080544 0.578551806725607 -6.66613102282152 0.578551806725609 -6.66613102282158 0.417194167689183 117.69761005386  
17.9                           0.323028172568701 84.6038619487723 0.598247056021206 -14.7793752455891 0.598247056021208 -14.7793752455892 0.388912260150128 116.352944304594 
17.95                          0.277927715002562 81.4913330865871 0.617507496346418 -22.9684493582823 0.617507496346418 -22.9684493582824 0.357356236960911 115.891552381561 
18                             0.228491129643137 79.8800713296655 0.635757478122398 -31.2452586510034 0.635757478122398 -31.2452586510034 0.324803187271081 116.77504231384  
18.05                          0.177633627773104 81.4965482423481 0.652364873626636 -39.601528942113 0.652364873626635 -39.6015289421129 0.29454331676012 119.498015480695 
18.1                           0.131390864159972 90.1195410658366 0.666736994396293 -48.0104188945755 0.666736994396292 -48.0104188945754 0.270807224079607 124.357831815432 
18.15                          0.103253967387307 111.379889759003 0.678420779823421 -56.4307175720587 0.67842077982342 -56.4307175720586 0.257932633303552 131.01216536035  
18.2                           0.110339654791957 138.458581266404 0.687183763242231 -64.8132243895068 0.68718376324223 -64.8132243895066 0.258519518368835 138.206647417647 
18.25                          0.145865283338995 153.842586357474 0.693053708872125 -73.1082126466971 0.693053708872125 -73.1082126466969 0.271818424797189 144.332520908594 
18.3                           0.191378545935236 158.615599805246 0.696306940860968 -81.2724790146105 0.696306940860968 -81.2724790146103 0.294246005204269 148.404903858183 
18.35                          0.237391421208229 158.144540692687 0.697412483966955 -89.2746303344496 0.697412483966955 -89.2746303344494 0.321423862827275 150.318376537609 
18.4                           0.280010354859168 155.135250945789 0.696951989064297 -97.0978820924325 0.696951989064298 -97.0978820924324 0.349681927024304 150.442525852561 
18.45                          0.317524431031111 150.801450954895 0.695538258749076 -104.740405800958 0.695538258749076 -104.740405800958 0.376471030984566 149.236145213001 
18.5                           0.349197542379318 145.720446427293 0.693749077237657 -112.213822030022 0.693749077237657 -112.213822030022 0.400214002681751 147.084400053342 
18.55                          0.374802595380603 140.181971229696 0.692083392858378 -119.540641852035 0.692083392858378 -119.540641852035 0.420032588127737 144.268908514574 
18.6                           0.394397011652522 134.333111768352 0.69093880187232 -126.751369647336 0.690938801872318 -126.751369647336 0.435510218350163 140.983105214967 
18.65                          0.408197082374557 128.244096317294 0.690604963308514 -133.881746873572 0.690604963308511 -133.881746873572 0.446520528386868 137.355217499765 
18.7                           0.416505643577307 121.940891465089 0.691266688876914 -140.970374525756 0.691266688876911 -140.970374525756 0.45311400177729 133.467704165698 
18.75                          0.419674621745653 115.42253953914  0.693011586185483 -148.056773265849 0.693011586185479 -148.056773265849 0.455448830914102 129.371356453746 
18.8                           0.418092541676344 108.670859113177 0.695838974951089 -155.179840985092 0.695838974951085 -155.179840985092 0.453753590752282 125.094733856278 
18.85                          0.412190439060383 101.656044460001 0.699668550715782 -162.376635205719 0.699668550715779 -162.376635205718 0.448311951932144 120.649882118329 
18.9                           0.402461206789428 94.3399725263077 0.704348594594348 -169.681421357364 0.704348594594344 -169.681421357364 0.439461778386099 116.03497553128  
18.95                          0.389488037397985 86.678304047077  0.709664313598096 -177.124968071079 0.709664313598093 -177.124968071079 0.427602304917868 111.234131639599 
19                             0.373977495409737 78.6222776212141 0.715347106296229 175.265879757397 0.715347106296227 175.265879757397 0.413203906208724 106.214314618037 
19.05                          0.356791978765155 70.1213056906627 0.721085149804807 167.468277229188 0.721085149804806 167.468277229188 0.396815849932852 100.919064637534 
19.1                           0.338975063380408 61.1280408588314 0.726534701815959 159.463016606436 0.726534701815959 159.463016606436 0.379069352769238 95.2589043458673 
19.15                          0.321761669689927 51.608259065343  0.731330050310081 151.233668814912 0.731330050310082 151.233668814912 0.360677471534415 89.0989273584503 
19.2                           0.306563555505305 41.5578146947206 0.735088516859653 142.765269610382 0.735088516859653 142.765269610382 0.342440812643686 82.2456764824343 
19.25                          0.294920644020609 31.0260232237135 0.737406012906018 134.042759934976 0.737406012906018 134.042759934975 0.325277932588687 74.4386319096778 
19.3                           0.288413330317032 20.1368409028879 0.737839274807151 125.049621630653 0.737839274807149 125.049621630652 0.310306074847928 65.3574240365645 
19.35                          0.288543522647764 9.08855111004973 0.735874055536021 115.767412143036 0.735874055536017 115.767412143036 0.298986331433618 54.6646555250542 
19.4                           0.296607495861337 -1.88723430710122 0.730885124226132 106.17713405173  0.730885124226127 106.177134051729 0.293289706768132 42.1103107489805 
19.45                          0.313580809385324 -12.6005164534737 0.722104344019982 96.2634627491976 0.722104344019975 96.2634627491971 0.295718871016058 27.701953005541  
19.5                           0.340001890542358 -22.9679504352584 0.70862608619055 86.0225865378637 0.708626086190544 86.0225865378633 0.308918836053988 11.857126465105  
19.55                          0.375814112609931 -33.0209020578051 0.689488925413211 75.4734645249097 0.689488925413205 75.4734645249096 0.334787722944527 -4.64180588059763 
19.6                           0.420167153015641 -42.8526068907447 0.663865224868458 64.670413768713  0.663865224868455 64.670413768713  0.37352279428882 -20.9487988887245 
19.65                          0.471276789249142 -52.5440726728634 0.631347914303706 53.7124238053808 0.631347914303708 53.7124238053808 0.423268256684407 -36.4641573404282 
19.7                           0.526500881810873 -62.1127010287554 0.592245809317722 42.743047118858  0.592245809317727 42.7430471188579 0.480539771704561 -50.9058654018313 
19.75                          0.582719205413531 -71.5024241999575 0.547732517237617 31.9366018296551 0.547732517237626 31.9366018296547 0.541092031165088 -64.1983624996583 
19.8                           0.636923463552867 -80.6078454433926 0.499721404325829 21.4725762266649 0.499721404325839 21.4725762266641 0.600848838705779 -76.3517608639374 
19.85                          0.686771108675365 -89.3120201101468 0.450483326235466 11.5070465957465 0.450483326235475 11.5070465957452 0.656620499855829 -87.4029083527436 
19.9                           0.730875312751167 -97.5185926709342 0.40217871430336 2.15183364856061 0.402178714303368 2.15183364855882 0.706439209634707 -97.4019382223536 
19.95                          0.768775429503932 -105.168454307838 0.356504275209945 -6.53273014958761 0.356504275209952 -6.53273014958985 0.749506849081067 -106.413339267212 
20                             0.800698101059601 -112.24131519018 0.31455032291003 -14.5327596818626 0.314550322910034 -14.5327596818651 0.785900465085649 -114.515515987821 
20.05                          0.827265399273642 -118.748124010573 0.276839746844749 -21.8690684013995 0.276839746844751 -21.8690684014023 0.816217802959965 -121.796160248208 
20.1                           0.849254854550522 -124.720560833667 0.243461887038263 -28.5842436060561 0.243461887038262 -28.5842436060589 0.841283812809871 -128.345891746466 
20.15                          0.867445113230182 -130.201514940551 0.214224115013062 -34.7318342371292 0.21422411501306 -34.7318342371319 0.861957939001037 -134.252650554616 
20.2                           0.882536679595509 -135.238056487792 0.188778925919606 -40.3687081681312 0.188778925919603 -40.3687081681339 0.879030931004823 -139.59792482947 
20.25                          0.895123010156373 -139.876939543262 0.166714042510234 -45.5503223926125 0.166714042510232 -45.550322392615 0.893182878284424 -144.454815334706 
20.3                           0.905689559157023 -144.162082691071 0.147608898654665 -50.3281733195112 0.147608898654663 -50.3281733195135 0.904976263180682 -148.887477057671 
20.35                          0.914625566959887 -148.133389590267 0.131066127949953 -54.7486859019803 0.13106612794995 -54.7486859019822 0.914865857217752 -152.951421277229 
20.4                           0.922239899995128 -151.82639023022 0.116726552062683 -58.8529648291129 0.11672655206268 -58.8529648291146 0.923214799184174 -156.694269726562 
20.45                          0.928776654287587 -155.272340518002 0.104274198027848 -62.6770149549444 0.104274198027846 -62.6770149549458 0.930311389890771 -160.156689134806 
20.5                           0.934428773273188 -158.498549926464 0.0934357749832462 -66.2521855665733 0.0934357749832445 -66.2521855665744 0.936384209490649 -163.373346178132 
20.55                          0.939349228504291 -161.528800766126 0.0839773857391475 -69.6056953544107 0.0839773857391461 -69.6056953544115 0.941614783701109 -166.373799489367 
20.6                           0.943659895208405 -164.383783399755 0.0757001065136044 -72.7611601716993 0.0757001065136033 -72.7611601717   0.946147790128902 -169.183292584173 
20.65                          0.947458466435594 -167.081508711454 0.068435338899768 -75.7390849147147 0.0684353388997673 -75.7390849147151 0.950099103152665 -171.823438274706 
20.7                           0.950823785926483 -169.637680590707 0.0620403968179  -78.5573033407896 0.0620403968178996 -78.5573033407899 0.953562058603167 -174.312798936704 
20.75                          0.953819943707187 -172.066023039831 0.0563945357987906 -81.2313618801934 0.0563945357987906 -81.2313618801934 0.95661230319704 -176.667373201615 
20.8                           0.956499419673344 -174.378562670874 0.0513954907683529 -83.7748497162345 0.051395490768353 -83.7748497162346 0.959311541187185 -178.901001661481 
20.85                          0.958905501132255 -176.585870258515 0.0469565149774804 -86.1996802126166 0.0469565149774808 -86.1996802126166 0.961710431184353 178.974295961968 
20.9                           0.961074148766169 -178.697266119061 0.0430038779763338 -88.5163297107187 0.0430038779763342 -88.5163297107186 0.963850831669699 176.948040858456 
20.95                          0.963035443777239 179.279005756611 0.0394747672459678 -90.7340397014714 0.0394747672459684 -90.7340397014715 0.965767548259125 175.011062538089 
21                             0.964814716468558 177.33563019227  0.0363155361448368 -92.8609879040949 0.0363155361448375 -92.8609879040951 0.967489699572944 173.155305281741 
21.05                          0.966433431720252 175.466095812291 0.0334802444245679 -94.9044331345594 0.0334802444245687 -94.9044331345593 0.969041790486782 171.373666704048 
21.1                           0.96790988813665 173.664588949755 0.0309294435121197 -96.8708381655327 0.0309294435121205 -96.8708381655327 0.970444560099573 169.659862720865 
21.15                          0.969259773653983 171.925903433919 0.0286291653308338 -98.76597413775  0.0286291653308345 -98.7659741377502 0.971715655523054 168.008314246464 
21.2                           0.970496609955479 170.245363695232 0.0265500797783969 -100.595009510279 0.0265500797783977 -100.59500951028 0.972870170361239 166.414051804033 
21.25                          0.971632110245082 168.618759045213 0.0246667917066344 -102.362586042589 0.0246667917066351 -102.362586042589 0.97392107753651 164.872634937536 
21.3                           0.972676469101789 167.04228734571  0.022957253223522 -104.072883882217 0.0229572532235227 -104.072883882218 0.974879579179615 163.380083887035 
21.35                          0.973638598765138 165.512506582296 0.0214022713605517 -105.72967748107 0.0214022713605523 -105.72967748107 0.975755391062516 161.932821455387 
21.4                           0.974526322911822 164.026293106755 0.0199850946795031 -107.3363837719  0.0199850946795037 -107.336383771901 0.976556975087028 160.52762337151  
21.45                          0.975346536495446 162.580805521014 0.0186910653167701 -108.896103795528 0.0186910653167706 -108.896103795529 0.977291730328234 159.161575760761 
21.5                           0.976105338331452 161.173453346273 0.0175073253700825 -110.411658770457 0.0175073253700829 -110.411658770458 0.977966150831803 157.832038580266 
21.55                          0.976808141665923 159.801869762642 0.0164225685057871 -111.885621432646 0.0164225685057874 -111.885621432647 0.978585956601341 156.536614077652 
21.6                           0.977459766859133 158.463887821379 0.0154268292794195 -113.320343338019 0.0154268292794198 -113.32034333802 0.979156202854196 155.273119494513 
21.65                          0.978064519459603 157.157519628343 0.0145113039821088 -114.717978708766 0.0145113039821091 -114.717978708767 0.979681371573433 154.03956336874  
21.7                           0.978626256280905 155.880938077099 0.0136681979041913 -116.080505312296 0.0136681979041915 -116.080505312297 0.980165448566537 152.83412489814  
21.75                          0.979148441575717 154.632460776252 0.0128905947897892 -117.40974278534 0.0128905947897893 -117.409742785341 0.980611988602863 151.655135916544 
21.8                           0.979634194995525 153.410535870532 0.0121723449786142 -118.707368752333 0.0121723449786142 -118.707368752333 0.981024170700299 150.501065106443 
21.85                          0.980086332704049 152.213729500886 0.0115079693237019 -119.974933034439 0.0115079693237019 -119.97493303444 0.981404845235859 149.37050413223  
21.9                           0.980507402758536 151.04071468697  0.0108925764604278 -121.21387020157 0.0108925764604278 -121.21387020157 0.981756574241075 148.262155427706 
21.95                          0.980899715670707 149.890261447383 0.010321791402659 -122.425510682889 0.010321791402659 -122.425510682888 0.982081665993027 147.174821412633 
22                             0.981265370897073 148.761227999756 0.0097916937721923 -123.611090620369 0.00979169377219224 -123.611090620369 0.982382204811739 146.107394947278 
22.05                          0.981606279877872 147.652552905334 0.00929876424060841 -124.771760623935 0.00929876424060833 -124.771760623934 0.982660076813765 145.058850862398 
22.1                           0.981924186138388 146.563248041707 0.00883983798880358 -125.908593564695 0.00883983798880349 -125.908593564695 0.982916992241887 144.02823842598  
22.15                          0.982220682880711 145.492392303397 0.00841206417719043 -127.02259152417 0.00841206417719029 -127.02259152417 0.983154504885446 143.014674628018 
22.2                           0.982497228424032 144.439125943651 0.00801287057579349 -128.114692001543 0.00801287057579337 -128.114692001542 0.983374029020027 142.017338181488 
22.25                          0.982755159794221 143.402645482381 0.00763993263377384 -129.185773467507 0.00763993263377372 -129.185773467505 0.98357685422507 141.035464151878 
22.3                           0.982995704716256 142.382199115048 0.00729114637686232 -130.236660341695 0.00729114637686217 -130.236660341694 0.983764158380337 140.068339139638 
22.35                          0.983219992224017 141.377082565768 0.00696460461247542 -131.268127460828 0.00696460461247527 -131.268127460826 0.983937019094714 139.11529695017  
22.4                           0.983429062069624 140.386635335112 0.00665857599896597 -132.280904096169 0.00665857599896582 -132.280904096168 0.984096423781586 138.175714694618 
22.45                          0.983623873087501 139.410237299327 0.00637148660000826 -133.275677571588 0.00637148660000816 -133.275677571585 0.984243278562374 137.249009272177 
22.5                           0.983805310645802 138.447305623021 0.00610190359957921 -134.253096527148 0.00610190359957911 -134.253096527146 0.984378416152737 136.334634190957 
22.55                          0.983974193298929 137.497291952006 0.00584852089904379 -135.2137738677  0.00584852089904367 -135.213773867699 0.984502602863186 135.432076689889 
22.6                           0.984131278738933 136.559679856958 0.00561014635687855 -136.158289431148 0.00561014635687843 -136.158289431146 0.984616544826878 134.540855128845 
22.65                          0.984277269130126 135.633982502048 0.00538569046470434 -137.087192406929 0.00538569046470423 -137.087192406927 0.98472089355132 133.660516618177 
22.7                           0.984412815899849 134.719740515682 0.00517415628150097 -138.001003531657 0.00517415628150089 -138.001003531655 0.984816250877208 132.790634862347 
22.75                          0.984538524048623 133.816520043125 0.00497463047192747 -138.900217085671 0.0049746304719274 -138.90021708567 0.9849031734162  131.930808195367 
22.8                           0.984654956034676 132.923910963074 0.00478627531521991 -139.785302711513 0.00478627531521987 -139.785302711512 0.984982176529715 131.080657788375 
22.85                          0.984762635280732 132.041525252226 0.00460832156873484 -140.656707072921 0.00460832156873481 -140.656707072919 0.985053737902584 130.239826011925 
22.9                           0.984862049344934 131.168995483667 0.00444006208529989 -141.514855370792 0.00444006208529987 -141.514855370792 0.985118300758341 129.407974937612 
22.95                          0.984953652792523 130.305973446419 0.00428084609650629 -142.360152730725 0.00428084609650631 -142.360152730725 0.985176276756896 128.584784965327 
23                             0.985037869800445 129.452128874853 0.00413007408524926 -143.192985475087 0.00413007408524925 -143.192985475087 0.985228048610173 127.769953563984 
