! Touchstone file exported from HFSS 3D Layout Design 2026.1.0
!        File:           D:/Work/SIM/ADS_AUTO_SIM/projects/RFSOC_RF/TX_Fillter.aedt
!        Generated:      01:39:21 AM Aug 31, 2026
!        Design:         TX_BAND1_MCFIL_R23_CNN042
!        Project:        TX_Fillter
!
# GHz S MA R 50.000000
! Terminal data exported
! Port[1] = Port1
! Port[2] = Port2
14                             0.971664129985296 -167.703956474679 0.00396420631477485 -178.043110106532 0.00396420631477485 -178.043110106532 0.973111472098017 -165.438997453012 
14.05                          0.971134491178253 -168.602282968426 0.00404542243726486 -178.423721440935 0.00404542243726485 -178.423721440935 0.972620969399261 -166.31315381674 
14.1                           0.970588055105921 -169.507151802476 0.00413063284429259 -178.785297657426 0.00413063284429255 -178.785297657426 0.972115026177926 -167.193273043158 
14.15                          0.970023998940061 -170.418772136384 0.00422015081330309 -179.127587304079 0.00422015081330304 -179.127587304079 0.971592879590571 -168.079544699803 
14.2                           0.969441445794739 -171.337363911696 0.00431431971375662 -179.45039010002 0.00431431971375657 -179.45039010002 0.971053716092529 -168.972168329253 
14.25                          0.968839460273282 -172.263158549188 0.00441351622364678 -179.753564846188 0.00441351622364671 -179.753564846188 0.970496667214469 -169.871354104   
14.3                           0.96821704357202 -173.196399701211 0.00451815391362074 179.962962003484 0.00451815391362068 179.962962003484 0.969920804914207 -170.777323533742 
14.35                          0.96757312808891 -174.137344064353 0.00462868724306296 179.699187118406 0.00462868724306291 179.699187118407 0.969325136453523 -171.69031023011 
14.4                           0.96690657147803 -175.086262258206 0.0047456160183156 179.455020438094 0.00474561601831552 179.455020438095 0.968708598742874 -172.610560734425 
14.45                          0.9662161500829  -176.043439776694 0.00486949036990952 179.23027472985  0.00486949036990945 179.230274729851 0.968070052088953 -173.53833541469 
14.5                           0.965500551672148 -177.009178019124 0.00500091631343344 179.024654617931 0.00500091631343336 179.024654617932 0.967408273270905 -174.473909438768 
14.55                          0.964758367390221 -177.983795408952 0.00514056196767608 178.837745167129 0.00514056196767601 178.837745167129 0.96672194786036 -175.417573831447 
14.6                           0.96398808282319 -178.967628609205 0.00528916451418344 178.669000127847 0.00528916451418338 178.669000127848 0.966009661688082 -176.36963662408 
14.65                          0.963188068065047 -179.96103384452 0.00544753799467262 178.517729975141 0.00544753799467255 178.517729975142 0.965269891345638 -177.330424106443 
14.7                           0.962356566652733 179.035611659003 0.00561658205719369 178.383089899721 0.00561658205719366 178.383089899722 0.96450099359365 -178.300282191683 
14.75                          0.961491683218098 178.021908103629 0.00579729177896414 178.264067933512 0.00579729177896411 178.264067933512 0.963701193528503 -179.279577906539 
14.8                           0.960591369681514 176.997431405407 0.00599076871393177 178.1594734144   0.00599076871393175 178.159473414401 0.962868571336245 179.731298979492 
14.85                          0.959653409784209 175.961731319383 0.00619823333698266 178.067926012617 0.00619823333698265 178.067926012618 0.9620010474352  178.731934170586 
14.9                           0.958675401723852 174.914329386777 0.00642103908504469 177.987845552683 0.00642103908504465 177.987845552683 0.961096365776694 177.721886889268 
14.95                          0.957654738619449 173.854716684065 0.00666068822904833 177.917442868064 0.00666068822904831 177.917442868065 0.960152075035288 176.700687729685 
15                             0.956588586485975 172.782351351278 0.00691884985087192 177.85471191842  0.00691884985087191 177.85471191842  0.959165507374842 175.667836297282 
15.05                          0.955473859345042 171.696655873902 0.00719738024730966 177.797423379665 0.00719738024730963 177.797423379664 0.958133754423055 174.622798609754 
15.1                           0.954307191033271 170.597014089375 0.00749834614031088 177.743119883548 0.00749834614031088 177.743119883548 0.957053640023151 173.565004230802 
15.15                          0.953084903192903 169.482767885311 0.00782405114110919 177.689113034842 0.0078240511411092 177.689113034842 0.955921689254747 172.49384310435  
15.2                           0.951802968836635 168.353213552197 0.00817706599763656 177.63248227031  0.00817706599763657 177.63248227031  0.954734093124019 171.408662052524 
15.25                          0.950456970767441 167.207597748249 0.00856026325251298 177.570075544904 0.00856026325251301 177.570075544903 0.953486668212534 170.308760895633 
15.3                           0.94904205399995 166.045113028409 0.00897685705620507 177.498511738505 0.0089768570562051 177.498511738505 0.952174810440453 169.193388146655 
15.35                          0.947552871167657 164.864892882886 0.00943044902065678 177.414184573435 0.00943044902065679 177.414184573435 0.950793441937804 168.061736226173 
15.4                           0.945983519703223 163.666006223283 0.00992508116769642 177.313267722094 0.00992508116769645 177.313267722095 0.949336949820668 166.912936136198 
15.45                          0.944327469339353 162.447451245912 0.0104652972297887 177.191720669293 0.0104652972297887 177.191720669293 0.947799115429125 165.746051522881 
15.5                           0.942577478184845 161.208148592499 0.0110562138055511 177.045294779223 0.0110562138055511 177.045294779223 0.946173032290234 164.560072048483 
15.55                          0.940725495271702 159.946933717937 0.0117036031678795 176.86953890657  0.0117036031678795 176.869538906569 0.944451010709201 163.353905982282 
15.6                           0.938762547028444 158.662548363172 0.0124139898795413 176.659803788353 0.0124139898795413 176.659803788353 0.942624466448616 162.126371908137 
15.65                          0.93667860459158 157.353631018694 0.0131947638031961 176.411244360182 0.0131947638031961 176.411244360181 0.940683790408499 160.876189433457 
15.7                           0.934462428196099 156.018706250837 0.0140543126164373 176.118819058462 0.0140543126164373 176.118819058462 0.938618195542533 159.60196877037  
15.75                          0.932101384054274 154.656172749552 0.01500217757759 175.777285098033 0.01500217757759 175.777285098033 0.93641553640501 158.302199045553 
15.8                           0.929581228099618 153.264289943516 0.0160492370586422 175.381188649786 0.0160492370586422 175.381188649786 0.934062095676799 156.975235181144 
15.85                          0.926885849688297 151.841163017773 0.0172079232963548 174.924848780409 0.0172079232963548 174.924848780409 0.931542330714058 155.619283176939 
15.9                           0.923996966750167 150.384726163209 0.0184924789445274 174.402333949794 0.0184924789445274 174.402333949794 0.928838571534308 154.232383615882 
15.95                          0.920893761887031 148.892723889846 0.019919261377278 173.807429782967 0.019919261377278 173.807429782967 0.925930659618333 152.812393214509 
16                             0.917552446430721 147.362690253641 0.0215071043358149 173.133596733431 0.0215071043358149 173.133596733431 0.92279551436178 151.356964253474 
16.05                          0.913945736383264 145.791925888983 0.0232777484702421 172.373916124404 0.0232777484702421 172.373916124403 0.919406610834838 149.863521759905 
16.1                           0.910042220333148 144.177472821828 0.0252563546374561 171.521022884907 0.0252563546374562 171.521022884907 0.915733348558669 148.329238388007 
16.15                          0.905805594731561 142.516087185362 0.0274721164910037 170.567023082658 0.0274721164910038 170.567023082658 0.911740286123587 146.751007079978 
16.2                           0.901193736181035 140.804210208567 0.0299589919120335 169.503394093306 0.0299589919120335 169.503394093306 0.907386210494917 145.125411822028 
16.25                          0.896157573538468 139.037938255969 0.0327565760739954 168.320864941836 0.0327565760739955 168.320864941836 0.902623002648086 143.448697196022 
16.3                           0.890639714681167 137.212993354359 0.0359111421500227 167.00927402721  0.0359111421500227 167.00927402721  0.897394252715232 141.716738053527 
16.35                          0.884572773999147 135.32469668953  0.0394768783389208 165.557401139819 0.0394768783389209 165.557401139819 0.891633568316794 139.9250116419   
16.4                           0.877877337844312 133.367949211469 0.0435173510251959 163.952770488021 0.043517351025196 163.952770488021 0.885262509884935 138.068576104045 
16.45                          0.870459498058461 131.337226089384 0.0481072217514365 162.181421517781 0.0481072217514367 162.181421517781 0.878188078202126 136.142061785486 
16.5                           0.862207881914234 129.226595835773 0.0533342372410604 160.227644902726 0.0533342372410606 160.227644902726 0.870299675494618 134.139685729026 
16.55                          0.852990117225705 127.029781285883 0.0593014918663083 158.07368264705  0.0593014918663085 158.07368264705  0.861465468886396 132.055305914567 
16.6                           0.842648706705367 124.740289522679 0.0661299223340054 155.699394515843 0.0661299223340056 155.699394515843 0.851528116217238 129.882541430242 
16.65                          0.830996368498507 122.351653157339 0.0739609215932591 153.08189916912  0.0739609215932592 153.08189916912  0.840299891448056 127.614999682736 
16.7                           0.817811069379713 119.857848866043 0.0829588325168556 150.195209272596 0.0829588325168557 150.195209272596 0.827557408973387 125.246674674009 
16.75                          0.802831298711035 117.253994588837 0.0933128719397044 147.009898250546 0.0933128719397046 147.009898250545 0.813036458440081 122.772615071956 
16.8                           0.78575270875104 114.537479190536 0.105237702747089 143.49286609623  0.10523770274709 143.49286609623  0.796428028634925 120.190012108472 
16.85                          0.766228232821519 111.709752598587 0.118971373098813 139.607317553199 0.118971373098813 139.607317553199 0.777377575649074 117.499930206871 
16.9                           0.743875381329572 108.779101997839 0.134768654179237 135.31313250759  0.134768654179237 135.31313250759  0.755491177101835 114.709999492537 
16.95                          0.718296777835353 105.764849283557 0.152886985312544 130.567896049028 0.152886985312544 130.567896049028 0.730354594832689 111.838498752121 
17                             0.689123073957209 102.703480101841 0.173561529305606 125.328952320845 0.173561529305606 125.328952320845 0.701574408522961 108.920336570699 
17.05                          0.656090390201499 99.6571256424667 0.196965893109969 119.556911827412 0.196965893109969 119.556911827412 0.668853541590816 106.015365795098 
17.1                           0.619164944516852 96.724261297091  0.223157102201889 113.220986988445 0.223157102201888 113.220986988445 0.632114317892684 103.218958596207 
17.15                          0.578720279623805 94.0508473045747 0.252009110198233 106.306206741712 0.252009110198233 106.306206741712 0.591675482706893 100.673254833897 
17.2                           0.53574896292506 91.8364035960623 0.283149498703815 98.8218056332496 0.283149498703814 98.8218056332497 0.548466994742947 98.5740317662902 
17.25                          0.492042320201904 90.3227331140123 0.31592673823499 90.8088883816517 0.315926738234989 90.8088883816517 0.504219464632937 97.1617976107818 
17.3                           0.450201951535764 89.7449112033618 0.349441717198508 82.3442688798407 0.349441717198508 82.3442688798408 0.461496756472467 96.6778142157236 
17.35                          0.413295339793318 90.2264347827266 0.382664000312113 73.5371777691524 0.382664000312113 73.5371777691524 0.423387336818831 97.2663687538166 
17.4                           0.384041209110479 91.6402541912069 0.414615300534437 64.5173639294972 0.414615300534438 64.5173639294972 0.392730217313468 98.8386973110096 
17.45                          0.363736478052028 93.540990340626  0.444558529794869 55.416784125272  0.444558529794869 55.4167841252719 0.371049360041375 100.992635776522 
17.5                           0.35157824734887 95.2935381105636 0.47211674973863 46.3504557289739 0.472116749738629 46.3504557289738 0.357808035306828 103.115221065815 
17.55                          0.344970073808929 96.3477571286603 0.497280289241274 37.4025669450233 0.497280289241273 37.4025669450232 0.3506032634142  104.644646211624 
17.6                           0.340592505603127 96.431703396347  0.520317174065199 28.6211708009539 0.520317174065199 28.6211708009538 0.346177015544575 105.278924310828 
17.65                          0.335436376405313 95.5480340293087 0.54163894550957 20.0209201644347 0.541638945509569 20.0209201644346 0.341477409002996 104.994825059137 
17.7                           0.327312633273976 93.8652996299976 0.561673400476927 11.5908331844454 0.561673400476926 11.5908331844453 0.334230312625366 103.948520170804 
17.75                          0.314906997691282 91.6219598333293 0.580772767237426 3.30376342862646 0.580772767237426 3.30376342862638 0.323039564508564 102.377450614067 
17.8                           0.297638266291821 89.0834027027567 0.599162852243658 -4.87474376161065 0.599162852243657 -4.87474376161073 0.30726587265443 100.551691487112 
17.85                          0.27550359727232 86.5449255068012 0.616926479897969 -12.979308576124 0.616926479897969 -12.979308576124 0.286877941058249 98.7707067514653 
17.9                           0.248989256588107 84.3697314396995 0.634011973933339 -21.0395536093798 0.634011973933338 -21.0395536093799 0.262363210640971 97.3920940364131 
17.95                          0.21907499568363 83.0640203078321 0.650259261730163 -29.0768102178867 0.650259261730162 -29.0768102178867 0.234727310925899 96.8861853550171 
18                             0.18736417736795 83.4048650970174 0.665438268257601 -37.1025007461521 0.665438268257601 -37.1025007461521 0.205599821607084 97.9126168532978 
18.05                          0.156416623870627 86.6187919518886 0.679294809209029 -45.1180223935738 0.679294809209029 -45.1180223935739 0.177468103600258 101.381545337503 
18.1                           0.130357257834651 94.3847919944453 0.691598280667476 -53.1159546338123 0.691598280667477 -53.1159546338124 0.15398132727516 108.306778859287 
18.15                          0.115174077185861 107.571169855761 0.702184249710043 -61.0823388449989 0.702184249710043 -61.082338844999 0.139799100768157 118.949326295053 
18.2                           0.116001249046003 123.025472470931 0.710985009820531 -68.9996591151706 0.710985009820531 -68.9996591151708 0.138683345321068 131.341296363039 
18.25                          0.131650208458805 134.900545120196 0.718043130426522 -76.8500514813582 0.718043130426522 -76.8500514813584 0.150384414447282 141.929370371187 
18.3                           0.155905474975041 141.11844585953  0.723506717799875 -84.6182502461528 0.723506717799875 -84.618250246153 0.170818000846139 148.724240850459 
18.35                          0.183165424757859 142.933277958541 0.727609205922197 -92.293871504463 0.727609205922196 -92.2938715044631 0.195340574943772 151.956407398558 
18.4                           0.210018564621004 141.916602561189 0.730639451978186 -99.8728096453565 0.730639451978186 -99.8728096453566 0.220574263175027 152.600977890691 
18.45                          0.234571108095052 139.121949348447 0.73290880868872 -107.357720943346 0.73290880868872 -107.357720943346 0.244424996690123 151.516901235506 
18.5                           0.255791074182872 135.17396323139  0.734720801185575 -114.757727803788 0.734720801185575 -114.757727803788 0.26567175016999 149.296274669548 
18.55                          0.273146480523232 130.436282832108 0.736346907390222 -122.087564058206 0.736346907390222 -122.087564058206 0.283643792883872 146.321189088436 
18.6                           0.286416123834532 125.120452867653 0.738009722032248 -129.366396511841 0.738009722032249 -129.366396511841 0.298021598539888 142.834932253128 
18.65                          0.295586371866262 119.347547440441 0.739873141511153 -136.616523945701 0.739873141511155 -136.616523945701 0.308717926995494 138.992199042651 
18.7                           0.300793395176145 113.182708297731 0.742038349012408 -143.86210088024 0.74203834901241 -143.86210088024 0.315806141832962 134.890378638499 
18.75                          0.302292349840534 106.654996090717 0.744544180085674 -151.127982234145 0.744544180085677 -151.127982234145 0.319477007294634 130.588151943078 
18.8                           0.300444138314078 99.7692667811472 0.747370637112503 -158.438748580268 0.747370637112506 -158.438748580268 0.320013142205535 126.115888077145 
18.85                          0.295713962914311 92.5137856378003 0.750444623585498 -165.817952464046 0.750444623585501 -165.817952464046 0.31777413423015 121.480462907969 
18.9                           0.28867716735233 84.8659019105767 0.753647178278171 -173.287620042898 0.753647178278174 -173.287620042898 0.313187249417783 116.665918859605 
18.95                          0.280028093385163 76.7976141971526 0.756821481305361 179.131958890445 0.756821481305363 179.131958890445 0.306740057201358 111.630771269271 
19                             0.270587334362588 68.2828296203186 0.759780640830003 171.422125455824 0.759780640830004 171.422125455824 0.298973023457113 106.302653455225 
19.05                          0.261302080206763 59.3081025666445 0.762313803296726 163.565424594064 0.762313803296727 163.565424594064 0.290472879404979 100.571391784761 
19.1                           0.253233624933538 49.8878214770711 0.764188611245356 155.544894239822 0.764188611245355 155.544894239822 0.281871673442647 94.2826000528929 
19.15                          0.247526627913003 40.0819615466399 0.765147707462455 147.343181267327 0.765147707462454 147.343181267327 0.27386123401731 87.2355959601186 
19.2                           0.245358333521652 30.0089910755058 0.764897184211934 138.941696322283 0.764897184211932 138.941696322283 0.267235651461834 79.1919378125001 
19.25                          0.247873806254304 19.8410366175022 0.763086005648374 130.320144752265 0.763086005648372 130.320144752265 0.262969263631803 69.9037627318624 
19.3                           0.25612112205945 9.77085260573394 0.75927796173337 121.456904835147 0.759277961733369 121.456904835148 0.26231495969765 59.1718820783795 
19.35                          0.270997003604385 -0.0433068302290245 0.752922136854858 112.330834567999 0.752922136854858 112.330834568    0.266861048672893 46.9344386331955 
19.4                           0.293192218703254 -9.52767548864942 0.743334431140505 102.925104114491 0.743334431140506 102.925104114492 0.278434225786175 33.356784093032  
19.45                          0.323104262901178 -18.7074329239441 0.729710443895525 93.2334407017459 0.729710443895528 93.2334407017464 0.298753187593533 18.8531381363444 
19.5                           0.360693980148022 -27.6774169235046 0.711195222606255 83.2685473468332 0.711195222606259 83.2685473468335 0.328890833148237 3.98358080189074 
19.55                          0.405311397374841 -36.5478779043144 0.687029762593787 73.0712796260097 0.68702976259379 73.0712796260099 0.368793716645096 -10.7249393608579 
19.6                           0.455574225656267 -45.393592093752 0.656767462251418 62.7176359289947 0.65676746225142 62.7176359289947 0.417107716047131 -24.904367402409 
19.65                          0.509404524008399 -54.2257451048839 0.620505185561133 52.3196039120756 0.620505185561132 52.3196039120754 0.47136960948137 -38.3547971504161 
19.7                           0.564282484983993 -62.9912336647099 0.579028045605014 42.0167817993942 0.579028045605009 42.016781799394  0.528470420738464 -50.9853183315811 
19.75                          0.617668765817145 -71.5928470160128 0.533771498964826 31.9591307797284 0.533771498964819 31.9591307797284 0.585243608874548 -62.7564167780558 
19.8                           0.667443368786094 -79.9184855172126 0.486583033060115 22.2856970018498 0.486583033060105 22.2856970018499 0.639007463628976 -73.6517254224144 
19.85                          0.712193874603533 -87.867695298789 0.439373203216913 13.1064446321227 0.439373203216902 13.1064446321232 0.687906367521937 -83.6723188328379 
19.9                           0.751275157254215 -95.3681643641016 0.393796869704038 4.49255239649519 0.393796869704027 4.49255239649605 0.730985827719707 -92.8385580929538 
19.95                          0.78468092429286 -102.380789071242 0.351065585372646 -3.52384047166117 0.351065585372635 -3.52384047165991 0.768052835411463 -101.190216522829 
20                             0.812829559223061 -108.896305437089 0.311908314761443 -10.9431486172167 0.311908314761435 -10.9431486172151 0.799435916439787 -108.782775198314 
20.05                          0.836356138238645 -114.927850488031 0.27663620327003 -17.7890243549762 0.276636203270024 -17.7890243549742 0.825747604768847 -115.681503074322 
20.1                           0.855957742061739 -120.50293790502 0.245252023161183 -24.0992834385044 0.245252023161179 -24.0992834385023 0.847703671833926 -121.955480498712 
20.15                          0.872299627460269 -125.65673023761 0.217560349795708 -29.9186463298896 0.217560349795705 -29.9186463298872 0.86600969783326 -127.672872720704 
20.2                           0.885969694823184 -130.427187789618 0.193256863393667 -35.2936646215321 0.193256863393665 -35.2936646215297 0.881302487285826 -132.897821514916 
20.25                          0.897464173466963 -134.851952972779 0.171991595941561 -40.2695565273212 0.171991595941561 -40.2695565273188 0.894127942867143 -137.688766199895 
20.3                           0.907190400339308 -138.966564731026 0.153409268052872 -44.8884635232482 0.153409268052871 -44.888463523246 0.904939689708084 -142.097808685028 
20.35                          0.915477293806079 -142.80358297944 0.137172495454238 -49.1886595902599 0.137172495454239 -49.1886595902579 0.914107708022533 -146.170745150329 
20.4                           0.922588119703385 -146.392285155109 0.122973420128214 -53.2043478192087 0.122973420128215 -53.2043478192069 0.921930602705338 -149.947472162007 
20.45                          0.928732836528662 -149.758695344539 0.110538099614762 -56.9657902065999 0.110538099614763 -56.9657902065984 0.928648165313166 -153.462568793031 
20.5                           0.934078887573733 -152.925789265043 0.0996266822877032 -60.4996066808849 0.0996266822877042 -60.4996066808837 0.934452713715912 -156.745932284542 
20.55                          0.938760141633683 -155.913778592012 0.0900313374456047 -63.8291437900053 0.0900313374456057 -63.8291437900044 0.939498693907849 -159.823398192241 
20.6                           0.942884074504011 -158.740418424598 0.08157315121441 -66.9748560490678 0.0815731512144107 -66.9748560490672 0.943910521511173 -162.717310335111 
20.65                          0.946537434301561 -161.421307199878 0.0740986952395394 -69.9546696259806 0.0740986952395399 -69.9546696259803 0.947788851491584 -165.447026530077 
20.7                           0.949790665717163 -163.970163838355 0.0674766563509907 -72.7843140510915 0.067476656350991 -72.7843140510915 0.951215530277585 -168.029357728409 
20.75                          0.952701347968704 -166.399075913945 0.0615947216689321 -75.4776168385589 0.0615947216689322 -75.4776168385591 0.954257481839277 -170.47894419606 
20.8                           0.955316862368909 -168.718717650469 0.0563568003250344 -78.0467609268131 0.0563568003250342 -78.0467609268135 0.956969748989074 -172.808575095468 
20.85                          0.9576764640387  -170.938539154087 0.0516805996069586 -80.5025073754894 0.0516805996069582 -80.5025073754899 0.959397873290361 -175.029458680655 
20.9                           0.959812895046967 -173.06692949948 0.0474955400680099 -82.8543868507004 0.0474955400680094 -82.8543868507011 0.961579760554231 -177.151450189226 
20.95                          0.961753645234252 -175.111356708708 0.0437409785190068 -85.1108637288496 0.043740978519006 -85.1108637288504 0.963547147419758 -179.183243917264 
21                             0.96352194220956 -177.078487660427 0.0403647021926437 -87.2794765302058 0.0403647021926429 -87.2794765302066 0.965326758724445 178.867464815479 
21.05                          0.965137532716932 -178.974290756255 0.037321657154279 -89.366958076425 0.037321657154278 -89.3669580764258 0.966941224892982 176.993842907845 
21.1                           0.966617302759768 179.195876128388 0.0345728765318139 -91.3793383741781 0.0345728765318128 -91.3793383741788 0.968409812607935 175.189803779976 
21.15                          0.967975772600123 177.42719020363  0.0320845778075157 -93.3220328263212 0.0320845778075147 -93.322032826322 0.969749009715917 173.449909261879 
21.2                           0.969225494210136 175.715298939341 0.0298274024025673 -95.1999179958895 0.0298274024025663 -95.19991799589  0.97097299588898 171.769286173897 
21.25                          0.970377372292739 174.056264240972 0.0277757746437223 -97.0173968111361 0.0277757746437213 -97.0173968111365 0.972094023352677 170.143555196913 
21.3                           0.971440925101032 172.446514262156 0.0259073607185151 -98.7784548061414 0.0259073607185141 -98.7784548061418 0.973122726488684 168.568770041543 
21.35                          0.972424497581661 170.882801703394 0.0242026113208709 -100.486708740054 0.02420261132087 -100.486708740054 0.974068374914536 167.041365267141 
21.4                           0.973335436553145 169.362167628425 0.0226443743538781 -102.145448725148 0.0226443743538772 -102.145448725148 0.974939081423513 165.558111383607 
21.45                          0.974180235484668 167.881909983747 0.0212175663179782 -103.757674814924 0.0212175663179775 -103.757674814924 0.975741973696229 164.116076101456 
21.5                           0.974964654799006 166.439556135931 0.0199088929137032 -105.326128853727 0.0199088929137026 -105.326128853727 0.976483336792026 162.712590786946 
21.55                          0.975693822361558 165.032838849473 0.0187066109757657 -106.853322264241 0.0187066109757651 -106.853322264241 0.977168731956767 161.345221336432 
21.6                           0.97637231784346 163.659675218259 0.0176003251759718 -108.341560344858 0.0176003251759713 -108.341560344858 0.977803096141636 160.011742813751 
21.65                          0.977004243891407 162.318148139167 0.0165808140282237 -109.792963561751 0.0165808140282232 -109.792963561751 0.978390825737389 158.71011730123  
21.7                           0.977593286448218 161.006489979351 0.0156398806369022 -111.209486247618 0.0156398806369018 -111.209486247618 0.978935847331786 157.43847450318  
21.75                          0.97814276610723 159.723068141482 0.0147702243819634 -112.592933058032 0.0147702243819632 -112.592933058031 0.979441677750129 156.195094713673 
21.8                           0.978655682020958 158.466372275333 0.0139653303570576 -113.944973485083 0.0139653303570575 -113.944973485083 0.979911475206199 154.978393820984 
21.85                          0.979134749597707 157.235002921132 0.013219373893359 -115.267154684845 0.013219373893359 -115.267154684845 0.980348083047765 153.786910071339 
21.9                           0.979582432991948 156.027661401246 0.012527137930265 -116.560912838735 0.012527137930265 -116.560912838735 0.980754067307388 152.619292356597 
21.95                          0.980000973212418 154.843140802931 0.0118839413500935 -117.827583237979 0.0118839413500936 -117.827583237979 0.981131749050486 151.47428982547  
22                             0.980392412525955 153.680317917046 0.0112855766901072 -119.068409254133 0.0112855766901074 -119.068409254134 0.981483232336762 150.350742647289 
22.05                          0.980758615717568 152.538146016321 0.0107282558920497 -120.284550336284 0.0107282558920499 -120.284550336285 0.981810428469191 149.247573781932 
22.1                           0.981101288672014 151.415648372685 0.0102085629554918 -121.477089156393 0.010208562955492 -121.477089156393 0.982115077089721 148.163781630333 
22.15                          0.981421994664787 150.311912426615 0.0097234125336888 -122.647038007935 0.00972341253368899 -122.647038007936 0.982398764587258 147.098433457507 
22.2                           0.981722168687234 149.226084533018 0.00927001365514079 -123.795344548887 0.00927001365514103 -123.795344548888 0.982662940206989 146.050659494869 
22.25                          0.982003130078656 148.157365217962 0.00884583787537725 -124.922896968053 0.00884583787537752 -124.922896968055 0.982908930187412 145.01964764127  
22.3                           0.982266093695562 147.105004889003 0.0084485912655734 -126.030528643292 0.00844859126557364 -126.030528643294 0.983137950199724 144.00463869284  
22.35                          0.982512179812981 146.06829994907  0.00807618973067158 -127.119022351234 0.00807618973067182 -127.119022351236 0.983351116321617 143.004922040963 
22.4                           0.982742422923391 145.046589270113 0.00772673722238497 -128.189114080309 0.00772673722238524 -128.189114080312 0.983549454742026 142.019831785474 
22.45                          0.982957779574435 144.039250988056 0.00739850647399974 -129.241496492214 0.00739850647399995 -129.241496492216 0.983733910364014 141.048743216935 
22.5                           0.983159135366184 143.045699585256 0.00708992193608697 -130.276822071141 0.0070899219360872 -130.276822071143 0.983905354448272 140.091069627589 
22.55                          0.983347311211534 142.065383230664 0.00679954463659028 -131.295705995082 0.00679954463659049 -131.295705995084 0.984064591419148 139.146259415602 
22.6                           0.983523068948932 141.097781351394 0.00652605872652031 -132.298728759185 0.0065260587265205 -132.298728759187 0.984212364937784 138.213793451466 
22.65                          0.983687116384395 140.142402412426 0.00626825950470918 -133.286438577373 0.00626825950470933 -133.286438577375 0.984349363332276 137.29318267919  
22.7                           0.983840111829464 139.198781883821 0.00602504274261736 -134.259353585202 0.00602504274261751 -134.259353585204 0.984476224462466 136.383965928099 
22.75                          0.983982668192938 138.26648037713  0.00579539515377188 -135.21796386411 0.00579539515377199 -135.217963864113 0.984593540086444 135.485707913909 
22.8                           0.98411535667672 137.345081934713 0.00557838587265037 -136.16273330476 0.00557838587265044 -136.162733304763 0.984701859786933 134.597997410151 
22.85                          0.984238710119712 136.434192457454 0.00537315882522123 -137.094101325097 0.0053731588252213 -137.094101325099 0.984801694508113 133.720445573178 
22.9                           0.984353226028164 135.533438257916 0.00517892588833023 -138.012484456871 0.00517892588833025 -138.012484456872 0.984893519746933 132.852684405839 
22.95                          0.984459369326154 134.642464727356 0.00499496074804642 -138.918277812817 0.00499496074804643 -138.918277812818 0.984977778437364 131.99436534656  
23                             0.984557574855813 133.760935106229 0.00482059337824988 -139.811856445291 0.00482059337824987 -139.811856445291 0.985054883561264 131.145157971982 
