! Touchstone file exported from HFSS 3D Layout Design 2026.1.0
!        File:           D:/Work/SIM/ADS_AUTO_SIM/projects/RFSOC_RF/TX_Fillter.aedt
!        Generated:      02:17:32 AM Aug 31, 2026
!        Design:         TX_BAND1_MCFIL_R28_CNN042
!        Project:        TX_Fillter
!
# GHz S MA R 50.000000
! Terminal data exported
! Port[1] = Port1
! Port[2] = Port2
14                             0.973249602974868 -163.87144553039 0.00366428776945962 -176.615464770076 0.00366428776945962 -176.615464770076 0.974246478068012 -160.376796137072 
14.05                          0.972756318116795 -164.75511868748 0.00373713208228526 -176.995929352274 0.00373713208228525 -176.995929352274 0.973777998727985 -161.241977823025 
14.1                           0.972247530536474 -165.644950761896 0.00381348028016703 -177.355717269466 0.00381348028016705 -177.355717269466 0.973295005908257 -162.112876142423 
14.15                          0.971722478183733 -166.541132530778 0.00389361044668359 -177.694420151515 0.00389361044668361 -177.694420151515 0.972796786966453 -162.989660979489 
14.2                           0.971180348499421 -167.443864762524 0.00397782806391511 -178.01167306513 0.00397782806391514 -178.01167306513 0.972282581694504 -163.87251119989 
14.25                          0.970620274213204 -168.353358871372 0.00406646902298766 -178.30716285154 0.00406646902298767 -178.307162851541 0.971751578323134 -164.761615246069 
14.3                           0.970041328718646 -169.269837624178 0.00415990298737908 -178.580637312091 0.00415990298737912 -178.580637312092 0.971202909120116 -165.657171780549 
14.35                          0.969442520975395 -170.193535904376 0.00425853715220207 -178.831915259619 0.00425853715220209 -178.83191525962 0.970635645533633 -166.559390381849 
14.4                           0.968822789881521 -171.124701538659 0.00436282044831785 -179.060897438062 0.00436282044831788 -179.060897438063 0.970048792825278 -167.468492298167 
14.45                          0.96818099805103 -172.063596192544 0.00447324824662172 -179.2675782936  0.00447324824662177 -179.267578293601 0.969441284129481 -168.384711264599 
14.5                           0.967515924922457 -173.010496341718 0.00459036762532979 -179.45205855752 0.00459036762532979 -179.452058557522 0.96881197386705 -169.308294390301 
14.55                          0.966826259113684 -173.965694326809 0.00471478327178863 -179.614558573898 0.00471478327178865 -179.614558573899 0.968159630430028 -170.239503122784 
14.6                           0.96611058992578 -174.929499500183 0.00484716410045884 -179.755432274267 0.00484716410045885 -179.755432274268 0.967482928042775 -171.178614297376 
14.65                          0.965367397884096 -175.90223947436 0.00498825068058538 -179.875181667215 0.00498825068058539 -179.875181667216 0.966780437689868 -172.125921280854 
14.7                           0.964595044187937 -176.884261482806 0.00513886358102221 -179.974471674099 0.00513886358102221 -179.9744716741  0.966050616984626 -173.081735219361 
14.75                          0.963791758920235 -177.875933865194 0.00529991275616212 179.945854895898 0.00529991275616214 179.945854895897 0.965291798832375 -174.046386401993 
14.8                           0.962955627845299 -178.877647690705 0.00547240811647271 179.884762475584 0.00547240811647271 179.884762475584 0.964502178719353 -175.020225752835 
14.85                          0.962084577595149 -179.889818534675 0.00565747145040464 179.841008253477 0.00565747145040461 179.841008253476 0.963679800430791 -176.003626465917 
14.9                           0.961176359012441 179.087111574182 0.00585634989220929 179.813128379751 0.00585634989220927 179.81312837975  0.962822539969302 -176.99698579938 
14.95                          0.960228528379372 178.052672016491 0.00607043116343162 179.799425193698 0.00607043116343161 179.799425193697 0.961928087406215 -178.000727047316 
15                             0.959238426216142 177.00636123287  0.00630126085568583 179.797955811093 0.00630126085568579 179.797955811092 0.960993926352737 -179.015301710166 
15.05                          0.95820315327787 175.947644137597 0.00655056207016108 179.806522403809 0.00655056207016105 179.806522403808 0.960017310683085 179.958808112613 
15.1                           0.957119543313533 174.875949267028 0.00682025778682098 179.822664479708 0.00682025778682096 179.822664479708 0.958995238076295 178.921087080689 
15.15                          0.955984132072102 173.790665630719 0.00711249640546789 179.843653425452 0.00711249640546788 179.843653425452 0.957924419864689 177.870983691212 
15.2                           0.95479312194673 172.691139228814 0.00742968098418735 179.866489506853 0.00742968098418732 179.866489506853 0.956801246582149 176.807907042539 
15.25                          0.953542341534031 171.576669194309 0.00777450280112343 179.887901429908 0.0077745028011234 179.887901429908 0.955621748490692 175.731223243633 
15.3                           0.952227199247596 170.446503513054 0.00814997998666383 179.904348451786 0.0081499799866638 179.904348451786 0.954381550224674 174.640251423909 
15.35                          0.950842629957364 169.299834267909 0.00855950211933105 179.912024897028 0.00855950211933105 179.912024897028 0.953075818522614 173.534259291911 
15.4                           0.949383033422253 168.135792346035 0.00900688185538387 179.906866784282 0.00900688185538388 179.906866784281 0.951699201809757 172.412458183985 
15.45                          0.947842203033516 166.953441539926 0.00949641487598297 179.884560108373 0.00949641487598296 179.884560108373 0.95024576014089 171.273997535877 
15.5                           0.946213243079599 165.751771963398 0.0100329496950037 179.840550157813 0.0100329496950037 179.840550157813 0.948708883701082 170.117958700874 
15.55                          0.944488472365418 164.529692693155 0.0106219691853945 179.77005108582  0.0106219691853946 179.770051085821 0.947081197677032 168.943348027722 
15.6                           0.942659311551909 163.286023535008 0.0112696860650741 179.668054799957 0.0112696860650741 179.668054799957 0.945354450834919 167.749089099982 
15.65                          0.940716151002613 162.0194858012   0.0119831550504931 179.529338096754 0.0119831550504931 179.529338096754 0.943519384548075 166.534014025979 
15.7                           0.938648195203429 160.728691972075 0.0127704049567158 179.348466846558 0.0127704049567159 179.348466846558 0.941565578278895 165.296853655183 
15.75                          0.936443278922438 159.412134101953 0.013640594721383 179.119795930728 0.013640594721383 179.119795930728 0.939481266595024 164.036226583311 
15.8                           0.934087649151213 158.068170816641 0.0146041981859557 178.837463545783 0.0146041981859557 178.837463545783 0.937253121640149 162.75062679569  
15.85                          0.931565705456904 156.695012740142 0.0156732235174963 178.495378411174 0.0156732235174963 178.495378411174 0.934865993520629 161.438409787967 
15.9                           0.928859689598974 155.290706183735 0.016861474441662 178.087198339835 0.016861474441662 178.087198339835 0.932302599229576 160.097776997941 
15.95                          0.925949313029082 153.853114936106 0.0181848620343442 177.60629854148  0.0181848620343442 177.60629854148  0.929543148406479 158.726758386474 
16                             0.922811308076878 152.379900015935 0.0196617777450353 177.04572791324  0.0196617777450353 177.04572791324  0.926564891293502 157.323193026182 
16.05                          0.919418885080132 150.868497299682 0.0213135406650034 176.398151414944 0.0213135406650034 176.398151414944 0.923341570538315 155.884707605153 
16.1                           0.915741073267655 149.3160930353   0.0231649348738327 175.65577641088  0.0231649348738327 175.65577641088  0.919842753812643 154.408692847061 
16.15                          0.911741917644821 147.719597425609 0.0252448560544207 174.81026057163  0.0252448560544207 174.81026057163  0.916033018337802 152.892278016736 
16.2                           0.907379497249774 146.075616757715 0.0275870904819546 173.85259855748  0.0275870904819545 173.85259855748  0.911870951083666 151.332303965772 
16.25                          0.902604721754274 144.3804250374   0.0302312539152  172.772984246132 0.0302312539152  172.772984246132 0.907307919397758 149.725295645965 
16.3                           0.897359853392863 142.629936870479 0.0332239226475553 171.560644733519 0.0332239226475552 171.560644733519 0.902286555974585 148.067435789452 
16.35                          0.891576689802805 140.819684591637 0.0366199935263887 170.203641766244 0.0366199935263887 170.203641766244 0.896738889483719 146.354542698399 
16.4                           0.885174331318118 138.944804651308 0.040484313122421 168.688635743489 0.0404843131224209 168.688635743489 0.890584038485183 144.582057080609 
16.45                          0.878056445549197 137.000041469834 0.0448936165127478 167.000607125262 0.0448936165127478 167.000607125262 0.883725373271875 142.745046050297 
16.5                           0.870107936973468 134.979782045143 0.0499388098343872 165.122530317003 0.0499388098343871 165.122530317003 0.876047042063874 140.838237481765 
16.55                          0.861190938394027 132.878142640337 0.055727611686249 163.034996428976 0.0557276116862489 163.034996428976 0.86740976294125 138.85610595766  
16.6                           0.851140081112802 130.689141570408 0.0623875259767807 160.715784705588 0.0623875259767806 160.715784705588 0.857645817468922 136.793044315249 
16.65                          0.839757102422265 128.40701203893  0.070069035187861 158.139389528619 0.0700690351878609 158.139389528619 0.846553277055132 134.643674918567 
16.7                           0.826805068232182 126.026739979732 0.0789487496835297 155.276523415906 0.0789487496835296 155.276523415906 0.83388970496373 132.403386248402 
16.75                          0.812002922089438 123.544959286026 0.089231981968118 152.093640614253 0.089231981968118 152.093640614253 0.819366004330404 130.069228852017 
16.8                           0.795021879641628 120.961407242823 0.101153773432517 148.552567031332 0.101153773432517 148.552567031332 0.802641890743924 127.641377318536 
16.85                          0.77548661483114 118.281242067607 0.114976712586404 144.610388791708 0.114976712586404 144.610388791708 0.783325913629334 125.125468628868 
16.9                           0.752986554755088 115.518649562578 0.130982896538218 140.219852585073 0.130982896538218 140.219852585073 0.760985382010923 122.53626180319  
16.95                          0.727106205074316 112.702285875039 0.149456164053574 135.330669718404 0.149456164053575 135.330669718404 0.735175305104014 119.903202941016 
17                             0.697488124845402 109.883110176657 0.170649652563551 129.892275287814 0.170649652563551 129.892275287814 0.705500477503521 117.278524156146 
17.05                          0.663946363298201 107.144767261051 0.194733862944081 123.858706240694 0.194733862944081 123.858706240694 0.671729654841726 114.748180162329 
17.1                           0.626646817406269 104.615242470685 0.221723853265837 117.196165509555 0.221723853265837 117.196165509555 0.63398047702735 112.444597900291 
17.15                          0.586352992885633 102.474863941905 0.251393773274076 109.893257275632 0.251393773274077 109.893257275632 0.592977313579837 110.556673685277 
17.2                           0.544684076783722 100.948570964154 0.283203915495785 101.972524744145 0.283203915495785 101.972524744145 0.55033379983467 109.325147265956 
17.25                          0.504236714356865 100.261069260566 0.316283914234208 93.4998790748825 0.316283914234208 93.4998790748824 0.508714176510853 109.00101240893  
17.3                           0.468319330020449 100.534229599528 0.34951799288889 84.5868050975281 0.34951799288889 84.586805097528  0.47161247366259 109.742119370562 
17.35                          0.440085293261959 101.646440748524 0.381743257093989 75.3808731542572 0.381743257093989 75.3808731542572 0.442497822110895 111.460351567352 
17.4                           0.421242461603125 103.161643152936 0.412004351522061 66.0444516520791 0.412004351522062 66.0444516520792 0.423448449139033 113.727800041944 
17.45                          0.411130884808981 104.457744642278 0.439756341833049 56.7278078691629 0.439756341833049 56.727807869163  0.414076444793167 115.894737462979 
17.5                           0.406967177448047 105.001117798576 0.464927058168184 47.5462584020065 0.464927058168185 47.5462584020066 0.411669307552741 117.386581564963 
17.55                          0.405057627357022 104.533244963009 0.487831222179642 38.568600306703  0.487831222179643 38.5686003067031 0.41244534581695 117.923158114707 
17.6                           0.402007715018058 103.057438293811 0.509001511219529 29.817915651169  0.509001511219531 29.817915651169  0.412881686389709 117.515924849092 
17.65                          0.395313716163493 100.724239885409 0.529015998690385 21.2808603909123 0.529015998690387 21.2808603909123 0.410393612973126 116.344885572848 
17.7                           0.383408340926144 97.7335591441242 0.548369767017996 12.9202392937714 0.548369767017998 12.9202392937714 0.403413282088085 114.65056112779  
17.75                          0.365473405493611 94.2897957987276 0.567400837504786 4.68707790405342 0.567400837504788 4.6870779040534  0.391207580212608 112.683786702956 
17.8                           0.341239837251109 90.5991132156279 0.586260005557707 -3.46954811578363 0.586260005557709 -3.46954811578368 0.373680552913555 110.699925877073 
17.85                          0.310862192968251 86.8949403750142 0.604910697451565 -11.5952330978714 0.604910697451566 -11.5952330978715 0.35125929718938 108.977135192889 
17.9                           0.274883956459272 83.4918857374709 0.623149625179172 -19.7252187835012 0.623149625179173 -19.7252187835012 0.324880833350823 107.84566336125  
17.95                          0.234297338996388 80.8922093674474 0.640644323549676 -27.8812968698411 0.640644323549676 -27.881296869841 0.296067626530465 107.717423318777 
18                             0.190745667045062 80.0201396558636 0.656985913328357 -36.0704851482127 0.656985913328357 -36.0704851482126 0.267062411740721 109.091950765169 
18.05                          0.147088901889265 82.7812040771321 0.671753826040169 -44.2854777516129 0.671753826040169 -44.2854777516128 0.240938821284478 112.47429311379  
18.1                           0.109082842604425 93.1788857812795 0.684584954258386 -52.5068543822186 0.684584954258386 -52.5068543822184 0.221441929386956 118.089377030197 
18.15                          0.0888019670393415 115.901766758123 0.695235466093172 -60.7068241922494 0.695235466093172 -60.7068241922492 0.212103167066159 125.393859936389 
18.2                           0.0983287556135741 141.578365653401 0.703622492291034 -68.8539652729193 0.703622492291035 -68.853965272919 0.214567657102038 132.910620980638 
18.25                          0.129229777749209 155.390726263785 0.709836809242733 -76.9181647356856 0.709836809242734 -76.9181647356854 0.227504438907504 139.005575481872 
18.3                           0.167144516852917 159.666253221744 0.714125405750933 -84.8749178950495 0.714125405750934 -84.8749178950494 0.247492139128616 142.852243188938 
18.35                          0.205011100459124 159.163455692165 0.71685092971499 -92.7083510665243 0.716850929714991 -92.7083510665242 0.270814306586788 144.493027727502 
18.4                           0.239847533182038 156.261628619883 0.718439838939917 -100.412700966627 0.718439838939918 -100.412700966627 0.294514284780085 144.359699128164 
18.45                          0.270284564378462 152.051800683546 0.719331158460813 -107.992356449908 0.719331158460813 -107.992356449908 0.316577799835826 142.919383432253 
18.5                           0.295686923100551 147.062901094612 0.719934207795831 -115.460816964938 0.719934207795831 -115.460816964938 0.335758021710895 140.548482957965 
18.55                          0.315813890812187 141.56402140198  0.720598915274947 -122.839004533927 0.720598915274946 -122.839004533927 0.351354458875319 137.519711559632 
18.6                           0.330660027512301 135.692514675181 0.721598426994237 -130.153317165703 0.721598426994236 -130.153317165703 0.363037562792535 134.022338101066 
18.65                          0.340369624385393 129.512670678179 0.723121535157614 -137.433698498904 0.723121535157611 -137.433698498904 0.37072760202956 130.18544289749  
18.7                           0.345190249542143 123.044595526825 0.725271881361901 -144.711880374061 0.725271881361897 -144.711880374061 0.374517258198676 126.096349822808 
18.75                          0.345451865365058 116.279065270554 0.728071354107315 -152.019866137243 0.728071354107311 -152.019866137243 0.374626280168091 121.813489830742 
18.8                           0.341564703193831 109.185123934196 0.731465987661795 -159.388673442027 0.731465987661791 -159.388673442027 0.371378553355308 117.374518270117 
18.85                          0.334031426120601 101.713628698366 0.735333535513198 -166.847341955005 0.735333535513194 -166.847341955005 0.365193653516176 112.800452120103 
18.9                           0.323469946236514 93.7985972229587 0.739492464957206 -174.422222346776 0.739492464957203 -174.422222346776 0.356585913918179 108.096189444065 
18.95                          0.310643333264243 85.3580485066984 0.743712254005157 177.863416121663 0.743712254005155 177.863416121663 0.346164533717718 103.247438085959 
19                             0.296492516711528 76.2968443130743 0.747724515619265 169.989407212455 0.747724515619264 169.989407212455 0.334628931447237 98.2140438418452 
19.05                          0.282165282223187 66.5158525462563 0.751233682709779 161.938294104672 0.751233682709779 161.938294104671 0.322755381195295 92.9202390440961 
19.1                           0.269030085080793 55.9339735911148 0.753924967153007 153.694521765377 0.753924967153008 153.694521765377 0.31137512676575 87.2437398227336 
19.15                          0.258654647465624 44.5292311371895 0.755466448316579 145.243309802802 0.75546644831658 145.243309802802 0.301351248533049 81.0080268296408 
19.2                           0.252721603164319 32.3952315686689 0.755502007731386 136.569441573807 0.755502007731386 136.569441573806 0.293569853492219 73.9850434004757 
19.25                          0.252863292689373 19.7843047525881 0.753633051844445 127.656382031959 0.753633051844444 127.656382031958 0.288964388426575 65.9174032859959 
19.3                           0.260445071237417 7.08569542488133 0.749390186608444 118.486320972312 0.749390186608441 118.486320972312 0.288578935003266 56.5674453339765 
19.35                          0.276387056208489 -5.28624235745443 0.742201717388406 109.041878987282 0.742201717388402 109.041878987281 0.293638027947452 45.7916998989102 
19.4                           0.301101294784303 -17.0362395775022 0.731374043663417 99.3102169563682 0.73137404366341 99.3102169563676 0.305536992778077 33.6205800777268 
19.45                          0.33451054667243 -28.0647731730182 0.716108158731151 89.2899927785475 0.716108158731144 89.289992778547  0.325646598105691 20.2999948132489 
19.5                           0.376038548199119 -38.4394344698543 0.695581438730081 79.0007883058616 0.695581438730074 79.0007883058612 0.35490558107729 6.25140217589858 
19.55                          0.42452532407559 -48.3058448512695 0.669114490562948 68.4931534643904 0.669114490562943 68.4931534643902 0.393342809724089 -8.04269460784419 
19.6                           0.478148768030157 -57.8005640172805 0.636407786130167 57.8556169998894 0.636407786130165 57.8556169998893 0.439781246105053 -22.1573574607534 
19.65                          0.534492885926282 -66.9998801983478 0.597775304690248 47.2140707230989 0.59777530469025 47.2140707230988 0.491906278387372 -35.7818611219179 
19.7                           0.590840625027389 -75.9090112366451 0.554258008539878 36.7204928665633 0.554258008539883 36.720492866563  0.546696520727262 -48.7133006901313 
19.75                          0.644625746446414 -84.4803944141912 0.50752358497571 26.5324634387626 0.507523584975718 26.532463438762  0.601050956149383 -60.8271885457904 
19.8                           0.693861754658734 -92.6443156965432 0.459563418029727 16.7899336183131 0.459563418029735 16.7899336183121 0.652372576862977 -72.0546418139096 
19.85                          0.737374348286596 -100.336883628271 0.4123115899096  7.5973474892223  0.412311589909607 7.59734748922072 0.698913543105399 -82.3708338715743 
19.9                           0.774785672584677 -107.516911553196 0.367339592121061 -0.983930835621728 0.367339592121067 -0.983930835623788 0.739824925357442 -91.7879782507171 
19.95                          0.806324806752474 -114.170755156151 0.32571186733251 -8.93315957493632 0.325711867332514 -8.93315957493872 0.774990033250509 -100.3475486628  
20                             0.832583699686616 -120.308856172511 0.287993204854889 -16.2615577058937 0.287993204854891 -16.2615577058964 0.804772864983322 -108.110988076913 
20.05                          0.854306713420172 -125.958709893118 0.254346421415083 -23.0017875050902 0.254346421415083 -23.0017875050932 0.829784669623897 -115.150507887257 
20.1                           0.872248323727147 -131.157661391491 0.224657277719293 -29.1985301017627 0.224657277719292 -29.1985301017655 0.850715050932044 -121.541536878223 
20.15                          0.887095530334949 -135.947165411829 0.198647108047299 -34.9013919132008 0.198647108047297 -34.9013919132036 0.8682309257096  -127.357450865984 
20.2                           0.899436457323695 -140.368878527518 0.175957674466496 -40.160210653576 0.175957674466493 -40.1602106535787 0.882927257686356 -132.666436601025 
20.25                          0.909756209574711 -144.462330946971 0.156207652781735 -45.0222989170174 0.156207652781731 -45.0222989170199 0.895310556488873 -137.529988350988 
20.3                           0.918446125110365 -148.263743891611 0.139026409501343 -49.5310522055437 0.139026409501339 -49.5310522055459 0.905800187104526 -142.002492844629 
20.35                          0.925817979027763 -151.805589442536 0.124071852382669 -53.7254290611996 0.124071852382666 -53.7254290612015 0.914737789822966 -146.131458852401 
20.4                           0.932118685414165 -155.116588674904 0.11103808407174 -57.639943304891 0.111038084071737 -57.6399433048926 0.922399298038884 -149.958079890874 
20.45                          0.937543503399951 -158.22194317246 0.0996570135272109 -61.3049293103243 0.0996570135272082 -61.3049293103257 0.929006781711418 -153.517932470399 
20.5                           0.94224709286851 -161.143672265743 0.089696677401264 -64.746932191876 0.0896966774012619 -64.746932191877 0.934738933552654 -156.841694938846 
20.55                          0.94635241356846 -163.900981582597 0.0809579802968354 -67.9891365471064 0.0809579802968337 -67.9891365471071 0.939739851305619 -159.955826184044 
20.6                           0.949957727615165 -166.510622570694 0.0732708572168825 -71.051786683506 0.0732708572168812 -71.0517866835066 0.944126165347716 -162.883176553983 
20.65                          0.953142039297458 -168.987223299883 0.0664904124900504 -73.9525750573584 0.0664904124900496 -73.9525750573587 0.947992719478724 -165.643522318819 
20.7                           0.95596929319867 -171.343582776511 0.0604933164678493 -76.7069894462931 0.0604933164678487 -76.7069894462933 0.951417053187923 -168.254025116986 
20.75                          0.958491606181412 -173.590927530269 0.0551745819902435 -79.3286169888922 0.0551745819902434 -79.3286169888922 0.954462920897766 -170.729622683387 
20.8                           0.960751756551274 -175.739132550574 0.0504447537672709 -81.8294071470958 0.0504447537672709 -81.8294071470959 0.957183050950331 -173.08335902782 
20.85                          0.96278510562534 -177.796910121258 0.0462274972286387 -84.2198974380096 0.046227497228639 -84.2198974380095 0.959621310352558 -175.326662498741 
20.9                           0.964621086635975 -179.771970556612 0.042457551379622 -86.5094063857084 0.0424575513796226 -86.5094063857084 0.961814407375183 -177.46957964009 
20.95                          0.966284363760011 178.328841234147 0.0390790020055215 -88.706198119528 0.0390790020055221 -88.706198119528 0.96379323537029 -179.520971883287 
21                             0.967795739140051 176.499429754229 0.0360438307844339 -90.8176227156075 0.0360438307844347 -90.8176227156074 0.965583937924535 178.511318840834 
21.05                          0.96917286675455 174.73435032231  0.033310698775911 -92.850235924088 0.0333106987759118 -92.8502359240881 0.967208757140607 176.620330409642 
21.1                           0.970430817630858 173.028725132822 0.0308439272437676 -94.8099014430107 0.0308439272437685 -94.809901443011 0.968686712617417 174.799862409999 
21.15                          0.971582530097992 171.378171646196 0.0286126436943644 -96.7018784411136 0.0286126436943652 -96.7018784411139 0.970034147759557 173.04437603304  
21.2                           0.972639170674203 169.7787413488   0.0265900657735353 -98.530896617723 0.0265900657735362 -98.5308966177234 0.971265171670609 171.348908978795 
21.25                          0.973610425104369 168.226867240447 0.0247528999896733 -100.301220726209 0.0247528999896741 -100.30122072621 0.972392018484019 169.709002903261 
21.3                           0.974504734491635 166.719318677959 0.0230808360166873 -102.016706177633 0.0230808360166881 -102.016706177633 0.973425341093044 168.12064136885  
21.35                          0.975329488022481 165.253162430824 0.021556120571006 -103.680847079212 0.0215561205710066 -103.680847079213 0.974374452496695 166.580196612458 
21.4                           0.976091181178305 163.825728994856 0.0201631975896698 -105.296817842436 0.0201631975896703 -105.296817842437 0.975247525105216 165.084383735943 
21.45                          0.976795546347236 162.434583367579 0.0188884037191222 -106.867509312201 0.0188884037191226 -106.867509312202 0.976051756136815 163.630221162301 
21.5                           0.977447661239904 161.077499619803 0.0177197100187436 -108.395560215688 0.017719710018744 -108.395560215689 0.97679350552852 162.214996396614 
21.55                          0.978052039355486 159.752438706128 0.0166465023491554 -109.88338460279 0.0166465023491558 -109.883384602792 0.977478411458388 160.836236291515 
21.6                           0.978612705852861 158.4575290468   0.0156593942067073 -111.333195844461 0.0156593942067076 -111.333195844462 0.978111487543669 159.491681149113 
21.65                          0.97913326149163 157.191049487587 0.0147500668292264 -112.747027667653 0.0147500668292267 -112.747027667654 0.978697204971446 158.179262100087 
21.7                           0.979616936770801 155.95141430602  0.0139111322739246 -114.126752632538 0.0139111322739248 -114.126752632539 0.979239562183187 156.89708129047  
21.75                          0.980066637973097 154.737159983575 0.0131360158897362 -115.474098396741 0.0131360158897362 -115.474098396742 0.979742144233182 155.643394480865 
21.8                           0.980484986492829 153.546933506041 0.0124188552010215 -116.790662060423 0.0124188552010216 -116.790662060423 0.980208173543062 154.416595724427 
21.85                          0.980874352564573 152.379481989972 0.011754412710354 -118.077922843345 0.011754412710354 -118.077922843345 0.980640553457768 153.215203841063 
21.9                           0.981236884302984 151.233643462909 0.0111380005337573 -119.337253309154 0.0111380005337573 -119.337253309154 0.981041905754645 152.037850447986 
21.95                          0.981574532798943 150.108338650104 0.0105654151176022 -120.569929321853 0.0105654151176021 -120.569929321853 0.981414603053551 150.883269342365 
22                             0.981889073884943 149.002563641503 0.010032880564928 -121.777138893842 0.0100328805649279 -121.777138893842 0.98176079691125 149.75028706166  
22.05                          0.982182127076   147.915383330485 0.00953699933045145 -122.959990063175 0.00953699933045136 -122.959990063174 0.982082442249956 148.637814472351 
22.1                           0.98245517210616 146.845925530888 0.00907470923629611 -124.119517919193 0.00907470923629598 -124.119517919192 0.982381318661258 147.544839258875 
22.15                          0.982709563410603 145.79337569154  0.00864324592133901 -125.256690879923 0.00864324592133886 -125.256690879921 0.982659049037919 146.470419202465 
22.2                           0.982946542846114 144.756972138365 0.00824010997158896 -126.372416311065 0.00824010997158881 -126.372416311064 0.982917115913149 145.413676154683 
22.25                          0.983167250895804 143.736001783312 0.00786303809173967 -127.467545564832 0.00786303809173954 -127.46754556483 0.983156875826984 144.373790623331 
22.3                           0.983372736565369 142.729796247276 0.00750997777271309 -128.542878506845 0.00750997777271295 -128.542878506842 0.983379571989771 143.349996899311 
22.35                          0.98356396614625 141.737728350878 0.00717906498968558 -129.599167590693 0.00717906498968543 -129.599167590691 0.983586345471605 142.34157866239  
22.4                           0.983741830994611 140.75920893282  0.00686860453228982 -130.637121532261 0.00686860453228967 -130.637121532259 0.983778245112302 141.347865011794 
22.45                          0.983907154452969 139.793683960455 0.00657705262548255 -131.65740862944 0.00657705262548243 -131.657408629437 0.983956236317823 140.36822687442  
22.5                           0.984060698022924 138.840631901574 0.00630300154767389 -132.660659767229 0.00630300154767376 -132.660659767227 0.984121208885097 139.402073749348 
22.55                          0.984203166881932 137.899561330104 0.00604516599354014 -133.647471143293 0.00604516599354004 -133.64747114329 0.98427398397698 138.448850752434 
22.6                           0.984335214824088 136.970008741625 0.00580237096366408 -134.618406744793 0.00580237096366401 -134.618406744791 0.984415320352074 137.508035929138 
22.65                          0.984457448693871 136.051536557464 0.00557354099273368 -135.574000603564 0.00557354099273363 -135.574000603562 0.984545919939726 136.579137807555 
22.7                           0.984570432372493 135.143731298503 0.00535769055329343 -136.514758853453 0.00535769055329338 -136.514758853451 0.984666432838278 135.66169316692  
22.75                          0.984674690368591 134.24620191202  0.00515391549365497 -137.441161610787 0.00515391549365489 -137.441161610785 0.984777461804285 134.755264999716 
22.8                           0.984770711058247 133.358578236713 0.00496138538709822 -138.353664696451 0.00496138538709818 -138.353664696449 0.984879566291494 133.859440648031 
22.85                          0.98485894961354 132.480509592696 0.00477933668540328 -139.252701215863 0.00477933668540325 -139.252701215861 0.984973266090821 132.973830096984 
22.9                           0.984939830653912 131.611663484682 0.00460706658343843 -140.138683011229 0.00460706658343843 -140.138683011227 0.985059044616033 132.098064409952 
22.95                          0.985013750650358 130.751724407848 0.00444392751332797 -141.01200199879 0.00444392751332795 -141.01200199879 0.98513735187425 131.231794292003 
23                             0.985081080108788 129.900392746947 0.00428932219690729 -141.873031402318 0.00428932219690729 -141.873031402318 0.985208607155558 130.374688769426 
