! Touchstone file exported from HFSS 3D Layout Design 2026.1.0
!        File:           D:/Work/SIM/ADS_AUTO_SIM/projects/RFSOC_RF/TX_Fillter.aedt
!        Generated:      12:42:33 AM Aug 31, 2026
!        Design:         TX_BAND1_MCFIL_R14_CNN004
!        Project:        TX_Fillter
!
# GHz S MA R 50.000000
! Terminal data exported
! Port[1] = Port1
! Port[2] = Port2
14                             0.968682262542142 -176.092136720625 0.00434060258683353 178.308778916986 0.00434060258683354 178.308778916986 0.971534198469663 -168.768632943264 
14.05                          0.96808952830813 -177.034993739913 0.00443084522064852 177.866321327331 0.00443084522064852 177.866321327331 0.971006415899313 -169.671314812707 
14.1                           0.967478216719277 -177.985359458196 0.00452539843940273 177.439577024713 0.00452539843940271 177.439577024712 0.970462221149003 -170.580577185101 
14.15                          0.966847456059969 -178.943477878522 0.00462458339797741 177.028671716588 0.00462458339797738 177.028671716587 0.969900835251808 -171.496626570476 
14.2                           0.966196320456128 -179.909604860286 0.00472875055884134 176.633684612975 0.00472875055884129 176.633684612974 0.969321429899649 -172.419679784142 
14.25                          0.965523825675815 179.115991158063 0.00483828267906852 176.254642231145 0.00483828267906844 176.254642231145 0.968723123534499 -173.349964590615 
14.3                           0.964828924537461 178.13302838243  0.00495359812433543 175.891511742351 0.00495359812433533 175.891511742351 0.968104977066315 -174.287720396646 
14.35                          0.964110501882629 177.141210827783 0.00507515454787221 175.544193869876 0.00507515454787213 175.544193869876 0.967465989175798 -175.233198997858 
14.4                           0.963367369064715 176.140227418871 0.0052034529771333 175.212515357344 0.00520345297713318 175.212515357344 0.966805091154686 -176.186665383925 
14.45                          0.962598257898783 175.129751021084 0.00533904235644131 174.896221037354 0.0053390423564412 174.896221037354 0.966121141230062 -177.148398607806 
14.5                           0.961801814010525 174.109437394979 0.00548252460016281 174.594965542943 0.00548252460016269 174.594965542943 0.965412918312011 -178.118692725128 
14.55                          0.96097658951413 173.078924067281 0.00563456021824044 174.308304718007 0.00563456021824033 174.308304718006 0.964679115095775 -179.097857810474 
14.6                           0.960121034939377 172.037829110404 0.00579587458430786 174.035686797338 0.00579587458430775 174.035686797338 0.96391833044005 179.913778941886 
14.65                          0.959233490317328 170.985749821624 0.00596726492635553 173.77644344198  0.00596726492635542 173.77644344198  0.963129060932137 178.915872024449 
14.7                           0.958312175321402 169.922261292086 0.00614960813124568 173.529780730599 0.00614960813124555 173.529780730599 0.962309691537959 177.908056320759 
14.75                          0.957355178345977 168.846914854676 0.0063438694675867 173.294770221907 0.00634386946758664 173.294770221907 0.961458485220243 176.889945697103 
14.8                           0.95636044438774 167.759236398543 0.00655111234692193 173.070340215982 0.00655111234692185 173.070340215982 0.960573571391007 175.861131469934 
14.85                          0.955325761575231 166.658724536631 0.00677250926128068 172.855267352682 0.00677250926128059 172.855267352682 0.959652933044542 174.821180735979 
14.9                           0.954248746169095 165.54484861099  0.00700935405637904 172.648168692258 0.00700935405637894 172.648168692258 0.95869439239369 173.769634550386 
14.95                          0.953126825828621 164.417046518784 0.00726307572472584 172.447494425501 0.00726307572472577 172.447494425501 0.957695594804877 172.706005936481 
15                             0.951957220908726 163.274722339902 0.00753525393229009 172.251521357387 0.00753525393229004 172.251521357387 0.956653990795213 171.629777708654 
15.05                          0.950736923514531 162.117243744699 0.00782763652703902 172.058347297965 0.00782763652703896 172.058347297965 0.955566815817129 170.540400087603 
15.1                           0.94946267399722 160.943939157795 0.00814215931854676 171.865886476395 0.00814215931854675 171.865886476394 0.954431067511357 169.437288084492 
15.15                          0.948130934523487 159.754094650827 0.00848096846616216 171.671866067893 0.00848096846616214 171.671866067892 0.953243480056217 168.319818627616 
15.2                           0.946737859290158 158.546950533674 0.00884644587029489 171.473823888501 0.00884644587029484 171.473823888501 0.952000495178434 167.187327401699 
15.25                          0.945279260883524 157.321697609793 0.00924123802887914 171.269107269096 0.00924123802887909 171.269107269096 0.950698229316155 166.039105366107 
15.3                           0.943750572197212 156.077473056945 0.00966828890096535 171.054873068485 0.00966828890096534 171.054873068486 0.949332436335813 164.874394913764 
15.35                          0.942146803220265 154.81335588963  0.0101308774140203 170.828088726614 0.0101308774140203 170.828088726614 0.9478984650981  163.692385627549 
15.4                           0.940462491884935 153.528361953922 0.010632660363697 170.585534194359 0.010632660363697 170.585534194358 0.946391211040699 162.492209585168 
15.45                          0.938691648017276 152.22143839909  0.011177721587934 170.323804507832 0.0111777215879339 170.323804507832 0.944805060791965 161.272936156991 
15.5                           0.936827689257631 150.891457563248 0.0117706284553034 170.039312704625 0.0117706284553034 170.039312704624 0.943133828644763 160.033566233936 
15.55                          0.93486336760611 149.537210202309 0.0124164968954052 169.728292709135 0.0124164968954052 169.728292709135 0.941370683496019 158.773025814147 
15.6                           0.932790684992007 148.157397982647 0.0131210664226046 169.38680174616  0.0131210664226046 169.38680174616  0.939508064586489 157.490158867873 
15.65                          0.930600795956064 146.750625148081 0.0138907868704993 169.010721777935 0.0138907868704993 169.010721777935 0.937537584045902 156.183719389497 
15.7                           0.928283895158202 145.315389261168 0.0147329188714351 168.595759401203 0.0147329188714351 168.595759401203 0.935449913847484 154.852362534234 
15.75                          0.925829086965799 143.850070907413 0.015655650492959 168.137443588089 0.0156556504929591 168.137443588089 0.933234654286211 153.494634724505 
15.8                           0.923224233820302 142.352922239222 0.0166682328927427 167.631120607441 0.0166682328927427 167.631120607441 0.930880180496203 152.10896259781  
15.85                          0.920455779400124 140.822054224693 0.0177811383884387 167.071945420635 0.0177811383884388 167.071945420635 0.928373462788846 150.693640654329 
15.9                           0.917508541767718 139.255422455613 0.019006244974084 166.454868805595 0.0190062449740841 166.454868805596 0.925699855693012 149.24681744933  
15.95                          0.914365470674907 137.650811360633 0.0203570520663794 165.774619422205 0.0203570520663794 165.774619422205 0.922842849473467 147.766480163984 
16                             0.911007361962952 136.005816665872 0.0218489331494745 165.025679987813 0.0218489331494745 165.025679987813 0.919783776546658 146.25043738041  
16.05                          0.907412520485515 134.317825949559 0.023499432021906 164.202256679559 0.0234994320219061 164.202256679559 0.916501463548541 144.696299885947 
16.1                           0.903556361150282 132.583997155216 0.0253286105465023 163.298240817063 0.0253286105465023 163.298240817063 0.912971817772073 143.101459342819 
16.15                          0.899410935460726 130.801234967468 0.0273594571671111 162.307161801884 0.0273594571671111 162.307161801884 0.909167334208891 141.463064690311 
16.2                           0.894944368286089 128.966165028399 0.0296183669715779 161.222130197798 0.0296183669715779 161.222130197798 0.905056506422794 139.777996209218 
16.25                          0.890120186449015 127.075106099354 0.0321357057040328 160.035769730098 0.0321357057040329 160.035769730098 0.900603120878664 138.042837291058 
16.3                           0.884896517081053 125.124040481928 0.034946471763026 158.740136869473 0.0349464717630261 158.740136869473 0.895765410098549 136.253844145016 
16.35                          0.87922512960884 123.108583345887 0.0380910716766926 157.326626561026 0.0380910716766928 157.326626561026 0.890495035123167 134.406913986312 
16.4                           0.873050290882202 121.02395213639  0.0416162254848842 155.785862588729 0.0416162254848844 155.785862588729 0.884735862347449 132.497552744845 
16.45                          0.866307398767427 118.864938046705 0.0455760183043749 154.107571076983 0.0455760183043751 154.107571076983 0.878422494227963 130.52084411013  
16.5                           0.858921356365593 116.625882794292 0.0500331121498176 152.280435801594 0.0500331121498177 152.280435801594 0.871478508402491 128.471422935444 
16.55                          0.850804648488333 114.300665850632 0.0550601262787699 150.291934437926 0.05506012627877 150.291934437927 0.863814356933974 126.343457883845 
16.6                           0.841855087015186 111.882710181969 0.0607411824614814 148.128155812667 0.0607411824614816 148.128155812667 0.855324879486925 124.130651047026 
16.65                          0.831953207260619 109.365018953829 0.0671735898197003 145.773599955305 0.0671735898197005 145.773599955305 0.84588639621012 121.826266606808 
16.7                           0.820959331909843 106.740262261858 0.0744696064363772 143.210965733976 0.0744696064363773 143.210965733976 0.835353376417076 119.423207180848 
16.75                          0.808710386245265 104.000942818063 0.0827581533059455 140.420935800199 0.0827581533059457 140.420935800199 0.823554741954919 116.914166380061 
16.8                           0.795016670239893 101.139684099672 0.0921862584692105 137.381976447322 0.0921862584692106 137.381976447322 0.810289982239244 114.291900839769 
16.85                          0.779659003196896 98.1497056857089 0.102919859898043 134.07018214534  0.102919859898043 134.070182145339 0.795325466702239 111.54968665958  
16.9                           0.762387003312364 95.0255806899435 0.115143377402956 130.459212596808 0.115143377402956 130.459212596808 0.778391691818411 108.682056449545 
16.95                          0.742919811024048 91.7644116221312 0.12905716277218 126.520395841351 0.12905716277218 126.520395841351 0.759182763771132 105.685956953217 
17                             0.720951379176944 88.3676145676014 0.144871557726445 122.223105108099 0.144871557726445 122.223105108099 0.737360273534361 102.562525680329 
17.05                          0.696163572554392 84.8435636084622 0.1627958827651  117.535558036353 0.1627958827651  117.535558036353 0.712564924702904 99.3197570041165 
17.1                           0.668251666825253 81.2114029446463 0.183020397033197 112.426226698927 0.183020397033196 112.426226698926 0.684440775493712 95.9764037236666 
17.15                          0.636968053674715 77.5063438100466 0.205689429221556 106.866066154563 0.205689429221555 106.866066154563 0.65267843155529 92.5675091575802 
17.2                           0.602190145746177 73.7866399319134 0.230865022203926 100.831730980327 0.230865022203925 100.831730980327 0.617084115204724 89.1519172964069 
17.25                          0.564015926829481 70.1420070065203 0.258483244005088 94.3097976443989 0.258483244005087 94.3097976443989 0.577679565439904 85.8218194638008 
17.3                           0.522882830821894 66.7022116227365 0.288310218022246 87.3016878421779 0.288310218022245 87.3016878421779 0.534830721296657 82.713587645576  
17.35                          0.479690302996769 63.642425829814  0.319911177222212 79.8284851189979 0.319911177222211 79.8284851189979 0.489388705710891 80.0173151342435 
17.4                           0.435883499059353 61.1782004018807 0.352650456703397 71.9342794311854 0.352650456703397 71.9342794311855 0.442804452202842 77.9788185647758 
17.45                          0.393430620968812 59.5378180316186 0.385738119127387 63.6863819737003 0.385738119127387 63.6863819737003 0.397152412469707 76.8815079039862 
17.5                           0.354613648029279 58.8972987116303 0.418325617299398 55.1711467966906 0.418325617299399 55.1711467966905 0.354978183943649 76.9879395724213 
17.55                          0.32157973369792 59.2761838427861 0.449631064066452 46.4854043214497 0.449631064066454 46.4854043214496 0.318887419411031 78.4234646395032 
17.6                           0.295711916766664 60.4371299168874 0.479056311439064 37.7252339244272 0.479056311439066 37.7252339244271 0.290865584113915 81.0264718925332 
17.65                          0.277078939576224 61.886399478777  0.506257351108327 28.9750138114039 0.506257351108329 28.9750138114037 0.27153156542857 84.2809095773656 
17.7                           0.264340768064468 63.0353548536698 0.531149441030182 20.2995784759013 0.531149441030183 20.299578475901  0.259793695267892 87.4687075606978 
17.75                          0.255241626835124 63.4260386530066 0.553855933166904 11.7409603266218 0.553855933166905 11.7409603266216 0.253264689309291 89.9806115491049 
17.8                           0.247365085445419 62.8509366843271 0.574627821939956 3.31947769876671 0.574627821939957 3.31947769876652 0.24917381993092 91.5269325778803 
17.85                          0.238705198292613 61.3246273065628 0.59376247477519 -4.96222734540387 0.593762474775191 -4.96222734540402 0.245150522063363 92.1257111252851 
17.9                           0.227891038225232 58.9925642028091 0.611540085879058 -13.1138804801064 0.611540085879058 -13.1138804801065 0.239565416780481 91.9779861089501 
17.95                          0.214164707816618 56.056866069189  0.628184378613049 -21.15232885882  0.62818437861305 -21.15232885882  0.231529941987245 91.3596621888896 
18                             0.197262808731949 52.7434117547684 0.643845781263975 -29.0971354874571 0.643845781263976 -29.0971354874571 0.220761426834569 90.569061577912  
18.05                          0.177293923861467 49.3062032336924 0.658601702469856 -36.9673185750302 0.658601702469858 -36.9673185750301 0.207443125040026 89.9168276051025 
18.1                           0.154649369987708 46.0672262178654 0.672468075781871 -44.7792433246357 0.672468075781873 -44.7792433246355 0.192126846827912 89.7373448035195 
18.15                          0.129962225922774 43.5120683934826 0.685417199150863 -52.5455298802831 0.685417199150867 -52.545529880283 0.175684491238576 90.4045663192097 
18.2                           0.104144055770315 42.5169520657886 0.697397943634138 -60.2747896349424 0.697397943634142 -60.2747896349423 0.15929692488884 92.3309063698061 
18.25                          0.0786150943920719 44.9375122678631 0.708355258995959 -67.9719916668761 0.708355258995964 -67.971991666876 0.144447416410043 95.9080920116821 
18.3                           0.0561689462491587 55.0626175825806 0.718246599981223 -75.6392637215259 0.718246599981228 -75.6392637215259 0.132837447583561 101.326559477694 
18.35                          0.0433391627580726 79.550966023994  0.727053597453164 -83.276939492816 0.727053597453168 -83.276939492816 0.12608244961661 108.270391490735 
18.4                           0.048041290212349 108.932028936913 0.734788100265263 -90.8846781819944 0.734788100265266 -90.8846781819944 0.125138087414185 115.745773570694 
18.45                          0.0653569174900666 123.965554615824 0.74149258204545 -98.4625077303703 0.741492582045452 -98.4625077303704 0.129811058850633 122.445349947147 
18.5                           0.0866043327759007 128.097241295828 0.747235705207207 -106.01168070831 0.747235705207206 -106.01168070831 0.138885798462916 127.437877573271 
18.55                          0.108029211062868 127.086365958521 0.752104404924476 -113.535277643687 0.752104404924474 -113.535277643687 0.150758977314701 130.456256133499 
18.6                           0.128232754992907 123.51038011473  0.75619410022957 -121.038539298752 0.756194100229567 -121.038539298751 0.163989386345039 131.682484638882 
18.65                          0.146647640228359 118.482786702869 0.759598556855539 -128.528949491215 0.759598556855535 -128.528949491215 0.177511028329094 131.448454335846 
18.7                           0.1630753703177  112.531725589671 0.762400599736148 -136.016118316879 0.762400599736144 -136.016118316879 0.190628546974271 130.06942630898  
18.75                          0.177532596716924 105.931365010724 0.764664422981852 -143.511530351981 0.764664422981848 -143.51153035198 0.202943697348086 127.789551269056 
18.8                           0.190189153964737 98.8356910006715 0.766429782703116 -151.028224827345 0.766429782703113 -151.028224827344 0.214280714026064 124.777722975357 
18.85                          0.201337046926204 91.3389923758058 0.767707956392828 -158.580467619801 0.767707956392826 -158.5804676198  0.224627839328831 121.138479960432 
18.9                           0.211370774510873 83.5066022440547 0.768479043637814 -166.183460965868 0.768479043637813 -166.183460965868 0.234095020120686 116.924573543487 
18.95                          0.220771364835072 75.392245313116  0.768689971892777 -173.853117878822 0.768689971892777 -173.853117878821 0.242884604936497 112.147756492654 
19                             0.230090516139092 67.0483298752448 0.768252457755489 178.394095091027 0.768252457755489 178.394095091027 0.251272654714593 106.787893483319 
19.05                          0.239932986091094 58.5314182840164 0.767040172960031 170.541271236965 0.767040172960031 170.541271236965 0.259599675690819 100.801525319651 
19.1                           0.250936477593826 49.9033928949695 0.764884517862981 162.571191150699 0.764884517862978 162.571191150698 0.26827000468055 94.1311655773461 
19.15                          0.263748989210382 41.2284500649648 0.761568790457645 154.466560546463 0.761568790457638 154.466560546462 0.277758134140925 86.7163900298189 
19.2                           0.279003613002818 32.5666367913442 0.756821261198911 146.210495039652 0.756821261198899 146.210495039651 0.288617588606572 78.5072379800069 
19.25                          0.297289736146212 23.9657694383883 0.750308828789444 137.787422794401 0.750308828789426 137.7874227944   0.301483709871223 69.4794262689969 
19.3                           0.319117848101289 15.4545315427342 0.741634573060263 129.184588446861 0.741634573060237 129.18458844686  0.317057239424019 59.6492876707391 
19.35                          0.344874065600419 7.03959282685329 0.7303444513813  120.394305688085 0.730344451381268 120.394305688085 0.336054068660011 49.0845743049147 
19.4                           0.374762175154645 -1.2915667124367 0.715949963849031 111.41698486597  0.715949963848996 111.41698486597  0.359112279947573 37.9065434812242 
19.45                          0.40873701258196 -9.56240186823613 0.697973520250756 102.264721729557 0.697973520250722 102.264721729557 0.386663015952648 26.2806309216221 
19.5                           0.44644273442634 -17.7958110898041 0.676019585492375 92.9648738462484 0.676019585492346 92.9648738462489 0.418792934371497 14.397599641039  
19.55                          0.487179128848865 -26.002725518164 0.649865969007513 83.5626559244948 0.649865969007494 83.5626559244955 0.455142217727708 2.4515680828802  
19.6                           0.529921916465305 -34.174068807023 0.619556863850218 74.1215562614081 0.619556863850211 74.1215562614085 0.494881762698209 -9.37792783520409 
19.65                          0.573412665112234 -42.2782852009821 0.585467973010389 64.7205828322185 0.585467973010394 64.720582832218  0.536792373276913 -20.9362737103845 
19.7                           0.616310146920079 -50.264855034242 0.548313270051641 55.4481381195152 0.548313270051657 55.4481381195131 0.579434312881831 -32.0975337007433 
19.75                          0.657367680496522 -58.0723493764174 0.509078662917675 46.3934944966919 0.509078662917695 46.3934944966874 0.621362104768271 -42.7647364441433 
19.8                           0.695586735934711 -65.6383135988441 0.468895345094294 37.6378243992913 0.468895345094311 37.6378243992838 0.661323472905671 -52.8690177563235 
19.85                          0.730306347460575 -72.9081106150661 0.428889598260905 29.2469424823495 0.428889598260915 29.2469424823386 0.698391641515225 -62.3682173332043 
19.9                           0.761215203463725 -79.840759863752 0.390051742843103 21.267210651228  0.390051742843099 21.2672106512139 0.732010479867178 -71.2445583496635 
19.95                          0.788301507198198 -86.4111979095928 0.353153196523161 13.7248836370889 0.353153196523138 13.7248836370717 0.761964312091864 -79.501129581563 
20                             0.811770388856785 -92.6095532198721 0.318718315689067 6.62817195370212 0.318718315689025 6.62817195368236 0.788302867652249 -87.1574254860848 
20.05                          0.831957364994668 -98.4385826803419 0.287039937433566 -0.0291534901370023 0.287039937433504 -0.0291534901583895 0.81125309920346 -94.2445717322375 
20.1                           0.849255959783294 -103.910398656226 0.25822027265133 -6.26371944547476 0.258220272651251 -6.26371944549668 0.831139915861893 -100.800880254886 
20.15                          0.864066296383202 -109.043288649569 0.232220331940798 -12.0988274720858 0.232220331940704 -12.0988274721071 0.848325948513628 -106.868159315657 
20.2                           0.876763727436037 -113.859051428802 0.208906633492768 -17.5614246321754 0.208906633492664 -17.5614246321946 0.863171576061469 -112.488937237412 
20.25                          0.887683034909436 -118.380983123966 0.188089663177244 -22.6798563643057 0.188089663177134 -22.6798563643214 0.876011826527075 -117.704558032634 
20.3                           0.897113122840437 -122.632476177386 0.169552652676566 -27.4823273184476 0.169552652676456 -27.4823273184585 0.887145407543326 -122.554001433406 
20.35                          0.905297948717146 -126.63611969952 0.153071504470229 -31.9959296998417 0.153071504470122 -31.9959296998467 0.896831523038145 -127.073249331246 
20.4                           0.912440656983798 -130.413174721546 0.138427597881461 -36.2460906488385 0.138427597881363 -36.2460906488366 0.905291172621729 -131.295033910994 
20.45                          0.918708980402038 -133.983311700713 0.125415327028862 -40.2563093851371 0.125415327028777 -40.2563093851285 0.912710696102708 -135.248834318038 
20.5                           0.924240796360648 -137.364521354859 0.113845976024611 -44.0480820255572 0.113845976024542 -44.0480820255425 0.91924617811865 -138.961023119206 
20.55                          0.9291492698163  -140.573133685413 0.103549182737397 -47.6409375454353 0.103549182737346 -47.6409375454163 0.92502792674808 -142.455093850403 
20.6                           0.93352734514197 -143.623899944449 0.0943729040978535 -51.0525291128736 0.0943729040978213 -51.0525291128535 0.930164625556283 -145.751924326318 
20.65                          0.937451533891603 -146.530107439209 0.0861825193962791 -54.2987418524653 0.0861825193962631 -54.2987418524479 0.934746989879709 -148.870047334616 
20.7                           0.940985038853718 -149.303707919219 0.0788594986054393 -57.3937942416765 0.0788594986054342 -57.3937942416661 0.938850887606118 -151.825912006706 
20.75                          0.944180294699282 -151.955447750374 0.0722999075296711 -60.3503290157209 0.0722999075296712 -60.3503290157209 0.94253995107016 -154.634126867737 
20.8                           0.947081016291451 -154.494993041836 0.0664129039386638 -63.1795094610725 0.066412903938662 -63.1795094610841 0.945867736092718 -157.307680472621 
20.85                          0.949723841894189 -156.931046097108 0.0611192901857558 -65.891148962444 0.0611192901857466 -65.8911489624656 0.948879493160297 -159.858138528694 
20.9                           0.95213964838463 -159.27145157156 0.0563501329797062 -68.4938926823457 0.0563501329796869 -68.4938926823731 0.951613614202209 -162.295818139994 
20.95                          0.954354603587478 -161.52329193728 0.0520454481201113 -70.995439526377 0.0520454481200822 -70.9954395264049 0.954102812095009 -164.629940735764 
21                             0.95639100921415 -163.692972560466 0.0481529675199205 -73.4027617023294 0.0481529675198844 -73.4027617023524 0.956375082041318 -166.868765671481 
21.05                          0.958267977560697 -165.786297074251 0.0446270265431118 -75.7222752541006 0.0446270265430724 -75.7222752541154 0.958454485948457 -169.019706614914 
21.1                           0.960001976391558 -167.808533904834 0.0414276054375889 -77.9599407828163 0.0414276054375498 -77.9599407828212 0.960361793621333 -171.089432781099 
21.15                          0.961607269279938 -169.764474861536 0.0385195323676925 -80.1213056653943 0.0385195323676564 -80.1213056653896 0.962115008262763 -173.083956939745 
21.2                           0.963096272917912 -171.658486683761 0.0358718290759514 -82.2115149778492 0.0358718290759198 -82.2115149778363 0.963729798478406 -175.008711936173 
21.25                          0.964479848333485 -173.494556381973 0.0334571685202695 -84.2353153653285 0.033457168520243 -84.2353153653097 0.965219854633913 -176.868617271987 
21.3                           0.96576753934349 -175.276331136026 0.0312514161115329 -86.1970648298171 0.0312514161115114 -86.1970648297943 0.966597183885119 -178.668137101009 
21.35                          0.966967768739477 -177.007153434327 0.0292332342631797 -88.100751520252 0.029233234263163 -88.1007515202269 0.967872355365774 179.58866918136  
21.4                           0.968088000487036 -178.690092058447 0.0273837375293939 -89.9500194453661 0.0273837375293811 -89.9500194453409 0.969054704747895 177.898102737513 
21.45                          0.96913487448563 179.672030556382 0.0256861904773879 -91.748197670203 0.0256861904773785 -91.7481976701788 0.97015250557902 176.256786599745 
21.5                           0.970114319080108 178.076614122067 0.0241257429392115 -93.4983300796483 0.0241257429392047 -93.498330079626 0.97117311335763 174.661631743055 
21.55                          0.971031645453372 176.521259057406 0.02268919839794 -95.2032038249196 0.0226891983979353 -95.2032038248997 0.972123087158103 173.109807273904 
21.6                           0.971891627196751 175.003747457808 0.0213648117548425 -96.8653754801134 0.0213648117548393 -96.8653754800963 0.973008292699408 171.598714182458 
21.65                          0.972698567699685 173.522026172614 0.0201421130184157 -98.4871945571643 0.0201421130184136 -98.4871945571504 0.97383399001913 170.125962184913 
21.7                           0.973456357483851 172.07419172818  0.0190117537247803 -100.070824388059 0.019011753724779 -100.070824388049 0.974604908328027 168.689349249994 
21.75                          0.974168523198382 170.658476869944 0.0179653731870981 -101.618260562595 0.0179653731870974 -101.618260562587 0.975325310149782 167.28684346132  
21.8                           0.974838269668581 169.273238526934 0.0169954819753423 -103.131347180265 0.016995481975342 -103.13134718026 0.975999046472047 165.916566916365 
21.85                          0.975468516132375 167.916947028219 0.0160953603307722 -104.611791186278 0.0160953603307721 -104.611791186276 0.976629604329388 164.576781404537 
21.9                           0.976061927592278 166.588176423254 0.015258969507642 -106.061175044818 0.015258969507642 -106.061175044819 0.977220147991454 163.265875642517 
21.95                          0.976620942045045 165.285595777337 0.0144808742991243 -107.480967974686 0.0144808742991245 -107.48096797469 0.977773554728904 161.982353875359 
22                             0.977147794217739 164.007961330049 0.0137561752411418 -108.87253594214 0.0137561752411419 -108.872535942146 0.97829244596599 160.724825677774 
22.05                          0.977644536331069 162.754109418804 0.0130804491960791 -110.237150577211 0.0130804491960792 -110.237150577218 0.978779214494997 159.491996812161 
22.1                           0.978113056323216 161.522950082034 0.0124496971995375 -111.575997154561 0.0124496971995375 -111.575997154571 0.979236048317991 158.282661018936 
22.15                          0.978555093895991 160.31346126715  0.0118602986097192 -112.890181758416 0.0118602986097191 -112.890181758427 0.979664951591097 157.095692630905 
22.2                           0.978972254686715 159.124683577632 0.0113089707334562 -114.180737733013 0.011308970733456 -114.180737733025 0.980067763071945 155.930039917424 
22.25                          0.97936602282122 157.9557155016   0.0107927332180756 -115.448631504959 0.0107927332180754 -115.448631504972 0.980446172409196 154.78471907606  
22.3                           0.979737772063788 156.805709071094 0.0103088765968476 -116.694767851346 0.0103088765968474 -116.69476785136 0.980801734561696 153.658808799787 
22.35                          0.980088775747044 155.673865907332 0.00985493446003712 -117.919994677051 0.00985493446003673 -117.919994677065 0.981135882592016 152.551445356693 
22.4                           0.980420215637616 154.559433612407 0.00942865879565861 -119.125107355949 0.00942865879565822 -119.125107355964 0.981449939043337 151.46181812687  
22.45                          0.980733189870645 153.46170247246  0.00902799810571653 -120.310852683475 0.00902799810571608 -120.310852683489 0.981745126078552 150.389165547815 
22.5                           0.981028720067184 152.38000244133  0.00865107795654369 -121.477932481806 0.00865107795654324 -121.47793248182 0.982022574535202 149.332771425518 
22.55                          0.981307757732609 151.313700377165 0.00829618366715604 -122.627006893749 0.0082961836671556 -122.627006893763 0.982283332028497 148.291961573368 
22.6                           0.981571190020623 150.2621975075   0.00796174487843592 -123.758697396975 0.00796174487843545 -123.758697396988 0.982528370216569 147.266100745479 
22.65                          0.981819844936089 149.224927101024 0.00764632177939973 -124.873589566443 0.00764632177939933 -124.873589566455 0.982758591326795 146.254589834798 
22.7                           0.98205449604024 148.201352326562 0.00734859279559809 -125.972235609625 0.00734859279559771 -125.972235609636 0.982974834028904 145.256863309734 
22.75                          0.982275866713563 147.190964281889 0.00706734356952409 -127.055156696291 0.00706734356952373 -127.0551566963  0.983177878729462 144.272386865967 
22.8                           0.982484634024657 146.19328017682  0.00680145708434674 -128.122845102211 0.00680145708434645 -128.122845102219 0.983368452352755 143.30065527266  
22.85                          0.982681432247278 145.207841656624 0.0065499048008285 -129.175766183993 0.00654990480082827 -129.175766183999 0.983547232664884 142.341190394559 
22.9                           0.982866856062664 144.234213253233 0.00631173869334923 -130.214360200408 0.00631173869334908 -130.214360200412 0.983714852190828 141.393539373446 
22.95                          0.983041463479732 143.271980952995 0.00608608408489153 -131.239043993967 0.00608608408489144 -131.239043993968 0.98387190176817 140.457272954165 
23                             0.983205778501882 142.320750870829 0.00587213319294815 -132.250212545053 0.00587213319294817 -132.250212545053 0.98401893377589 139.531983941969 
