! Touchstone file exported from HFSS 3D Layout Design 2026.1.0
!        File:           D:/Work/SIM/ADS_AUTO_SIM/projects/RFSOC_RF/TX_Fillter.aedt
!        Generated:      11:32:40 PM Aug 30, 2026
!        Design:         TX_BAND1_MCFIL_R8_CNN003
!        Project:        TX_Fillter
!
# GHz S MA R 50.000000
! Terminal data exported
! Port[1] = Port1
! Port[2] = Port2
14                             0.963610607087515 172.402967543383 0.00565600079443647 171.393681846157 0.00565600079443647 171.393681846157 0.963714525237157 172.784143685041 
14.05                          0.962891450105669 171.368714966542 0.00579251123147198 170.922403278754 0.00579251123147204 170.922403278754 0.962986693199345 171.74075592467  
14.1                           0.962149329750265 170.325203993417 0.00593616018661582 170.46270859667  0.00593616018661583 170.46270859667  0.962235269226878 170.687929363917 
14.15                          0.961383166907714 169.272128760764 0.00608748900783812 170.014295231764 0.00608748900783815 170.014295231764 0.961459123673457 169.625347534247 
14.2                           0.960591815130584 168.209168763163 0.00624708776493676 169.576789640672 0.00624708776493682 169.576789640672 0.960657055078219 168.552678458515 
14.25                          0.959774055357297 167.1359879664   0.00641560008305615 169.149741384901 0.00641560008305617 169.149741384901 0.959827784439145 167.46957369156  
14.3                           0.958928590129316 166.052233854732 0.00659372849343254 168.732617084575 0.00659372849343257 168.732617084574 0.958969948933574 166.37566728768  
14.35                          0.958054037249225 164.957536406134 0.00678224036171752 168.324794296893 0.00678224036171755 168.324794296893 0.958082095022804 165.270574688321 
14.4                           0.95714892281569 163.851506988995 0.00698197446220361 167.925555377931 0.00698197446220368 167.92555537793  0.957162670869445 164.153891522552 
14.45                          0.956211673562818 162.733737173034 0.00719384827546817 167.534081393487 0.00719384827546823 167.534081393487 0.956210017986642 163.02519231214  
14.5                           0.955240608421616 161.603797446456 0.00741886609757122 167.14944615091  0.00741886609757122 167.149446150909 0.95522236202729 161.884029072093 
14.55                          0.954233929210005 160.461235830469 0.00765812806123848 166.770610428738 0.00765812806123851 166.770610428738 0.954197802608615 160.729929796574 
14.6                           0.953189710344767 159.305576381345 0.00791284018371241 166.396416484176 0.00791284018371247 166.396416484176 0.953134302052855 159.562396818907 
14.65                          0.952105887453714 158.136317569099 0.00818432557250371 166.025582919316 0.00818432557250375 166.025582919316 0.952029672907656 158.380905033136 
14.7                           0.950980244748809 156.952930520625 0.0084740369395163 165.656699985208 0.00847403693951632 165.656699985208 0.950881564090066 157.184899963146 
14.75                          0.949810401000561 155.754857113776 0.00878357059641008 165.288225397803 0.0087835705964101 165.288225397803 0.949687445474865 155.973795663711 
14.8                           0.948593793930172 154.541507907281 0.00911468213015223 164.918480731143 0.00911468213015228 164.918480731143 0.948444590721118 154.746972435976 
14.85                          0.947327662808117 153.312259889681 0.00946930398812358 164.545648440512 0.00946930398812363 164.545648440512 0.947150058099276 153.503774337811 
14.9                           0.94600902901516 152.066454028452 0.00984956523763833 164.167769551472 0.00984956523763833 164.167769551472 0.945800669044258 152.243506467067 
14.95                          0.944634674283516 150.803392598288 0.0102578138061766 163.782742029665 0.0102578138061765 163.782742029665 0.944392984116503 150.965431993085 
15                             0.943201116290719 149.522336264983 0.010696641557055 163.388319821114 0.0106966415570551 163.388319821114 0.942923276001838 149.668768908777 
15.05                          0.941704581225504 148.222500898518 0.0111689126118825 162.982112523777 0.0111689126118825 162.982112523778 0.941387499120586 148.35268647209  
15.1                           0.940140972881962 146.903054085795 0.0116777953973936 162.561585618807 0.0116777953973936 162.561585618807 0.939781255344797 147.016301301768 
15.15                          0.938505837763478 145.563111309817 0.012226798971826 162.124061154922 0.0122267989718259 162.124061154922 0.938099755237593 145.658673087849 
15.2                           0.936794325589045 144.201731758126 0.0128198142768833 161.666718742444 0.0128198142768832 161.666718742444 0.936337774127597 144.278799872282 
15.25                          0.935001144488591 142.81791371875  0.0134611610678818 161.186596675563 0.0134611610678818 161.186596675564 0.934489602210932 142.875612849317 
15.3                           0.933120510047344 141.410589516871 0.0141556413996825 160.680592963387 0.0141556413996825 160.680592963387 0.932548987729267 141.44797062885  
15.35                          0.931146087207604 139.978619939801 0.0149086006927392 160.145466013011 0.0149086006927392 160.145466013011 0.930509072099769 139.994652898608 
15.4                           0.929070923854293 138.520788091652 0.0157259975758908 159.577834672042 0.0157259975758908 159.577834672043 0.928362315665518 138.51435341287  
15.45                          0.926887374691671 137.035792612309 0.0166144839048773 158.974177304197 0.0166144839048773 158.974177304197 0.926100412485408 137.005672226255 
15.5                           0.924587013754666 135.522240187968 0.0175814965931574 158.330829540047 0.0175814965931574 158.330829540047 0.923714192281589 135.467107081011 
15.55                          0.922160533579544 133.978637272777 0.0186353631704234 157.643980315668 0.0186353631704234 157.643980315668 0.921193507298737 133.897043845066 
15.6                           0.919597628673081 132.403380933094 0.0197854233109802 156.909665784304 0.0197854233109802 156.909665784304 0.918527101389205 132.293745886169 
15.65                          0.916886860452563 130.79474871802  0.0210421689563312 156.123760659494 0.0210421689563312 156.123760659494 0.915702458104425 130.655342254728 
15.7                           0.914015500262986 129.150887452647 0.022417406101887 155.281966521144 0.022417406101887 155.281966521144 0.91270562392548 128.979814535032 
15.75                          0.910969346391801 127.469800844861 0.02392444183479 154.379796587366 0.02392444183479 154.379796587367 0.909521001979914 127.264982212055 
15.8                           0.907732510170049 125.749335793872 0.0255783008059351 153.412556422828 0.0255783008059351 153.412556422828 0.906131110638149 125.508486390143 
15.85                          0.904287165242626 123.987167291099 0.0273959759999827 152.37532001723  0.0273959759999827 152.37532001723  0.902516300226922 123.707771692446 
15.9                           0.90061325287601 122.180781814757 0.0293967194340672 151.262900623782 0.0293967194340673 151.262900623782 0.898654419699102 121.860066168877 
15.95                          0.89668813471277 120.32745914327  0.0316023792630539 150.069815696218 0.031602379263054 150.069815696219 0.894520423415052 119.962359050128 
16                             0.89248618264095 118.424252556679 0.0340377906775095 148.790245203929 0.0340377906775094 148.790245203929 0.890085906174178 118.011376212547 
16.05                          0.887978293390253 116.467967469976 0.0367312289091001 147.41798253972  0.0367312289091  147.41798253972  0.885318552243055 116.003553273907 
16.1                           0.883131313076175 114.455138663694 0.0397149335304205 145.946377167861 0.0397149335304205 145.946377167861 0.880181481327819 113.935006338635 
16.15                          0.877907354199326 112.382006468185 0.0430257139192185 144.368268099726 0.0430257139192185 144.368268099726 0.874632471232738 111.80150057627  
16.2                           0.872262984641374 110.244492553387 0.0467056460288533 142.675907245269 0.0467056460288533 142.675907245269 0.868623033394529 109.598417083727 
16.25                          0.866148265162988 108.038176426202 0.0508028701085229 140.860871695561 0.0508028701085228 140.860871695561 0.862097313757742 107.320718902518 
16.3                           0.859505609177945 105.758274417818 0.0553724971796839 138.913964084207 0.0553724971796839 138.913964084207 0.854990787937682 104.962917714739 
16.35                          0.852268436857168 103.399623963592 0.0604776280143955 136.82510041609  0.0604776280143955 136.82510041609  0.847228717030369 102.519043742828 
16.4                           0.844359596164274 100.956677499848 0.0661904807237493 134.583185236734 0.0661904807237493 134.583185236734 0.838724330085866 99.9826229016418 
16.45                          0.835689528400139 98.4235125605482 0.072593609815637 132.175974890411 0.072593609815637 132.175974890411 0.82937670343627 97.3466675550322 
16.5                           0.826154168843478 95.7938679922762 0.0797811777244888 129.589931097408 0.0797811777244887 129.589931097408 0.819068319585055 94.603690693515  
16.55                          0.815632599985819 93.061221103175  0.0878602050524405 126.810069487691 0.0878602050524404 126.810069487691 0.807662315474568 91.7457585330511 
16.6                           0.803984524977892 90.2189276982763 0.0969516721456864 123.819811510015 0.0969516721456865 123.819811510015 0.794999481617827 88.7646042466523 
16.65                          0.791047716540826 87.260457247849  0.10719126438256 120.600853906993 0.10719126438256 120.600853906993 0.780895165206773 85.6518369354765 
16.7                           0.776635742888644 84.1797700678039 0.118729437411027 117.133078497135 0.118729437411027 117.133078497135 0.765136384768268 82.3992966340289 
16.75                          0.760536506604643 80.9719037469666 0.131730317476661 113.394537245733 0.131730317476661 113.394537245733 0.747479713369087 78.999630291702  
16.8                           0.742512492165891 77.6338634646997 0.14636874150977 109.361564370399 0.14636874150977 109.361564370399 0.727650873062392 75.4471980439342 
16.85                          0.722304141839349 74.1659458812763 0.162824491631097 105.009088771986 0.162824491631097 105.009088771986 0.705347550018734 71.7394669090116 
16.9                           0.699638489743921 70.5736672168935 0.181272531201861 100.311245068914 0.181272531201861 100.311245068914 0.680247717756753 67.8791135120571 
16.95                          0.674246041665174 66.8705057763394 0.201867907253193 95.2424052000734 0.201867907253193 95.2424052000733 0.652026719014216 63.8771405283922 
17                             0.64588971468086 63.0816890878391 0.224724146413311 89.7787641198964 0.224724146413312 89.7787641198963 0.620387345757986 59.7574117659505 
17.05                          0.614410003438746 59.2492163934347 0.249884756920358 83.9005927209947 0.249884756920358 83.9005927209945 0.585107767017501 55.5631191581382 
17.1                           0.579789583725078 55.4381318508046 0.277289251897739 77.595189286821  0.277289251897739 77.5951892868209 0.546111634282458 51.3657868409894 
17.15                          0.542237055608198 51.7436154190217 0.306738194148821 70.8603851649342 0.306738194148821 70.8603851649341 0.503561993548293 47.2774314229389 
17.2                           0.502282144915053 48.2975088087196 0.337865820513204 63.7081775250047 0.337865820513204 63.7081775250046 0.45797482785266 43.4662633804402 
17.25                          0.460862893168094 45.2711045162368 0.370132359866352 56.1677165301783 0.370132359866353 56.1677165301782 0.410339227286502 40.1753094721674 
17.3                           0.419370654647448 42.8680537844788 0.402848380851044 48.2866067994472 0.402848380851044 48.2866067994471 0.362220918501177 37.7399539965731 
17.35                          0.379605394334569 41.297420906601  0.435237346699366 40.1295179052762 0.435237346699367 40.1295179052761 0.315814523266195 36.5903049918404 
17.4                           0.343589594369125 40.7154756486308 0.466529596398292 31.7736233157684 0.466529596398293 31.7736233157683 0.273886854846405 37.1994396935832 
17.45                          0.313209323539892 41.1356820499221 0.496066108856818 23.3013511441664 0.496066108856819 23.3013511441664 0.239490325085321 39.9011122553409 
17.5                           0.289724459055941 42.3420741240613 0.52338258054072 14.791937804803  0.523382580540721 14.7919378048029 0.215242130756665 44.5298456650389 
17.55                          0.273328259320774 43.8846755463543 0.548250043686609 6.31377164484111 0.54825004368661 6.313771644841   0.202152439934792 50.121810462592  
17.6                           0.263032701294031 45.2107874583017 0.570665132889358 -2.08080831055914 0.570665132889359 -2.08080831055927 0.198782028549298 55.2258555130626 
17.65                          0.257008396206844 45.86245960104   0.590801158308533 -10.3575332454189 0.590801158308535 -10.357533245419 0.201814718340671 58.7410631850638 
17.7                           0.253173330606901 45.5971816922442 0.608940854613199 -18.4993412042703 0.608940854613201 -18.4993412042705 0.207616435033766 60.3440486626766 
17.75                          0.249686086028397 44.378523168691  0.625410692640426 -26.5035685571498 0.625410692640427 -26.50356855715  0.213352821348239 60.2552354307263 
17.8                           0.24517644957373 42.2978226285801 0.640529157407245 -34.3782720519621 0.640529157407246 -34.3782720519623 0.217234356989721 58.8755324172694 
17.85                          0.238760464560021 39.498975548851  0.654573109404959 -42.1385391119234 0.65457310940496 -42.1385391119235 0.218314646519416 56.591319537002  
17.9                           0.229953544076677 36.1336411329347 0.667760658362496 -49.8033015774104 0.667760658362497 -49.8033015774105 0.216217766632596 53.7202355415095 
17.95                          0.218563027625638 32.3434587416077 0.680246472236142 -57.3928649594978 0.680246472236142 -57.3928649594978 0.210927226152722 50.5173241246298 
18                             0.204596241733114 28.2589287360814 0.692125176198244 -64.9271648685639 0.692125176198244 -64.9271648685638 0.202649749429972 47.1985108451774 
18.05                          0.188192912441838 24.0080297677339 0.703439284996587 -72.4246600594656 0.703439284996587 -72.4246600594654 0.191736863913989 43.9670057601561 
18.1                           0.169580021229955 19.7330663731264 0.714189136411964 -79.9017366732685 0.714189136411965 -79.9017366732682 0.178647748829893 41.0405294935512 
18.15                          0.149045613920774 15.6206822735872 0.724343162047673 -87.3724996486741 0.724343162047674 -87.3724996486738 0.163944238934284 38.6813624514886 
18.2                           0.126931930860526 11.9618673853829 0.73384744239489 -94.8488431843716 0.733847442394891 -94.8488431843713 0.148317113201624 37.2309701230384 
18.25                          0.10366017757035 9.291496057744   0.742633883425534 -102.340710610916 0.742633883425536 -102.340710610916 0.132649978752616 37.1436227513086 
18.3                           0.0798397969378129 8.7684538664363  0.750626600155122 -109.856470110908 0.750626600155125 -109.856470110907 0.118126254448036 38.985510880286  
18.35                          0.0566932306682685 13.3836271010083 0.757746269089466 -117.403345389385 0.757746269089469 -117.403345389385 0.106347109289933 43.2928917764632 
18.4                           0.0379154835797623 31.5564691094433 0.763912361727345 -124.987850319671 0.763912361727348 -124.987850319671 0.0992922739558662 50.1086815567873 
18.45                          0.0343608911963795 70.1002833178041 0.769043315902888 -132.616184774014 0.76904331590289 -132.616184774014 0.0987887354418138 58.3202015737521 
18.5                           0.0505140308679314 96.0870093357724 0.773054844131274 -140.29455594692 0.773054844131274 -140.29455594692 0.105546713849536 65.8105695400988 
18.55                          0.0751231375007984 103.514221990372 0.775856714693038 -148.029395632425 0.775856714693036 -148.029395632425 0.118809292716292 70.853843065062  
18.6                           0.102700094655218 103.33316634061  0.777348470260346 -155.827448917864 0.77734847026034 -155.827448917864 0.137106253973222 72.982779155461  
18.65                          0.131780686106673 99.8906561929519 0.777414675652454 -163.695713403646 0.777414675652445 -163.695713403647 0.15909745948387 72.5639720357184 
18.7                           0.161946692211057 94.7645229849513 0.775920422599682 -171.641210570732 0.775920422599669 -171.641210570732 0.183864523333653 70.1698783933594 
18.75                          0.193101043881055 88.624718486451  0.772707977223553 -179.670573322055 0.772707977223534 -179.670573322055 0.210861986106489 66.2979954732482 
18.8                           0.225265344263959 81.7990587082837 0.767595635343516 172.210561875074 0.767595635343493 172.210561875074 0.239793280530517 61.3188162750648 
18.85                          0.25849985529975 74.4682679826338 0.760380022716567 163.998360210434 0.76038002271654 163.998360210434 0.270503444071107 55.4971687190127 
18.9                           0.292857599731828 66.743920445834  0.750843165548472 155.69177435434  0.750843165548442 155.69177435434  0.302898986856443 49.0236252585214 
18.95                          0.328349797638499 58.7037173528531 0.738765526370838 147.293662803277 0.738765526370806 147.293662803278 0.336887900598713 42.0398448003513 
19                             0.364917242087359 50.409138455128  0.723945671619817 138.811947858478 0.723945671619786 138.81194785848  0.372334044936472 34.656398972211  
19.05                          0.402408239949058 41.9149318978994 0.706226144105256 130.260666722309 0.706226144105226 130.260666722311 0.409024130989792 26.964760606916  
19.1                           0.440566217150358 33.2743393720396 0.685523423969362 121.660719822856 0.685523423969335 121.660719822858 0.446648505890852 19.0451590378336 
19.15                          0.47903063707519 24.5417503538888 0.661857831892574 113.040097068921 0.661857831892551 113.040097068924 0.484798153720256 10.9714779597971 
19.2                           0.517353675915233 15.773561081192  0.635377497185484 104.433390321907 0.635377497185467 104.43339032191  0.522979548431194 2.81392648947692 
19.25                          0.555032274228152 7.02765906510742 0.606369990427367 95.8804951426357 0.606369990427356 95.8804951426387 0.56064637705917 -5.36003295840686 
19.3                           0.591551445014788 -1.63812509523785 0.575256677990647 87.4245592813636 0.57525667799064 87.4245592813665 0.597243487023148 -13.4860897225556 
19.35                          0.626431407894954 -10.1682118506503 0.542568363035739 79.1094105556284 0.542568363035737 79.109410555631  0.632255127363228 -21.5043824159432 
19.4                           0.659269709946067 -18.5116656965002 0.508905368719648 70.9768325598069 0.508905368719648 70.9768325598092 0.66524819192404 -29.3612008137649 
19.45                          0.689770772245151 -26.6243410996877 0.4748891870396  63.0640992057557 0.474889187039602 63.0640992057575 0.695902554572202 -37.0106123853594 
19.5                           0.717758827283548 -34.4704287111467 0.441114586756788 55.4021103548978 0.44111458675679 55.402110354899  0.724024267421101 -44.4156305902694 
19.55                          0.743174531711188 -42.0232137258677 0.408110086681934 48.0143191451282 0.408110086681935 48.014319145129  0.749541879967155 -51.5487088530965 
19.6                           0.766059018502017 -49.2650401176758 0.376311650907609 40.91646544124   0.37631165090761 40.9164654412402 0.772489750615868 -58.3915284677689 
19.65                          0.786530819409475 -56.1866190126574 0.346050770725358 34.1169865301497 0.346050770725357 34.1169865301495 0.792983959709551 -64.9341963567496 
19.7                           0.804760924005588 -62.7858964634747 0.317555083130055 27.6178976998113 0.317555083130053 27.6178976998107 0.811196274983068 -71.1740492692391 
19.75                          0.820949895946875 -69.0667056398839 0.290958009529068 21.4159227139888 0.290958009529064 21.4159227139879 0.827330236620653 -77.1142745499598 
19.8                           0.83530924943109 -75.0373916049076 0.266313558867952 15.5036878306801 0.266313558867947 15.503687830679  0.841601655368601 -82.7625243220686 
19.85                          0.848047792608543 -80.7095393883588 0.243612997762497 9.87084766096866 0.243612997762491 9.87084766096741 0.854224268045063 -88.1296455494057 
19.9                           0.859362634003338 -86.096878599884 0.222801040587224 4.50506661004676 0.222801040587218 4.50506661004541 0.86540024521066 -93.2285934738325 
19.95                          0.869434028754059 -91.2143917789492 0.203790174511993 -0.607175478637155 0.203790174511986 -0.607175478638538 0.875314703836528 -98.0735518041293 
20                             0.878423090676679 -96.0776225343778 0.186472507107619 -5.4799541398829 0.186472507107612 -5.47995413988424 0.884133217627631 -102.679253305107 
20.05                          0.886471465066519 -100.702161884295 0.170729050057658 -10.127430485839 0.170729050057652 -10.1274304858403 0.892001386012148 -107.060477794017 
20.1                           0.893702225175664 -105.103283659997 0.156436657076262 -14.5635157404603 0.156436657076256 -14.5635157404615 0.899045694982921 -111.231697681283 
20.15                          0.900221444636857 -109.295698800332 0.143472974458094 -18.8016434493609 0.143472974458088 -18.8016434493619 0.905375098259305 -115.206840593952 
20.2                           0.906120068102653 -113.293400930843 0.131719797213957 -22.8546246593807 0.131719797213951 -22.8546246593816 0.911082923235687 -118.999141456183 
20.25                          0.911475837551926 -117.109579776414 0.121065199053426 -26.7345649362159 0.121065199053421 -26.7345649362166 0.91624884657339 -122.621060707323 
20.3                           0.916355130774335 -120.756583461589 0.111404752576608 -30.4528260820101 0.111404752576603 -30.4528260820108 0.920940787485537 -126.084249918422 
20.35                          0.920814636614803 -124.245914946556 0.102642096477595 -34.0200191784102 0.102642096477591 -34.0200191784107 0.925216637921512 -129.399550288247 
20.4                           0.924902835691763 -127.588251439519 0.0946890498874139 -37.4460188238367 0.0946890498874109 -37.4460188238371 0.929125795183808 -132.577013090044 
20.45                          0.928661282198309 -130.793478545611 0.087465424947045 -40.7399910768082 0.0874654249470424 -40.7399910768085 0.932710490901787 -135.625934041389 
20.5                           0.932125697540885 -133.870733199488 0.0808986486808773 -43.910429690097 0.0808986486808753 -43.9104296900972 0.936006926410942 -138.554895830591 
20.55                          0.935326894083528 -136.828451172165 0.0749232738601677 -46.9651968012052 0.0749232738601662 -46.9651968012053 0.939046232710214 -141.371814748592 
20.6                           0.9382915500589  -139.674416243707 0.0694804346556759 -49.9115654239447 0.0694804346556747 -49.9115654239448 0.941855276321001 -144.083988649025 
20.65                          0.941042856747351 -142.415809087242 0.0645172851096998 -52.7562619501042 0.0645172851096991 -52.7562619501042 0.94445733260142 -146.698144388169 
20.7                           0.943601057587833 -145.05925459818 0.0599864454992275 -55.5055074936032 0.0599864454992272 -55.5055074936031 0.946872646714104 -149.220483563125 
20.75                          0.94598389676484 -147.610866891895 0.055845472379497 -58.1650573526412 0.055845472379497 -58.1650573526412 0.949118900341908 -151.656725837409 
20.8                           0.94820699248725 -150.076291535561 0.052056361565044 -60.7402381755392 0.0520563615650442 -60.7402381755392 0.951211599894657 -154.012149470185 
20.85                          0.950284147903271 -152.460744815233 0.0485850887959831 -63.2359826294617 0.0485850887959836 -63.2359826294617 0.953164399634947 -156.291628888174 
20.9                           0.952227610515799 -154.769049997497 0.0454011897943632 -65.6568615151139 0.0454011897943639 -65.6568615151139 0.954989371018607 -158.499669287324 
20.95                          0.954048289130795 -157.005670648247 0.0424773794215076 -68.0071133649055 0.0424773794215084 -68.0071133649055 0.956697227659185 -160.640438346568 
21                             0.955755935798933 -159.174741135683 0.0397892083939182 -70.2906716215841 0.0397892083939191 -70.2906716215841 0.958297513700999 -162.717795194131 
21.05                          0.95735929888462 -161.280094482094 0.0373147552775273 -72.5111895295832 0.0373147552775283 -72.5111895295831 0.959798762010839 -164.735316799505 
21.1                           0.958866252291733 -163.325287748032 0.0350343510953588 -74.6720628898925 0.0350343510953598 -74.6720628898925 0.961208627450506 -166.696321979428 
21.15                          0.960283904963113 -165.313625138973 0.0329303337359001 -76.7764508365863 0.0329303337359012 -76.7764508365864 0.96253399954239 -168.603893209935 
21.2                           0.961618694022154 -167.248179022921 0.0309868293564902 -78.8272947930355 0.0309868293564912 -78.8272947930355 0.963781098059007 -170.460896432788 
21.25                          0.962876464312932 -169.131809040569 0.0291895580802269 -80.8273357610052 0.0291895580802279 -80.8273357610053 0.964955554427865 -172.269999036251 
21.3                           0.96406253659664 -170.967179479662 0.027525661446481 -82.7791300881319 0.0275256614464819 -82.7791300881319 0.966062481320918 -174.033686179132 
21.35                          0.965181766256385 -172.756775073632 0.0259835492668686 -84.6850638499889 0.0259835492668695 -84.685063849989 0.967106532372485 -175.754275614765 
21.4                           0.966238594032422 -174.502915372273 0.0245527637423409 -86.547365972943 0.0245527637423418 -86.5473659729431 0.968091953623154 -177.433931158792 
21.45                          0.967237090041661 -176.207767819865 0.0232238589010205 -88.3681202138482 0.0232238589010213 -88.3681202138482 0.969022628005284 -179.07467493205 
21.5                           0.968180992116938 -177.873359664183 0.0219882936131148 -90.1492761026899 0.0219882936131155 -90.1492761026901 0.96990211395609 179.321601502231 
21.55                          0.96907373932374 -179.50158880843 0.0208383366242679 -91.8926589448242 0.0208383366242685 -91.8926589448243 0.970733679057117 177.753126999092 
21.6                           0.969918501366893 178.905766292499 0.0197669822197416 -93.5999789705423 0.0197669822197421 -93.5999789705424 0.971520329446085 176.2182415931   
21.65                          0.970718204481128 177.347037599858 0.0187678752878982 -95.2728397114589 0.0187678752878986 -95.2728397114591 0.972264835622123 174.715388072596 
21.7                           0.97147555430221 175.820659240412 0.0178352446925528 -96.9127456756175 0.0178352446925532 -96.9127456756176 0.972969755162974 173.24310428818  
21.75                          0.972193056135422 174.325159962972 0.0169638439903822 -98.5211093862932 0.0169638439903824 -98.5211093862932 0.973637452788646 171.800016124662 
21.8                           0.972873032972467 172.859156235155 0.0161488986425883 -100.099257843164 0.0161488986425885 -100.099257843164 0.974270118136718 170.384831072949 
21.85                          0.973517641553484 171.421345920144 0.015386058970444 -101.648438458823 0.0153860589704441 -101.648438458823 0.97486978155732 168.996332344784 
21.9                           0.97412888672584 170.010502479263 0.0146713581933092 -103.169824518443 0.0146713581933092 -103.169824518443 0.97543832818846 167.633373479135 
21.95                          0.974708634313989 168.625469651616 0.0140011749663026 -104.664520205762 0.0140011749663024 -104.664520205762 0.975977510533065 166.294873394201 
22                             0.975258622683424 167.2651565669   0.0133721999041309 -106.133565234375 0.0133721999041307 -106.133565234375 0.976488959726359 164.979811843705 
22.05                          0.975780473155686 165.928533251897 0.0127814056386125 -107.577939119542 0.0127814056386122 -107.577939119542 0.976974195654843 163.687225240294 
22.1                           0.976275699409468 164.614626495036 0.0122260200111283 -108.998565122333 0.0122260200111279 -108.998565122333 0.977434636065229 162.416202812632 
22.15                          0.976745715984388 163.322516036955 0.0117035020484353 -110.396313894909 0.0117035020484348 -110.396313894909 0.977871604782408 161.165883066071 
22.2                           0.977191845988418 162.051331058121 0.0112115204117532 -111.772006852954 0.0112115204117527 -111.772006852954 0.978286339139263 159.935450519803 
22.25                          0.977615328096715 160.800246937385 0.0107479340454703 -113.126419298856 0.0107479340454698 -113.126419298857 0.97867999670741 158.724132696037 
22.3                           0.978017322918358 159.568482257871 0.0103107747838259 -114.460283316986 0.0103107747838254 -114.460283316987 0.97905366140626 157.531197339142 
22.35                          0.978398918797886 158.355296038871 0.00989823170204625 -115.774290460431 0.00989823170204567 -115.774290460432 0.979408349057852 156.355949844841 
22.4                           0.978761137110285 157.15998517444  0.00950863702312584 -117.069094246757 0.0095086370231252 -117.069094246758 0.979745012446438 155.197730881422 
22.45                          0.979104937101029 155.981882061203 0.00914045341317218 -118.345312478737 0.00914045341317156 -118.345312478737 0.980064545934486 154.055914186693 
22.5                           0.979431220316662 154.820352399532 0.00879226251734082 -119.603529404519 0.00879226251734021 -119.603529404519 0.980367789680574 152.929904525892 
22.55                          0.979740834666145 153.674793153717 0.00846275460520132 -120.844297730406 0.00846275460520072 -120.844297730407 0.980655533499173 151.819135797183 
22.6                           0.980034578148624 152.544630658071 0.00815071920918285 -122.068140498199 0.00815071920918227 -122.0681404982  0.980928520397747 150.723069272591 
22.65                          0.980313202279296 151.429318857117 0.00785503665279082 -123.275552837994 0.00785503665279029 -123.275552837995 0.981187449822482 149.641191963331 
22.7                           0.980577415241586 150.328337669046 0.0075746703767893 -124.46700360635 0.00757467037678882 -124.46700360635 0.98143298064048 148.573015099523 
22.75                          0.980827884790799 149.241191462641 0.00730865998169101 -125.642936918847 0.00730865998169059 -125.642936918848 0.98166573388318 147.518072715139 
22.8                           0.981065240931775 148.167407638692 0.0070561149138584 -126.803773585256 0.00705611491385804 -126.803773585257 0.981886295273088 146.475920329888 
22.85                          0.981290078390725 147.106535307758 0.00681620873043786 -127.949912454826 0.00681620873043755 -127.949912454826 0.982095217553551 145.446133720448 
22.9                           0.981502958899346 146.0581440568   0.00658817388535322 -129.081731678514 0.006588173885353 -129.081731678515 0.982293022639232 144.428307774131 
22.95                          0.981704413307529 145.021822797883 0.00637129698478361 -130.199589894413 0.0063712969847835 -130.199589894414 0.982480203603159 143.42205541866  
23                             0.981894943539322 143.997178692726 0.00616491446604361 -131.303827342047 0.00616491446604361 -131.303827342047 0.98265722651458 142.427006622279 
