! Touchstone file exported from HFSS 3D Layout Design 2026.1.0
!        File:           D:/Work/ADS/HFSS_VERDICT/hfss_sma_connector_cpw.aedt
!        Generated:      01:56:02 PM Aug  6, 2026
!        Design:         SINGLE_END_SMA_CPW_30MM
!        Project:        hfss_sma_connector_cpw
!
! Variables:
!        $sma_Base_D = 6.25mm
!        $sma_Base_L = 8mm
!        $sma_Feet_L = 4mm
!        $sma_Feet_W = 1mm
!        $sma_Front_L = 1.5mm
!        $sma_Front_W = 6.5mm
!        $sma_Hole_D = 1.25mm
!        $sma_PTFE_D = 4.2mm
!        $sma_Pin_D = 0.95mm
!        $sma_Pin_P = 1.7mm
!
# GHz S MA R 50.000000
! Terminal data exported
! Port[1] = Port1
! Port[2] = S1_1_Pin_T1
0.5                            0.084679379616085 -130.590135263899 0.986350168993246 -41.7243746549462 0.986350168993247 -41.7243746549462 0.0849767395376722 -134.587342994463 
0.6                            0.0982169859163119 -138.671934550094 0.983505396599951 -49.9527625735202 0.983505396599952 -49.9527625735202 0.0984983479534336 -143.311731963716 
0.7                            0.110183369300303 -146.721058179206 0.980737234692127 -58.1539613123836 0.980737234692127 -58.1539613123836 0.110418067569142 -151.905171416241 
0.8                            0.120443243596623 -154.766532316384 0.978094592790643 -66.3312629608108 0.978094592790643 -66.3312629608107 0.120604533555631 -160.373123790857 
0.9                            0.128887078232458 -162.83379716957 0.975625401478636 -74.4877290088593 0.975625401478637 -74.4877290088593 0.128954027955107 -168.712811623542 
1                              0.135432658719437 -170.948337514311 0.973374281250989 -82.6267145921451 0.97337428125099 -82.6267145921451 0.135391890915513 -176.915130783083 
1.1                            0.140025697871545 -179.138187824094 0.971377896338294 -90.7520434243405 0.971377896338294 -90.7520434243405 0.139873060353688 175.035018599128 
1.2                            0.142640100701606 172.563952711998 0.969660799957804 -98.8679634523061 0.969660799957804 -98.8679634523061 0.142382278252338 167.15960530767  
1.3                            0.143278526175099 164.118449855795 0.96823261480852 -106.978981475802 0.968232614808521 -106.978981475802 0.142934683167771 159.489426838363 
1.4                            0.141973795600548 155.475806605299 0.967086657668662 -115.089640078228 0.967086657668662 -115.089640078228 0.141577467576508 152.067250523903 
1.5                            0.138791666508032 146.572499258109 0.966199878596451 -123.204276649277 0.966199878596452 -123.204276649277 0.138393254128306 144.952447875292 
1.6                            0.133835609443079 137.324792120452 0.965533928758797 -131.326790078456 0.965533928758798 -131.326790078456 0.13350595666673 138.227674201488 
1.7                            0.12725457988071 127.619393935832 0.96503717219654 -139.460432325984 0.96503717219654 -139.460432325984 0.127090235396107 132.008382795221 
1.8                            0.119255511565936 117.299357414339 0.964647467985337 -147.607637012411 0.964647467985337 -147.607637012411 0.119386331463165 126.45601661421  
1.9                            0.110123588945022 106.143368479926 0.964295552492864 -155.769893833043 0.964295552492865 -155.769893833043 0.1107231085753  121.794912350006 
2                              0.100255434789172 93.8379385250523 0.963908842146877 -163.947675010728 0.963908842146878 -163.947675010728 0.101553105183941 118.329172418151 
2.1                            0.0902123372529882 79.9500540231853 0.963415457688634 -172.140417529479 0.963415457688635 -172.140417529479 0.0925019471096288 116.443537592422 
2.2                            0.0807968380150552 63.9369627975642 0.96274824797135 179.653437813082 0.962748247971351 179.653437813082 0.0844223776181465 116.542305491483 
2.3                            0.073124947315833 45.3025349130732 0.96184857400655 171.436352555853 0.961848574006551 171.436352555853 0.0784025292340147 118.839512627868 
2.4                            0.0685677278736529 24.0704309261312 0.960669611445843 163.21154726903  0.960669611445844 163.21154726903  0.0756081191489919 122.968858826546 
2.5                            0.0683356716936261 1.41030766740091 0.959178949247424 154.982817442608 0.959178949247425 154.982817442608 0.0768676128038065 127.735187999327 
2.6                            0.0727936803863078 -20.5864097889263 0.957360307023337 146.7543201186   0.957360307023339 146.7543201186   0.0822400255562879 131.578595279221 
2.7                            0.0812492383561739 -40.2778102582339 0.95521426121273 138.530344894693 0.955214261212732 138.530344894693 0.0910319654488813 133.459046186768 
2.8                            0.0924922308321001 -57.2472337747698 0.952757953160249 130.315083843051 0.95275795316025 130.315083843051 0.102226341719928 133.159684934429 
2.9                            0.105372810920238 -71.8639198317962 0.950023838954289 122.112414470422 0.95002383895429 122.112414470422 0.114859903896555 130.961661865074 
3                              0.1190059474351  -84.6854659814849 0.947057618834865 113.925708138286 0.947057618834866 113.925708138286 0.128162151105632 127.280111155166 
3.1                            0.132751865467808 -96.1944834859958 0.943915542174201 105.757673617579 0.943915542174201 105.757673617579 0.141551505425843 122.491123318263 
3.2                            0.146148056361001 -106.749985530684 0.940661315628449 97.6102420772423 0.940661315628449 97.6102420772423 0.15459274442149 116.888721434059 
3.3                            0.158853494411872 -116.607530819377 0.937362845487701 89.4844962681325 0.937362845487701 89.4844962681325 0.166957410650055 110.691313151414 
3.4                            0.170611855053613 -125.948814694804 0.934089023944988 81.3806434009069 0.934089023944989 81.3806434009069 0.1783953626521  104.059307042037 
3.5                            0.181228414584053 -134.905495076623 0.930906729973025 73.2980285584193 0.930906729973024 73.2980285584193 0.188715712607137 97.11143482247   
3.6                            0.1905553455661  -143.575892741741 0.927878167339199 65.2351836137622 0.927878167339198 65.2351836137622 0.197774097582467 89.9372212321291 
3.7                            0.198481987226062 -152.036233546835 0.925058613272833 57.1899055791295 0.925058613272832 57.1899055791295 0.205463966114942 82.6059561354561 
3.8                            0.204928135442766 -160.34819453613 0.92249460796724 49.1593580012173 0.922494607967239 49.1593580012173 0.211710422479668 75.1730768570598 
3.9                            0.209839295356818 -168.564057346526 0.920222581592574 41.1401892799362 0.920222581592574 41.1401892799362 0.216465790079162 67.6847731443619 
4                              0.213183349066106 -176.730347811874 0.918267893523511 33.1286624185797 0.918267893523511 33.1286624185797 0.21970644844976 60.1814192976817 
4.1                            0.214948372271438 175.109456777304 0.916644247741795 25.1207915184225 0.916644247741795 25.1207915184225 0.221430738530513 52.7002585019423 
4.2                            0.215141490181462 166.912761309173 0.91535344714523 17.1124811409446 0.915353447145229 17.1124811409447 0.221657877241662 45.2776344173292 
4.3                            0.213788755182207 158.635951875383 0.91438545526938 9.09966535077402 0.914385455269381 9.09966535077407 0.22042791327693 37.9509749066767 
4.4                            0.210936092150736 150.232553380449 0.913718743880837 1.07844374258821 0.913718743880838 1.07844374258821 0.217802813716176 30.7606668589866 
4.5                            0.206651413121514 141.65128050879  0.913320916222839 -6.95478798938912 0.91332091622284 -6.95478798938912 0.213868806867891 23.7519027930166 
4.6                            0.201028064280423 132.833849692027 0.91314960579177 -15.0032153554308 0.913149605791771 -15.0032153554308 0.208740122168817 16.9765094883238 
4.7                            0.194189840773717 123.712468494105 0.913153657135816 -23.0694928302631 0.913153657135818 -23.0694928302631 0.202564251536917 10.4946581973196 
4.8                            0.186297881746037 114.207027308486 0.913274596464517 -31.1556449418748 0.913274596464519 -31.1556449418748 0.195528773769061 4.37616204743666 
4.9                            0.177559801652178 104.222271606477 0.913448394562283 -39.2629838872969 0.913448394562285 -39.262983887297 0.187869556735551 -1.29927288678706 
5                              0.168241311215544 93.6457911071645 0.913607512048411 -47.3920471284235 0.913607512048412 -47.3920471284235 0.179879630135046 -6.4440283664665 
5.1                            0.158680052613791 82.3487864908319 0.913683197765685 -55.5425584955505 0.913683197765685 -55.5425584955506 0.171916956932765 -10.9687396992427 
5.2                            0.149299827389941 70.1935495229269 0.913607986424477 -63.7134161182081 0.913607986424477 -63.7134161182083 0.164407440249194 -14.7953131962435 
5.3                            0.140619855506743 57.0542304705332 0.913318314126872 -71.9027099331827 0.913318314126873 -71.9027099331828 0.157836800694298 -17.8791807310379 
5.4                            0.13324738674643 42.8586012964351 0.91275714360055 -80.1077705493593 0.912757143600552 -80.1077705493593 0.152722639317372 -20.239988223418 
5.5                            0.12783490652386 27.6517344932233 0.911876469078629 -88.3252498928816 0.91187646907863 -88.3252498928816 0.149559553326214 -21.9920447361667 
5.6                            0.124985079271464 11.6594921966993 0.910639557988917 -96.5512323898059 0.910639557988916 -96.551232389806 0.148740459352086 -23.3559457566746 
5.7                            0.125113475549606 -4.7010646417127 0.90902278643377 -104.781373600681 0.909022786433769 -104.781373600681 0.150475954479848 -24.6320977631994 
5.8                            0.12832733848002 -20.9098726243819 0.907016939791509 -113.011061379607 0.907016939791508 -113.011061379607 0.154746883331987 -26.1366069568913 
5.9                            0.13439643417467 -36.498725354181 0.904627878490124 -121.235592985309 0.904627878490122 -121.23559298531 0.161314549254934 -28.1289410466634 
6                              0.142834931861028 -51.1713244572311 0.90187650963916 -129.450360307722 0.901876509639158 -129.450360307722 0.16978124559784 -30.7678975357932 
6.1                            0.153035572662743 -64.8246220617711 0.898798053303684 -137.651034633424 0.898798053303684 -137.651034633424 0.179669397079781 -34.1090197831789 
6.2                            0.164384222707233 -77.4967794165266 0.895440642053472 -145.833742236841 0.895440642053473 -145.833742236841 0.19048919865542 -38.1298734443387 
6.3                            0.176325082394197 -89.2994562681555 0.891863338062851 -153.995222558999 0.89186333806285 -153.995222558999 0.201781946742448 -42.7623143592533 
6.4                            0.188384288696252 -100.367878194014 0.888133688306447 -162.13296176076 0.888133688306447 -162.13296176076 0.213140991753729 -47.9187349734298 
6.5                            0.200170233174707 -110.833678189251 0.884324961742806 -170.245295897503 0.884324961742809 -170.245295897503 0.224217829208278 -53.5087865999161 
6.6                            0.211364504609348 -120.813781096466 0.880513221309544 -178.3314797075  0.880513221309547 -178.3314797075  0.234720316214542 -59.4481217989556 
6.7                            0.221710765429218 -130.407968011644 0.876774378659924 173.608281126797 0.876774378659925 173.608281126797 0.244407603469819 -65.661918445786 
6.8                            0.231004525111832 -139.700292676583 0.873181363188423 165.572834555267 0.873181363188426 165.572834555267 0.253084262332449 -72.0854799852265 
6.9                            0.239084660324975 -148.761803904516 0.869801512546397 157.560122231004 0.8698015125464  157.560122231004 0.260594754559946 -78.6634022712296 
7                              0.245826710398685 -157.653420734299 0.866694263608525 149.56725236117  0.866694263608525 149.56725236117  0.266818689276348 -85.3481498134263 
7.1                            0.251137746511875 -166.428524070816 0.863909194722819 141.590601602171 0.86390919472282 141.590601602171 0.27166699035756 -92.0984688015875 
7.2                            0.254952606756321 -175.135158949908 0.861484445507314 133.625941611477 0.861484445507311 133.625941611477 0.275078976287134 -98.8778275551285 
7.3                            0.257231346331629 176.182122287437 0.85944552197448 125.668585556692 0.859445521974478 125.668585556692 0.277020327877738 -105.65295124056 
7.4                            0.257957812124912 167.480699330201 0.857804483777177 117.713549837235 0.857804483777178 117.713549837235 0.277481931276895 -112.392459236027 
7.5                            0.257139295817328 158.718521900813 0.856559507086883 109.755726387502 0.856559507086884 109.755726387502 0.276479605350613 -119.065592040491 
7.6                            0.25480724686557 149.852872116165 0.855694820078787 101.790061076884 0.855694820078788 101.790061076884 0.274054737146848 -125.641015559335 
7.7                            0.251019037522585 140.839195881081 0.855181016194766 93.8117337790732 0.855181016194766 93.8117337790732 0.270275844383492 -132.085708376596 
7.8                            0.245860766509506 131.629977859581 0.854975760386939 85.8163355535342 0.854975760386939 85.816335553534  0.265241047648055 -138.363972700038 
7.9                            0.239451061456293 122.173683761046 0.855024911875006 77.8000380163493 0.855024911875006 77.8000380163494 0.259081352598028 -144.436666834733 
8                              0.231945779383245 112.413878354815 0.855264089739419 69.7597493911884 0.855264089739417 69.7597493911885 0.251964494612302 -150.260843855017 
8.1                            0.223543379937203 102.288773037766 0.855620701247608 61.6932510159958 0.855620701247609 61.6932510159957 0.244098859607037 -155.790104355545 
8.2                            0.21449050166094 91.7316953485768 0.856016434298529 53.5993074060111 0.856016434298531 53.599307406011  0.235736635131005 -160.976127499289 
8.3                            0.205086813198912 80.6733289499447 0.85637018346641 45.4777425716013 0.856370183466409 45.4777425716015 0.227174843223162 -165.772000216   
8.4                            0.195687412864733 69.0470124650909 0.856601334888061 37.3294754252768 0.856601334888063 37.3294754252768 0.218752285052236 -170.138018798583 
8.5                            0.18669982466769 56.798699963147  0.856633282701276 29.1565080350267 0.856633282701276 29.1565080350267 0.210839843308798 -174.05038235594 
8.6                            0.178571169618182 43.902807204014  0.856396996022442 20.9618623609386 0.856396996022444 20.9618623609385 0.203821460101663 -177.51233126001 
8.7                            0.171760285985776 30.3831070258146 0.85583441008571 12.7494639762434 0.855834410085711 12.7494639762433 0.19806418621612 179.434393318986 
8.8                            0.166691463427626 16.3333285964576 0.854901388515481 4.5239749591715  0.854901388515482 4.52397495917142 0.193878782093417 176.701987939568 
8.9                            0.16369340446117 1.92658629343163 0.853570004612285 -3.70941771718541 0.853570004612285 -3.70941771718549 0.191477344271064 174.158183805939 
9                              0.162938368577051 -12.5983277628469 0.851829922759422 -11.9452479010166 0.851829922759422 -11.945247901017 0.19093914578845 171.640217064811 
9.1                            0.164404753547372 -26.9763655566775 0.849688725317019 -20.1780362884161 0.849688725317016 -20.1780362884165 0.192196392227547 168.978887807846 
9.2                            0.167881166193587 -40.9673827356484 0.847171117765861 -28.4025607740649 0.847171117765859 -28.4025607740651 0.195045549586208 166.024696185728 
9.3                            0.173010879966223 -54.3961952174763 0.84431704217881 -36.6141145101709 0.84431704217881 -36.614114510171 0.199180047989503 162.666805436677 
9.4                            0.179356985612929 -67.1670790015797 0.8411788207262  -44.8087360660199 0.8411788207262  -44.80873606602  0.204232895991566 158.839947961016 
9.5                            0.186464582354168 -79.2548325349331 0.837817522605967 -52.9833985031676 0.837817522605966 -52.9833985031675 0.20981714185142 154.52054460272  
9.6                            0.193905719725256 -90.6842576918142 0.834298789992855 -61.1361475503232 0.834298789992856 -61.136147550323 0.215556772474991 149.716884253486 
9.7                            0.201304553683397 -101.509079559247 0.830688368490329 -69.2661827765686 0.830688368490331 -69.2661827765685 0.221106328650104 144.458196275965 
9.8                            0.208346997049381 -111.795830851973 0.827047569130712 -77.3738791248334 0.827047569130712 -77.3738791248332 0.226161274155702 138.785535230259 
9.9                            0.214780692466695 -121.613644795957 0.823428851472143 -85.4607489085786 0.823428851472142 -85.4607489085785 0.230462467561997 132.745444376782 
10                             0.220410012587058 -131.028767789687 0.819871672843959 -93.5293461292893 0.81987167284396 -93.5293461292893 0.233797769364814 126.386169202205 
