! Touchstone file exported from HFSS 3D Layout Design 2026.1.0
!        File:           D:/Work/SIM/ADS_AUTO_SIM/projects/RFSOC_RF/TX_Fillter.aedt
!        Generated:      08:19:36 AM Aug 31, 2026
!        Design:         TX_BAND1_MCFIL_R76_CNN045
!        Project:        TX_Fillter
!
# GHz S MA R 50.000000
! Terminal data exported
! Port[1] = Port1
! Port[2] = Port2
14                             0.973267044112994 -162.993338247225 0.00363588803984548 -175.899163506938 0.00363588803984548 -175.899163506938 0.97482661014697 -159.176520942717 
14.05                          0.972775960760819 -163.886952739991 0.0037074751138246 -176.282260311044 0.00370747511382464 -176.282260311045 0.97437741332783 -160.037670670016 
14.1                           0.972269557807047 -164.78662969511 0.00378249040598934 -176.644238106649 0.0037824904059894 -176.644238106649 0.973914523767152 -160.904280539761 
14.15                          0.971747078668268 -165.692550290502 0.00386120738141655 -176.984656313413 0.00386120738141661 -176.984656313414 0.973437274235108 -161.776506616973 
14.2                           0.971207716019505 -166.604905356892 0.00394392659442034 -177.303116925923 0.00394392659442039 -177.303116925925 0.972944953145576 -162.654513222857 
14.25                          0.970650607513779 -167.523896019515 0.00403097867679469 -177.599272985942 0.00403097867679476 -177.599272985944 0.972436800839898 -163.538473480016 
14.3                           0.970074831064519 -168.44973439165 0.004122727677232 -177.872837936242 0.00412272767723209 -177.872837936243 0.971912005493238 -164.428569901287 
14.35                          0.96947939963818 -169.382644325025 0.00421957479501487 -178.123595877246 0.00421957479501497 -178.123595877248 0.971369698598281 -165.324995026392 
14.4                           0.968863255497081 -170.322862222697 0.00432196255670776 -178.351412732005 0.00432196255670783 -178.351412732007 0.970808949974752 -166.22795211106 
14.45                          0.968225263823962 -171.27063792066 0.00443037949104982 -178.556248305269 0.00443037949104991 -178.556248305271 0.970228762245941 -167.137655873829 
14.5                           0.967564205649956 -172.226235645152 0.00454536536473337 -178.738169198501 0.00454536536473344 -178.738169198502 0.969628064715021 -168.054333306307 
14.55                          0.966878769996148 -173.189935053481 0.0046675170504381 -178.897362514399 0.00466751705043818 -178.897362514401 0.9690057065641  -168.978224553377 
14.6                           0.966167545125534 -174.162032367107 0.00479749510862666 -179.034150252103 0.00479749510862674 -179.034150252104 0.968360449287546 -169.909583870575 
14.65                          0.96542900878658 -175.142841606795 0.00493603117648525 -179.149004258174 0.00493603117648531 -179.149004258176 0.967690958257719 -170.848680666762 
14.7                           0.964661517311174 -176.132695940856 0.00508393627138483 -179.242561559543 0.00508393627138489 -179.242561559544 0.966995793305616 -171.79580064118 
14.75                          0.963863293408289 -177.13194915889 0.0052421101327898 -179.315639864156 0.00524211013278983 -179.315639864158 0.966273398180499 -172.751247025124 
14.8                           0.963032412469225 -178.140977284995 0.00541155174620056 -179.369252974938 0.0054115517462006 -179.369252974939 0.965522088730912 -173.715341939717 
14.85                          0.962166787170313 -179.160180346238 0.00559337121615433 -179.404625825092 0.00559337121615437 -179.404625825094 0.964740039623899 -174.68842788277 
14.9                           0.961264150123374 179.810015685786 0.00578880318333304 -179.423208810746 0.00578880318333305 -179.423208810747 0.963925269388856 -175.670869359325 
14.95                          0.960322034282024 178.76915676011  0.00599922201442581 -179.426691073586 0.00599922201442583 -179.426691073586 0.963075623536473 -176.663054672425 
15                             0.95933775076146 177.716758395359 0.0062261590337542 -179.417012375164 0.0062261590337542 -179.417012375164 0.962188755460236 -177.665397892785 
15.05                          0.958308363669216 176.652303086538 0.00647132211422762 -179.396373209569 0.00647132211422762 -179.39637320957 0.961262104776674 -178.678341028548 
15.1                           0.957230661472113 175.575237440072 0.00673661800369315 -179.367242825637 0.00673661800369312 -179.367242825638 0.960292872699006 -179.702356419128 
15.15                          0.95610112433775 174.484969003446 0.00702417783326954 -179.332364876731 0.00702417783326955 -179.332364876731 0.959277993964863 179.262050619592 
15.2                           0.954915886784016 173.380862751111 0.00733638633935645 -179.294760487376 0.00733638633935646 -179.294760487376 0.958214104749483 178.214338867753 
15.25                          0.953670694843077 172.26223718289  0.00767591543376538 -179.257728622394 0.00767591543376538 -179.257728622394 0.95709750588772 177.153927956492 
15.3                           0.952360856791987 171.128359984954 0.00804576288059699 -179.224843764807 0.00804576288059697 -179.224843764807 0.955924120596915 176.080194765354 
15.35                          0.950981186313869 169.978443196346 0.00844929698869767 -179.199951051142 0.00844929698869766 -179.199951051142 0.954689445732667 174.992469416618 
15.4                           0.949525936723361 168.811637815886 0.00889030841045053 -179.187159172489 0.00889030841045052 -179.187159172489 0.953388495413823 173.89003081478  
15.45                          0.94798872460726 167.627027775113 0.00937307035831123 -179.19083152095 0.00937307035831124 -179.19083152095 0.952015735612727 172.772101672424 
15.5                           0.946362440882836 166.423623192435 0.00990240881861995 -179.215576237094 0.00990240881861999 -179.215576237093 0.95056500801078 171.637842955895 
15.55                          0.944639146845288 165.200352811945 0.0104837846686715 -179.266235987318 0.0104837846686716 -179.266235987318 0.949029441053452 170.486347675513 
15.6                           0.942809952240888 163.95605551733  0.0111233900013764 -179.347878463862 0.0111233900013764 -179.347878463862 0.947401345684818 169.316633935697 
15.65                          0.940864871735937 162.689470797114 0.0118282614490324 -179.465788748907 0.0118282614490325 -179.465788748907 0.945672092676422 168.127637150418 
15.7                           0.938792655318742 161.399228022357 0.0126064138948864 -179.625464814569 0.0126064138948865 -179.625464814569 0.94383196775899 166.918201319267 
15.75                          0.936580587127168 160.083834382554 0.0134669986945724 -179.832617542156 0.0134669986945724 -179.832617542156 0.941869999880253 165.687069249844 
15.8                           0.934214245880103 158.741661310873 0.0144204914317296 179.906823259958 0.0144204914317296 179.906823259958 0.939773756799129 164.432871604256 
15.85                          0.93167721843309 157.370929217986 0.0154789153431257 179.586695273242 0.0154789153431257 179.586695273242 0.937529100823374 163.154114643198 
15.9                           0.928950755881483 155.969690347689 0.0166561079170804 179.200580864909 0.0166561079170804 179.200580864909 0.935119895724753 161.84916654349  
15.95                          0.926013358977639 154.535809572479 0.0179680398530741 178.741773302012 0.0179680398530742 178.741773302012 0.932527653621769 160.516242179002 
16                             0.922840276259189 153.066942971629 0.0194331976379626 178.203230085393 0.0194331976379627 178.203230085393 0.929731107777616 159.153386288396 
16.05                          0.919402894012647 151.560514091318 0.0210730435210877 177.57751131652  0.0210730435210877 177.57751131652  0.926705693662482 157.758455018384 
16.1                           0.915667991788311 150.013687897473 0.0229125697357472 176.856700751429 0.0229125697357472 176.856700751429 0.923422916083702 156.329095947527 
16.15                          0.911596830365253 148.423342630891 0.0249809674884091 176.032306848689 0.0249809674884091 176.032306848689 0.919849574472817 154.862726893249 
16.2                           0.907144030538359 146.78604011492  0.0273124355581893 175.095140667952 0.0273124355581892 175.095140667952 0.915946811296419 153.356514131399 
16.25                          0.902256190573365 145.097995634305 0.0299471582787012 174.035166915551 0.0299471582787011 174.035166915551 0.911668939809359 151.807351188145 
16.3                           0.896870177464689 143.355049436799 0.0329324880130623 172.841323772614 0.0329324880130623 172.841323772614 0.906961996881318 150.211840216298 
16.35                          0.890911012347015 141.552643426205 0.0363243724700249 171.50130641759  0.0363243724700247 171.50130641759  0.90176195457022 148.566279328726 
16.4                           0.884289254358004 139.685809068368 0.0401890712570488 170.001308460809 0.0401890712570486 170.001308460809 0.895992511292134 146.866661424804 
16.45                          0.876897772182671 137.749176485809 0.0446052067963505 168.325715032314 0.0446052067963502 168.325715032314 0.889562371963374 145.108693477279 
16.5                           0.868607783589172 135.737021080861 0.0496661881825679 166.456741365031 0.0496661881825678 166.456741365031 0.882361921073098 143.287850679862 
16.55                          0.859264051251511 133.643374259279 0.0554830256211722 164.374012049572 0.055483025621172 164.374012049572 0.874259202941578 141.399488437822 
16.6                           0.848679169330038 131.462241250289 0.0621875053426159 162.05407986631  0.0621875053426157 162.05407986631  0.865095168303018 139.439048686554 
16.65                          0.836627000192421 129.187995291126 0.069935599322815 159.469891225631 0.0699355993228147 159.469891225631 0.854678261396399 137.402418112893 
16.7                           0.822835599065719 126.816059172733 0.0789108064676823 156.590221110008 0.078910806467682 156.590221110008 0.842778671811145 135.286528358668 
16.75                          0.806980529298376 124.344050528092 0.0893268091108569 153.379129371278 0.0893268091108568 153.379129371278 0.829123074201203 133.090337203421 
16.8                           0.788680547766498 121.773667151575 0.10142830572571 149.795540373983 0.10142830572571 149.795540373983 0.813391615805659 130.816400218343 
16.85                          0.767499583417663 119.113734287171 0.115488059080104 145.793130223036 0.115488059080104 145.793130223036 0.795220574272237 128.473335805637 
16.9                           0.742962226944871 116.385029083069 0.131797019935122 141.32083182096  0.131797019935122 141.32083182096  0.774216863228544 126.079588781703 
16.95                          0.714595060465149 113.627701155485 0.15064294736487 136.324441860019 0.15064294736487 136.324441860019 0.749994678813122 123.668949960649 
17                             0.682012938583678 110.912168206975 0.172271783904603 130.750010629618 0.172271783904603 130.750010629618 0.722249629143182 121.298123950527 
17.05                          0.64507546167416 108.353828071258 0.196826605688154 124.549818481795 0.196826605688154 124.549818481795 0.690889073573355 119.055861482323 
17.1                           0.60413663780272 106.129679581748 0.224264039847322 117.691564591801 0.224264039847322 117.691564591801 0.656231672564479 117.071033085424 
17.15                          0.56038249561711 104.488747359007 0.254261092254839 110.170539670721 0.254261092254839 110.170539670721 0.619259449963711 115.512534744855 
17.2                           0.516168833879042 103.735211977502 0.286146743656862 102.02269040342  0.286146743656862 102.02269040342  0.581834099379461 114.567238278926 
17.25                          0.475115342317959 104.146058023703 0.318912161847649 93.3339002077792 0.318912161847649 93.3339002077791 0.546681978329798 114.378971658978 
17.3                           0.441552197929445 105.792557926878 0.351346131594235 84.2391671843645 0.351346131594235 84.2391671843645 0.516898406739756 114.948415672786 
17.35                          0.419051077456459 108.333543134402 0.382286769824529 74.9073208719183 0.38228676982453 74.9073208719183 0.494915068864228 116.04611882367  
17.4                           0.408595370776369 111.013152039357 0.410898269096569 65.5134183525866 0.410898269096569 65.5134183525867 0.481386398833004 117.23715057346  
17.45                          0.407873161755306 113.006141429456 0.436844098679605 56.2082623195041 0.436844098679607 56.2082623195042 0.474805015132625 118.049549822902 
17.5                           0.412459234003104 113.818674478788 0.460284272803448 47.0964011375827 0.46028427280345 47.0964011375827 0.472175731799914 118.164137838152 
17.55                          0.417743048225546 113.378939984279 0.48172789377964 38.2287032965186 0.481727893779643 38.2287032965187 0.470170668298739 117.482877567867 
17.6                           0.420147657903962 111.875240871646 0.501833067345687 29.6079673006823 0.50183306734569 29.6079673006823 0.465987018688045 116.07642164502  
17.65                          0.417383360631226 109.581093946156 0.521233694805662 21.2016975352065 0.521233694805665 21.2016975352065 0.457653726929688 114.100378356949 
17.7                           0.408207737896256 106.767537835677 0.540425532527426 12.9563616532533 0.540425532527428 12.9563616532532 0.443974540614674 111.7402243742   
17.75                          0.392108832308949 103.687054788341 0.559707033794117 4.80985998566583 0.559707033794119 4.80985998566574 0.42436122588602 109.194434632529 
17.8                           0.369090827589852 100.59620246304  0.579157617510731 -3.29877588145608 0.579157617510733 -3.29877588145619 0.398707116952699 106.686164631181 
17.85                          0.339602650689622 97.8014263414618 0.598639346714028 -11.4222013576434 0.598639346714029 -11.4222013576435 0.367358497592293 104.496181662533 
17.9                           0.304610053374029 95.730359950959  0.617816546387153 -19.5995421626863 0.617816546387153 -19.5995421626863 0.331201936085611 103.017662560705 
17.95                          0.265828479268331 95.0433866096247 0.63619476497747 -27.8528200540315 0.636194764977469 -27.8528200540314 0.291887423015489 102.838208068545 
18                             0.226188551437349 96.791845442565  0.65318244450666 -36.1850880761715 0.653182444506659 -36.1850880761713 0.252230724511448 104.837845502298 
18.05                          0.19063375785596 102.490224645909 0.668174641983404 -44.5806222493112 0.668174641983403 -44.580622249311 0.21680878802132 110.178053274396 
18.1                           0.166819933667472 113.350078941401 0.680649363473733 -53.0074979889303 0.680649363473732 -53.00749798893  0.192302806092113 119.688706480848 
18.15                          0.162903415094476 127.580295761232 0.690257746165143 -61.4224971399409 0.690257746165142 -61.4224971399406 0.185666944247503 132.122489156288 
18.2                           0.18033211650826 139.799066938689 0.69688557826692 -69.777672914678 0.69688557826692 -69.7776729146776 0.198889934495806 143.618154567846 
18.25                          0.212112816953616 146.784965246561 0.700669690219002 -78.02735176833  0.700669690219004 -78.0273517683296 0.226880345646009 151.203426496858 
18.3                           0.250048368114892 149.147343847979 0.701966919066062 -86.1341922857837 0.701966919066064 -86.1341922857834 0.26231937919197 154.751084549679 
18.35                          0.288664375130836 148.440955178453 0.701288379805282 -94.0732604033793 0.701288379805285 -94.073260403379 0.299641924046056 155.356831130334 
18.4                           0.324877555820272 145.832162342353 0.699220023324641 -101.833737415785 0.699220023324643 -101.833737415785 0.335467834429942 154.051613398694 
18.45                          0.357056830090128 142.034911504353 0.696349259044367 -109.418525240732 0.696349259044368 -109.418525240732 0.367928899510946 151.538958009483 
18.5                           0.3844145040498  137.466571196005 0.693209809534176 -116.842403381826 0.693209809534176 -116.842403381826 0.396084193149994 148.259933264825 
18.55                          0.40665944315996 132.367684448749 0.690248165469963 -124.129468132057 0.690248165469961 -124.129468132057 0.419550003474131 144.485096407649 
18.6                           0.42379425254649 126.873277707127 0.687808737996442 -131.310442016194 0.68780873799644 -131.310442016194 0.438274522629704 140.379051894118 
18.65                          0.435993742629544 121.053699238887 0.686132069804762 -138.42021772634 0.686132069804758 -138.42021772634 0.45240023595376 136.0404597175   
18.7                           0.443533960765003 114.938282459642 0.685360438896102 -145.495797009768 0.685360438896097 -145.495797009768 0.462181273122287 131.526215389256 
18.75                          0.446755225358357 108.5293814618   0.685546535899242 -152.574645582408 0.685546535899236 -152.574645582408 0.467936734317291 126.866006467577 
18.8                           0.446049015672336 101.810915602487 0.686662574734769 -159.693413334895 0.686662574734764 -159.693413334895 0.470027989695478 122.070925463419 
18.85                          0.441861827631977 94.7537779443625 0.688608646616316 -166.886949264089 0.688608646616311 -166.886949264089 0.468851690726853 117.138204697437 
18.9                           0.434710827785579 87.319590366978  0.69122014475038 -174.187553525295 0.691220144750376 -174.187553525294 0.464842361403959 112.053195319316 
18.95                          0.4252068226655  79.4639352216105 0.69427464279797 178.375561892687 0.694274642797968 178.375561892688 0.458479689186718 106.78918948663  
19                             0.414079840713167 71.1401658013435 0.697498729063533 170.776600937121 0.697498729063532 170.776600937121 0.450296484125021 101.305454110059 
19.05                          0.402201544937669 62.3050545245646 0.700575019236239 162.993275787784 0.700575019236239 162.993275787784 0.4408842011989  95.5438773631015 
19.1                           0.390596886177635 52.9276345723944 0.703148971658872 155.006642148996 0.703148971658873 155.006642148996 0.43089443973873 89.4249525675145 
19.15                          0.380435376861156 43.0021067529006 0.704834389846666 146.80069391438  0.704834389846667 146.800693914379 0.421037287534228 82.8444675520792 
19.2                           0.372991553348177 32.5637907551393 0.705215954545742 138.361814758689 0.705215954545742 138.361814758688 0.412080460969101 75.6731831528284 
19.25                          0.369567416082563 21.7032702580449 0.703847282418384 129.678306212058 0.703847282418382 129.678306212057 0.40485528679761 67.7627400982126 
19.3                           0.371379839337061 10.5695618929165 0.700244435891439 120.740355273554 0.700244435891435 120.740355273553 0.400273343738199 58.9614839309017 
19.35                          0.379431504542991 -0.646895934203611 0.693877948842901 111.540926781536 0.693877948842894 111.540926781535 0.399346934659279 49.1428336898744 
19.4                           0.394393999246937 -11.7515279931019 0.684171221471637 102.078093977729 0.684171221471628 102.078093977728 0.403186475980212 38.2447551006785 
19.45                          0.416523298084633 -22.5885070965555 0.670518417401935 92.3591504538629 0.670518417401925 92.3591504538622 0.412927599173187 26.3108412335297 
19.5                           0.445605558583282 -33.0675112785732 0.652337761427796 82.4063604654812 0.652337761427786 82.4063604654807 0.429544534002688 13.5142143841714 
19.55                          0.480921604492915 -43.1619616395732 0.629171287977525 72.26334887435   0.629171287977518 72.2633488743498 0.453559875321851 0.144585554503165 
19.6                           0.521239180706668 -52.8840093436083 0.600824526185099 62.0000784202866 0.600824526185096 62.0000784202866 0.484751419067535 -13.444192999366 
19.65                          0.564872872962886 -62.2527510963016 0.567510468602697 51.7136702289022 0.5675104686027  51.7136702289021 0.522012138593132 -26.9027771089829 
19.7                           0.609851298922156 -71.2712693602494 0.529936246351267 41.5228238853003 0.529936246351275 41.5228238853    0.56346993470492 -39.9390327376947 
19.75                          0.654182682316315 -79.9195994951476 0.489273580660963 31.5557246127521 0.489273580660975 31.5557246127513 0.606841844848067 -52.3398999020647 
19.8                           0.696144812701503 -88.1615359216848 0.4469987295101  21.9342967991447 0.446998729510113 21.9342967991432 0.649880741808595 -63.9693504311386 
19.85                          0.734499231047117 -95.9578995896901 0.404651973595033 12.7595825586567 0.404651973595045 12.7595825586545 0.690746566757961 -74.7561393053449 
19.9                           0.768566667297983 -103.278734423732 0.363604172404627 4.10245205345294 0.363604172404637 4.10245205345005 0.728198513697437 -84.6798678379194 
19.95                          0.798169777226558 -110.110190501825 0.324902759405636 -3.99875229674059 0.324902759405642 -3.99875229674407 0.761602208474947 -93.7579613154409 
20                             0.823498527075719 -116.455657653497 0.28922065085098 -11.5347991693538 0.289220650850984 -11.5347991693578 0.790814615813693 -102.033913571531 
20.05                          0.844960550049351 -122.332988161396 0.25688739246161 -18.5189553151461 0.256887392461611 -18.5189553151503 0.816024811248799 -109.567081415456 
20.1                           0.863057068894647 -127.77008856133 0.227963920962272 -24.9796543739265 0.22796392096227 -24.9796543739308 0.837606817443508 -116.42445350361 
20.15                          0.878298560649227 -132.800542814882 0.202327055581081 -30.9540389253809 0.202327055581078 -30.9540389253852 0.856009678251328 -122.674606579758 
20.2                           0.891156971915368 -137.460092204739 0.179743590433546 -36.4830327104892 0.179743590433542 -36.4830327104932 0.871687373436414 -128.383712958548 
20.25                          0.902044493425738 -141.784177005988 0.159926373422137 -41.6079708884069 0.159926373422132 -41.6079708884107 0.885060553535152 -133.613220451606 
20.3                           0.911308737702233 -145.80641967366 0.142572426246736 -46.3685182580338 0.142572426246731 -46.3685182580371 0.896499797138901 -138.418750397822 
20.35                          0.919236621210053 -149.557818525675 0.127386484357422 -50.8015305319826 0.127386484357417 -50.8015305319854 0.906321704332641 -142.849801232994 
20.4                           0.926061998840319 -153.066423766938 0.114094013945602 -54.9405491910224 0.114094013945598 -54.9405491910248 0.914791746474843 -146.949936569435 
20.45                          0.931974239157128 -156.357313812901 0.102447238413281 -58.8156921563057 0.102447238413277 -58.8156921563077 0.922130094723295 -150.757232506855 
20.5                           0.937126335683705 -159.452742373698 0.0922268356992058 -62.4537736614437 0.0922268356992026 -62.4537736614451 0.928518296598075 -154.304838168982 
20.55                          0.941641974940732 -162.372370941768 0.0832411451318757 -65.8785438534128 0.0832411451318731 -65.8785438534139 0.934105716043019 -157.621561403883 
20.6                           0.945621421140843 -165.133533828639 0.0753240782094373 -69.1109799014687 0.0753240782094354 -69.1109799014693 0.939015262978147 -160.732430638933 
20.65                          0.949146286050109 -167.75150498798 0.068332470166281 -72.1695882611772 0.06833247016628 -72.1695882611777 0.943348268667532 -163.659208639293 
20.7                           0.952283334367329 -170.239750071319 0.0621433037396911 -75.0706957018592 0.0621433037396906 -75.0706957018593 0.947188526942911 -166.420848784619 
20.75                          0.955087492576659 -172.610155898927 0.0566510416244084 -77.8287178442312 0.0566510416244083 -77.8287178442313 0.950605591961806 -169.033892896644 
20.8                           0.957604217619116 -174.87323466664 0.0517651843593665 -80.4564006096939 0.0517651843593668 -80.4564006096939 0.953657444938323 -171.51281405404 
20.85                          0.959871359289815 -177.038303074054 0.0474080995956993 -82.9650337892855 0.0474080995956998 -82.9650337892855 0.956392640315474 -173.870309836067 
20.9                           0.96192062596902 -179.113638034496 0.0435131287371501 -85.3646379880865 0.0435131287371509 -85.3646379880866 0.958852029783648 -176.117552070169 
20.95                          0.963778741055009 178.893388720264 0.040022955870748 -87.6641271916421 0.0400229558707491 -87.6641271916422 0.961070147398433 -178.264399051987 
21                             0.965468358640694 176.976194643225 0.036888214071548 -89.8714495759761 0.0368882140715492 -89.8714495759763 0.963076324158691 179.680424265156 
21.05                          0.967008791708539 175.128886554125 0.0340663007962634 -91.9937092136862 0.0340663007962646 -91.9937092136866 0.964895587175038 177.70917323395  
21.1                           0.968416594046025 173.346174763554 0.0315203742581994 -94.0372711794345 0.0315203742582007 -94.037271179435 0.966549387408701 175.814953401562 
21.15                          0.969706027682881 171.623299145573 0.029218504654041 -96.0078523255795 0.0292185046540423 -96.0078523255802 0.968056190847059 173.99160971098  
21.2                           0.970889440396398 169.955965417349 0.0271329568735993 -97.9105997381609 0.0271329568736005 -97.9105997381617 0.969431960670018 172.233631959461 
21.25                          0.971977572260221 168.340290124368 0.0252395842932009 -99.7501586252626 0.0252395842932021 -99.7501586252637 0.970690552160615 170.536073944419 
21.3                           0.972979805943498 166.7727530475   0.0235173161258303 -101.530731149385 0.0235173161258313 -101.530731149386 0.971844037542334 168.894484143867 
21.35                          0.973904372197268 165.250155940194 0.0219477234277117 -103.256127499601 0.0219477234277126 -103.256127499602 0.972902974336572 167.304846131195 
21.4                           0.974758519456877 163.769586670255 0.0205146511834676 -104.929810309786 0.0205146511834685 -104.929810309787 0.973876628019718 165.763527220109 
21.45                          0.975548654561237 162.328387982829 0.0192039059018952 -106.554933365282 0.019203905901896 -106.554933365284 0.974773157552785 164.26723408265  
21.5                           0.976280460103141 160.924130221897 0.0180029898692678 -108.134375399958 0.0180029898692683 -108.13437539996 0.975599770624217 162.812974288883 
21.55                          0.976958992774646 159.55458744948  0.0169008746561948 -109.670769666039 0.0169008746561954 -109.67076966604 0.976362854083806 161.398022887643 
21.6                           0.977588766177986 158.217716487614 0.0158878076907377 -111.166529857719 0.0158878076907381 -111.16652985772 0.977068083970949 160.019893289576 
21.65                          0.978173820875435 156.911638480288 0.0149551467275512 -112.623872883773 0.0149551467275514 -112.623872883774 0.977720518690294 158.67631183143  
21.7                           0.978717783905369 155.634622633188 0.0140952178907477 -114.044838911874 0.0140952178907478 -114.044838911875 0.978324678213152 157.365195498471 
21.75                          0.979223919561873 154.385071840044 0.0133011936739258 -115.431309046035 0.0133011936739258 -115.431309046036 0.978884611645647 156.084632363246 
21.8                           0.979695172895305 153.161509947232 0.0125669878678108 -116.785020946769 0.0125669878678108 -116.78502094677 0.979403955075088 154.832864366851 
21.85                          0.980134207121128 151.96257044441  0.0118871648741363 -118.107582659675 0.0118871648741363 -118.107582659675 0.97988598126139 153.608272125457 
21.9                           0.980543435908845 150.786986399358 0.011256861270565 -119.400484880933 0.0112568612705648 -119.400484880933 0.980333642462849 152.409361492296 
21.95                          0.980925051349981 149.633581480971 0.0106717178296431 -120.665111856629 0.0106717178296429 -120.665111856629 0.980749607461229 151.234751644999 
22                             0.981281048264923 148.501261936071 0.0101278204766947 -121.902751085866 0.0101278204766945 -121.902751085865 0.981136293669027 150.083164501647 
22.05                          0.981613245395771 147.389009404202 0.00962164890684728 -123.11460197472 0.00962164890684704 -123.114601974719 0.981495895053565 148.953415296952 
22.1                           0.981923303940861 146.295874470273 0.0091500317780604 -124.301783568485 0.00915003177806017 -124.301783568483 0.981830406491266 147.844404173795 
22.15                          0.982212743811931 145.220970868254 0.00871010756168755 -125.465341472812 0.00871010756168728 -125.465341472809 0.9821416450661  146.755108665431 
22.2                           0.982482957933689 144.163470260572 0.00829929027019345 -126.606254059986 0.00829929027019318 -126.606254059984 0.982431268744238 145.684576960714 
22.25                          0.982735224855175 143.122597527627 0.0079152393976692 -127.725438044124 0.00791523939766891 -127.725438044121 0.982700792789329 144.631921859227 
22.3                           0.982970719900709 142.097626510194 0.00755583350643605 -128.823753498416 0.00755583350643579 -128.823753498413 0.982951604226728 143.596315335533 
22.35                          0.983190525053673 141.087876154717 0.00721914697537536 -129.902008378295 0.0072191469753751 -129.902008378291 0.983184974618298 142.576983642368 
22.4                           0.983395637737682 140.092707017667 0.00690342949518982 -130.960962606405 0.0069034294951896 -130.960962606401 0.983402071370545 141.573202891593 
22.45                          0.983586978635657 139.111518090512 0.00660708795469033 -132.00133176836 0.00660708795469012 -132.001331768355 0.983603967766175 140.584295059546 
22.5                           0.983765398667206 138.143743911479 0.00632867041214362 -133.023790462216 0.00632867041214344 -133.023790462211 0.983791651881836 139.609624370066 
22.55                          0.983931685227773 137.188851934291 0.00606685188815073 -134.028975339418 0.00606685188815057 -134.028975339413 0.98396603453174 138.648594014259 
22.6                           0.984086567778713 136.246340127553 0.00582042175265225 -135.017487870377 0.0058204217526521 -135.017487870373 0.984127956357361 137.700643171032 
22.65                          0.984230722865369 135.315734781515 0.00558827250946684 -135.98989686392 0.00558827250946672 -135.989896863916 0.98427819416696 136.765244296746 
22.7                           0.984364778629907 134.396588501567 0.00536938980809873 -136.946740766352 0.00536938980809864 -136.946740766348 0.984417466614619 135.841900656071 
22.75                          0.984489318876927 133.48847837015  0.00516284353508914 -137.888529762893 0.00516284353508904 -137.888529762889 0.984546439296567 134.930144069386 
22.8                           0.984604886742389 132.591004260783 0.00496777985651712 -138.815747701569 0.00496777985651706 -138.815747701566 0.984665729332373 134.029532854894 
22.85                          0.984711988009944 131.703787289707 0.00478341409986447 -139.728853857364 0.00478341409986443 -139.728853857362 0.984775909489865 133.139649946107 
22.9                           0.984811094113282 130.826468392176 0.00460902437775494 -140.628284552376 0.00460902437775492 -140.628284552375 0.984877511905151 132.260101167506 
22.95                          0.984902644858356 129.958707011832 0.00444394586840439 -141.514454645983 0.00444394586840436 -141.514454645982 0.984971031442658 131.390513653092 
23                             0.984987050895217 129.100179892803 0.00428756567826436 -142.387758907437 0.00428756567826437 -142.387758907437 0.985056928734573 130.530534394196 
