! Touchstone file exported from HFSS 3D Layout Design 2026.1.0
!        File:           D:/Work/ADS/SIMADS_EM_PAR/SP8T/RF-PPA-SP10T-4F4H-ENIG-V1.0.aedt
!        Generated:      01:20:46 PM Aug  8, 2026
!        Design:         RF-PPA-SP10T-4F4H-ENIG-V1.0_Core
!        Project:        RF-PPA-SP10T-4F4H-ENIG-V1.0
!
! Variables:
!        BendModel = 0
!
# GHz S MA R 50.000000
! Terminal data exported
! Port[1] = Port1
! Port[2] = Port2
0.5                            0.969804235876253 -70.4558197470668 0.0256404641402554 46.6989393926999 0.0256404641402553 46.6989393926998 0.992615505731065 -16.8111572139234 
0.55                           0.967321923109017 -77.2106730088392 0.0280715895151509 42.527645997575  0.0280715895151513 42.5276459975756 0.991794999885811 -18.4653152139654 
0.6                            0.964927499057893 -83.9038309512466 0.0304746321566744 38.3828352333042 0.0304746321566755 38.3828352333052 0.990971059704415 -20.1150625378452 
0.65                           0.962650478628876 -90.5365988512446 0.0328506964404949 34.2652781252926 0.0328506964404965 34.2652781252939 0.990149157076582 -21.7607815811666 
0.7                            0.96051106929151 -97.1109828664134 0.0352014331996843 30.1751401826148 0.0352014331996864 30.175140182616  0.989332948464567 -23.4028398310127 
0.75                           0.958521093637557 -103.629561385479 0.0375289736969838 26.1120699724951 0.0375289736969865 26.1120699724961 0.988524618612291 -25.0415747260867 
0.8                            0.956685109528636 -110.095374339642 0.0398358582907302 22.0752699976902 0.0398358582907334 22.0752699976909 0.987725207290776 -26.677285092671 
0.85                           0.955001596241334 -116.511830438099 0.0421249625272344 18.0635574824507 0.042124962527238 18.063557482451  0.986934899343753 -28.3102275022375 
0.9                            0.953464112331981 -122.88263078473 0.0443994228755584 14.0754188143405 0.0443994228755623 14.0754188143402 0.986153269779527 -29.9406160664531 
0.95                           0.952062364374986 -129.211706561475 0.0466625637830769 10.1090594871944 0.0466625637830811 10.1090594871937 0.985379483129951 -31.5686244590244 
1                              0.950783152853306 -135.503168216482 0.0489178272182313 6.1624504604639  0.0489178272182355 6.1624504604627  0.984612450593415 -33.1943892442814 
1.05                           0.949611181780191 -141.761263679597 0.0511687054132741 2.23337141668213 0.0511687054132783 2.23337141668056 0.983850950523334 -34.8180138533832 
1.1                            0.94852973270219 -147.990343392709 0.0534186771453393 -1.68054877972088 0.0534186771453433 -1.68054877972286 0.983093718421108 -36.4395727619561 
1.15                           0.947521212676638 -154.194830280946 0.0556711476098865 -5.58179417027593 0.0556711476098903 -5.5817941702782 0.982339512351486 -38.0591155853948 
1.2                            0.946567590851213 -160.379193135256 0.0579293917503603 -9.47292607874146 0.0579293917503636 -9.4729260787439 0.981587159036521 -39.6766709255705 
1.25                           0.945650740516136 -166.54792219016 0.0601965008109313 -13.35654949279  0.0601965008109342 -13.3565494927925 0.980835585065951 -41.2922498838021 
1.3                            0.944752703872674 -172.705505946343 0.0624753318716566 -17.2352811475485 0.0624753318716591 -17.235281147551 0.980083836839753 -42.9058492083648 
1.35                           0.943855895968714 -178.856408503442 0.0647684602014979 -21.1117190048088 0.0647684602014997 -21.1117190048111 0.979331092111328 -44.517454078133 
1.4                            0.942943262798424 174.994953161338 0.0670781344165774 -24.988412846251 0.0670781344165787 -24.988412846253 0.978576665360036 -46.1270405432581 
1.45                           0.941998406789101 168.844232399827 0.0694062346478391 -28.8678357574111 0.0694062346478401 -28.8678357574129 0.977820008695623 -47.7345776536806 
1.5                            0.941005691018053 162.687176909922 0.0717542341875974 -32.7523563762013 0.0717542341875978 -32.7523563762027 0.977060709576819 -49.3400293100909 
1.55                           0.939950331637148 156.519653800669 0.0741231653736849 -36.6442119178636 0.074123165373685 -36.6442119178646 0.976298486298263 -50.9433558720251 
1.6                            0.938818486189378 150.337675865447 0.0765135907470509 -40.5454821651451 0.076513590747051 -40.5454821651457 0.975533181948542 -52.5445155556765 
1.65                           0.937597343795539 144.137429149017 0.0789255807344795 -44.4580648186809 0.0789255807344795 -44.4580648186811 0.974764757352648 -54.1434656507646 
1.7                            0.936275221559783 137.915301817663 0.0813586992015663 -48.3836528176784 0.0813586992015665 -48.3836528176782 0.973993283371677 -55.7401635820682 
1.75                           0.934841669968198 131.66791425904  0.0838119981265985 -52.3237144310754 0.0838119981265987 -52.3237144310751 0.973218932829855 -57.3345678373916 
1.8                            0.933287588510181 125.392150246959 0.0862840223087829 -56.2794770369543 0.0862840223087835 -56.2794770369538 0.972441972264954 -58.9266387800051 
1.85                           0.931605351219622 119.085188905152 0.0887728244241984 -60.2519154976093 0.0887728244241993 -60.2519154976087 0.971662753645281 -60.5163393600809 
1.9                            0.929788940304417 112.74453709326  0.091275989922389 -64.2417458486573 0.0912759899223901 -64.2417458486567 0.970881706158552 -62.1036357363726 
1.95                           0.927834084519124 106.368061719736 0.0937906703426718 -68.2494246276885 0.093790670342673 -68.2494246276881 0.97009932814995 -63.6884978163665 
2                              0.925738397466704 99.9540213634178 0.0963136228335944 -72.2751535948174 0.0963136228335957 -72.2751535948171 0.969316179264109 -65.2708997203592 
2.05                           0.923501509644826 93.5010964630955 0.0988412532404977 -76.318888933355 0.0988412532404988 -76.3188889333549 0.968532872824994 -66.8508201724071 
2.1                            0.921125186855405 87.0084172191376 0.101369660312283 -80.3803534154674 0.101369660312284 -80.3803534154673 0.967750068465448 -68.4282428189019 
2.15                           0.918613426667577 80.4755882508936 0.103894679462762 -84.4590496570371 0.103894679462763 -84.4590496570371 0.966968464992323 -70.0031564737479 
2.2                            0.915972524071355 73.9027089773732 0.106411925980068 -88.5542726208594 0.106411925980069 -88.5542726208594 0.9661887934422  -71.5755552879071 
2.25                           0.913211097391319 67.2903886461438 0.108916839253249 -92.6651200151763 0.108916839253249 -92.6651200151763 0.965411810247182 -73.1454388406442 
2.3                            0.910340066044958 60.6397549361056 0.111404730976335 -96.7905000952721 0.111404730976335 -96.7905000952721 0.964638290392543 -74.7128121503584 
2.35                           0.90737257289963 53.9524551124817 0.113870840916271 -100.929137400861 0.113870840916271 -100.929137400861 0.96386902041301 -76.2776856046248 
2.4                            0.904323845832385 47.2306488237132 0.116310403414268 -105.07957787867 0.116310403414268 -105.079577878669 0.963104791049746 -77.8400748120514 
2.45                           0.901210995595915 40.4769918037768 0.118718726364193 -109.240195405202 0.118718726364192 -109.240195405202 0.962346389384754 -79.4000003826491 
2.5                            0.898052750140843 33.6946099795699 0.121091282308792 -113.409201807428 0.121091282308792 -113.409201807427 0.961594590292672 -80.9574876481885 
2.55                           0.894869128967244 26.8870637764718 0.123423809020108 -117.584662091621 0.123423809020107 -117.58466209162 0.960850147108285 -82.5125663387345 
2.6                            0.891681064640396 20.0583027558508 0.125712414990075 -121.764515866378 0.125712414990075 -121.764515866377 0.960113781502066 -84.0652702352158 
2.65                           0.888509982025646 13.2126110907168 0.127953684014143 -125.946605079055 0.127953684014143 -125.946605079054 0.959386172678225 -85.6156368194499 
2.7                            0.885377348774864 6.35454476992434 0.130144772657678 -130.128707363386 0.130144772657679 -130.128707363386 0.958667946143143 -87.1637069416592 
2.75                           0.882304212848454 -0.511138206153913 0.13228349480746 -134.308573655204 0.13228349480746 -134.308573655204 0.957959662413298 -88.7095245208599 
2.8                            0.879310744150369 -7.37955303980359 0.134368388549112 -138.483968338355 0.134368388549113 -138.483968338355 0.957261806115442 -90.2531362859926 
2.85                           0.876415797541218 -14.2457668868113 0.136398762037392 -142.652710037561 0.136398762037392 -142.652710037561 0.95657477595786 -91.7945915564651 
2.9                            0.87363651353416 -21.1048790789829 0.138374716604244 -146.812711240924 0.138374716604244 -146.812711240924 0.955898876011538 -93.3339420515745 
2.95                           0.870987970942226 -27.9521006603453 0.140297146884322 -150.962015154494 0.140297146884322 -150.962015154494 0.955234308640271 -94.8712417108528 
3                              0.868482902812757 -34.7828310936479 0.14216771908902 -155.098828504967 0.142167719089021 -155.098828504968 0.954581169279228 -96.4065465031325 
3.05                           0.866131483418232 -41.5927301163318 0.143988829642487 -159.22154936197 0.143988829642487 -159.221549361971 0.953939443110002 -97.9399142016894 
3.1                            0.863941190187373 -48.3777829472851 0.145763547167396 -163.328789408221 0.145763547167395 -163.328789408221 0.95330900354486 -99.4714041059672 
3.15                           0.861916740583031 -55.1343573511148 0.147495541271661 -167.419390415948 0.14749554127166 -167.419390415948 0.95268961233494 -101.001076696175 
3.2                            0.860060100365903 -61.8592514327814 0.149189001763191 -171.492434973524 0.149189001763191 -171.492434973525 0.952080921066681 -102.528993214157 
3.25                           0.858370556670698 -68.5497314358476 0.150848551849121 -175.547251738024 0.15084855184912 -175.547251738024 0.95148247380663 -104.055215171051 
3.3                            0.856844847032269 -75.2035592247227 0.152479158609828 -179.583415664339 0.152479158609827 -179.583415664339 0.95089371068716 -105.579803788336 
3.35                           0.855477334016171 -81.819009519163 0.154086043631338 176.399256218932 0.154086043631337 176.399256218932 0.950313972280419 -107.102819383397 
3.4                            0.854260214431718 -88.3948772957971 0.155674596186071 172.400712847541 0.15567459618607 172.400712847541 0.949742504670745 -108.624320713501 
3.45                           0.853183752167479 -94.9304760599424 0.15725029081988 168.420680309122 0.157250290819879 168.420680309122 0.949178465195043 -110.144364293354 
3.5                            0.852236524370516 -101.425627911173 0.158818610673762 164.458675526373 0.158818610673761 164.458675526373 0.948620928868622 -111.663003701478 
3.55                           0.851405671843161 -107.880646474033 0.160384977373233 160.514021820592 0.160384977373232 160.514021820592 0.948068895546981 -113.180288890055 
3.6                            0.850677145997448 -114.296313842759 0.161954687879417 156.585865798498 0.161954687879416 156.585865798499 0.947521297891401 -114.696265511905 
3.65                           0.850035946337163 -120.673852702281 0.163532858327093 152.673195076155 0.163532858327092 152.673195076155 0.946977010209486 -116.210974277237 
3.7                            0.849466344099859 -127.014894746733 0.165124374582161 148.774856431022 0.16512437458216 148.774856431022 0.946434858233325 -117.724450351931 
3.75                           0.848952089281636 -133.321446432753 0.166733849034388 144.889574051536 0.166733849034387 144.889574051536 0.945893629880553 -119.236722808409 
3.8                            0.848476599709723 -139.595852989983 0.168365582996521 141.015967629225 0.16836558299652 141.015967629225 0.945352087019527 -120.747814139676 
3.85                           0.848023132073619 -145.840761476987 0.17002353400078 137.152570108236 0.170023534000779 137.152570108237 0.944808978231183 -122.257739846847 
3.9                            0.847574935850058 -152.059083527657 0.171711287259877 133.297844969354 0.171711287259877 133.297844969354 0.944263052528285 -123.766508110235 
3.95                           0.84711539185479 -158.253958289746 0.173432030582993 129.450202978919 0.173432030582993 129.450202978919 0.943713073958835 -125.274119553981 
4                              0.846628137732993 -164.428715920347 0.175188532098899 125.608018377017 0.175188532098899 125.608018377017 0.94315783698509 -126.780567113919 
4.05                           0.846097183076553 -170.586841877928 0.176983120230775 121.769644513758 0.176983120230775 121.769644513759 0.942596182493604 -128.285836018054 
4.1                            0.845507017050889 -176.731942140423 0.178817665483337 117.933428967676 0.178817665483337 117.933428967676 0.94202701425551 -129.789903888424 
4.15                           0.844842711447584 177.132290614176 0.180693563736634 114.097728196693 0.180693563736634 114.097728196694 0.941449315620562 -131.292740972276 
4.2                            0.844090021971192 171.002109903283 0.182611720887513 110.260921780216 0.182611720887513 110.260921780216 0.940862166193985 -132.794310509268 
4.25                           0.84323549033509 164.87374750661  0.184572538834654 106.421426311375 0.184572538834654 106.421426311375 0.940264758212884 -134.294569239868 
4.3                            0.842266549394509 158.74344483884  0.186575902962414 102.577708991817 0.186575902962415 102.577708991817 0.939656412309896 -135.79346805814 
4.35                           0.841171633093316 152.607483784313 0.188621171438433 98.7283009683139 0.188621171438433 98.7283009683139 0.939036592327239 -137.290952809699 
4.4                            0.839940292450328 146.462217155519 0.190707166795683 94.8718104315495 0.190707166795683 94.8718104315495 0.938404918825551 -138.786965232859 
4.45                           0.838563318165335 140.304098927348 0.192832170416664 91.0069354732168 0.192832170416665 91.0069354732168 0.937761180920628 -140.281444037786 
4.5                            0.837032869688823 134.129714374664 0.194993920669841 87.1324766689724 0.194993920669841 87.1324766689723 0.937105346078482 -141.774326114975 
4.55                           0.835342609779735 127.935810202627 0.197189615559776 83.2473493225185 0.197189615559777 83.2473493225185 0.936437567506769 -143.265547860561 
4.6                            0.833487842683991 121.719324708215 0.199415920834968 79.3505952712845 0.199415920834968 79.3505952712844 0.935758188799581 -144.755046602054 
4.65                           0.831465653121623 115.477417948379 0.201668984542879 75.4413941180567 0.201668984542879 75.4413941180567 0.935067745523853 -146.242762104058 
4.7                            0.829275042300277 109.207501816379 0.203944459021301 71.5190737170136 0.203944459021301 71.5190737170135 0.934366963479836 -147.728638129641 
4.75                           0.826917056216023 102.90726984438  0.206237531260297 67.5831197087275 0.206237531260297 67.5831197087275 0.933656753425233 -149.212624029332 
4.8                            0.824394900609987 96.574726459129  0.208542962451959 63.6331838688691 0.208542962451959 63.6331838688691 0.932938202122234 -150.694676326516 
4.85                           0.821714036182889 90.2082153208281 0.210855137360185 59.6690910118186 0.210855137360185 59.6690910118185 0.932212559647779 -152.174760265318 
4.9                            0.818882247101737 83.8064462761622 0.213168123886945 55.6908441755251 0.213168123886945 55.6908441755251 0.931481222998022 -153.652851285224 
4.95                           0.815909675541262 77.368520358706  0.215475742886295 51.698627810075  0.215475742886295 51.698627810075  0.930745716115895 -155.12893638575 
5                              0.812808815066103 70.8939521783264 0.217771647889346 47.6928087016459 0.217771647889346 47.6928087016459 0.930007666572714 -156.603015344609 
5.05                           0.809594456149452 64.3826889613848 0.220049413964794 43.6739343875195 0.220049413964795 43.6739343875195 0.92926877923744 -158.075101754164 
5.1                            0.806283578094938 57.8351254420288 0.222302634469225 39.6427288576229 0.222302634469225 39.6427288576229 0.928530807366601 -159.54522384351 
5.15                           0.802895183109297 51.2521137687938 0.224525023963756 35.600085393815  0.224525023963757 35.600085393815  0.927795521639778 -161.013425057323 
5.2                            0.799450070256322 44.6349675876193 0.226710525118173 31.5470564689031 0.226710525118173 31.5470564689031 0.927064677745973 -162.479764367616 
5.25                           0.795970549455383 37.9854594994935 0.228853417023002 27.4848407110686 0.228853417023002 27.4848407110686 0.926339983191198 -163.944316300612 
5.3                            0.792480098469948 31.3058111746854 0.230948422017079 23.4147670326947 0.230948422017079 23.4147670326947 0.925623064043836 -165.407170667864 
5.35                           0.789002968813477 24.5986755405456 0.232990807943364 19.3382761211338 0.232990807943364 19.3382761211338 0.924915432359176 -166.868431998431 
5.4                            0.785563749490627 17.8671106480496 0.234976482693729 15.2568995874777 0.234976482693729 15.2568995874777 0.924218455026112 -168.32821867688 
5.45                           0.782186900270791 11.1145450618504 0.236902078009693 11.1722371621502 0.236902078009693 11.1722371621502 0.923533324756674 -169.78666180001 
5.5                            0.778896268528246 4.34473490326074 0.238765019774804 7.08593240733053 0.238765019774803 7.08593240733049 0.922861033893043 -171.243903773044 
5.55                           0.775714605362255 -2.43828700599632 0.240563582457032 2.999647480503   0.240563582457032 2.99964748050294 0.922202351638635 -172.700096673351 
5.6                            0.772663097552886 -9.2302691155309 0.242296925914709 -1.0849624735835 0.242296925914709 -1.08496247358354 0.921557805231974 -174.155400416204 
5.65                           0.769760931797594 -16.0268051169322 0.24396511343453 -5.16627470658514 0.243965113434529 -5.16627470658518 0.920927665477977 -175.609980762428 
5.7                            0.767024906572296 -22.823402490227 0.245569110583621 -9.24272343686675 0.24556911058362 -9.24272343686682 0.920311936935031 -177.064007211835 
5.75                           0.764469104919607 -29.6155539469424 0.24711076518367 -13.3128230495799 0.247110765183669 -13.31282304958  0.919710352932279 -178.517650828919 
5.8                            0.762104638623687 -36.3988099069474 0.248592769407184 -17.3751894247259 0.248592769407184 -17.3751894247259 0.919122375464856 -179.971082048324 
5.85                           0.75993947079721 -43.1688500527553 0.25001860561179 -21.4285589656414 0.250018605611789 -21.4285589656414 0.918547199890017 178.575531492849 
5.9                            0.757978320144751 -49.9215520122807 0.251392478033389 -25.4718049888085 0.251392478033388 -25.4718049888086 0.917983764228682 177.122027050766 
5.95                           0.75622264636461 -56.6530553313846 0.252719232828908 -29.5039512329729 0.252719232828907 -29.5039512329729 0.917430762768791 175.668248756695 
6                              0.754670712586369 -63.3598191040147 0.254004269181969 -33.5241823454646 0.254004269181968 -33.5241823454646 0.916886663572331 174.214049447421 
6.05                           0.753317717655986 -70.0386719149915 0.255253444259872 -37.5318513008619 0.255253444259872 -37.531851300862 0.916349729409275 172.759292311946 
6.1                            0.752155988656711 -76.6868530964574 0.256472974748211 -41.5264837969436 0.25647297474821 -41.5264837969436 0.915818041580646 171.303852328122 
6.15                           0.751175222402647 -83.3020446773853 0.257669337509304 -45.5077797514542 0.257669337509303 -45.5077797514541 0.915289526050095 169.847617469164 
6.2                            0.750362763795865 -89.8823937889421 0.258849171637408 -49.4756120879521 0.258849171637408 -49.4756120879521 0.914761981278613 168.390489666486 
6.25                           0.749703908861259 -96.4265256511322 0.260019183845293 -53.4300230485101 0.260019183845292 -53.4300230485101 0.914233107149496 166.932385521679 
6.3                            0.749182220871552 -102.933547586471 0.261186058741466 -57.3712183050022 0.261186058741465 -57.3712183050021 0.913700534378658 165.473236766565 
6.35                           0.748779849114435 -109.403044768684 0.26235637517152 -61.2995591598445 0.26235637517152 -61.2995591598445 0.913161853827162 164.012990475951 
6.4                            0.748477841380715 -115.835068609403 0.26353652942329 -65.2155531327801 0.263536529423289 -65.2155531327801 0.912614645165644 162.551609042773 
6.45                           0.748256443008851 -122.230118810865 0.26473266575196 -69.1198432245987 0.26473266575196 -69.1198432245987 0.912056504381766 161.089069929824 
6.5                            0.748095377162881 -128.589120170564 0.265950614380926 -73.0131961338227 0.265950614380926 -73.0131961338227 0.911485069669074 159.625365216009 
6.55                           0.747974102822823 -134.913395222096 0.26719583688525 -76.8964896807143 0.26719583688525 -76.8964896807143 0.910898045285931 158.160500958235 
6.6                            0.747872048634138 -141.204633745179 0.268473378670757 -80.7706996667812 0.268473378670757 -80.7706996667812 0.910293223023975 156.694496392557 
6.65                           0.747768822228091 -147.464860088738 0.269787828123175 -84.6368863693429 0.269787828123175 -84.6368863693429 0.909668500974087 155.227383000267 
6.7                            0.747644395848377 -153.696399135885 0.271143281915493 -88.4961808415   0.271143281915493 -88.4961808414999 0.909021899322178 153.759203466351 
6.75                           0.747479270084803 -159.901841609557 0.272543315923047 -92.3497711595185 0.272543315923047 -92.3497711595185 0.908351572944897 152.290010559355 
6.8                            0.747254618223813 -166.084009282222 0.273990961198604 -96.198888733375 0.273990961198604 -96.198888733375 0.907655820605283 150.819865963535 
6.85                           0.74695241419311 -172.245920520127 0.275488684497194 -100.04479477286 0.275488684497194 -100.04479477286 0.906933090569177 149.348839096596 
6.9                            0.746555547325854 -178.390756468038 0.277038372905603 -103.888766981785 0.277038372905603 -103.888766981785 0.906181982475042 147.877005949838 
6.95                           0.746047927225061 175.478171931546 0.278641322217598 -107.732086536797 0.278641322217597 -107.732086536797 0.905401245293986 146.404447992904 
7                              0.745414581897011 169.35745598756  0.280298228796564 -111.576025395216 0.280298228796563 -111.576025395216 0.904589771218005 144.931251193575 
7.05                           0.74464175206811 163.24362036114  0.282009184776453 -115.421833968076 0.282009184776453 -115.421833968076 0.903746585322142 143.457505215444 
7.1                            0.74371698422359 157.13315326476  0.283773676564111 -119.270729190043 0.283773676564111 -119.270729190043 0.902870830879651 141.983302874881 
7.15                           0.74262922442619 151.022535853496 0.285590586716223 -123.123883016752 0.285590586716223 -123.123883016752 0.901961750304086 140.508739965953 
7.2                            0.741368914402379 144.908270933463 0.287458199367508 -126.982411382015 0.287458199367507 -126.982411382015 0.901018661913648 139.033915601206 
7.25                           0.739928090734636 138.786911128885 0.289374209478919 -130.84736365188 0.289374209478918 -130.84736365188 0.900040933177778 137.558933271506 
7.3                            0.738300487280887 132.655086651923 0.29133573625137 -134.719712619061 0.29133573625137 -134.719712619061 0.899027952017656 136.083902903277 
7.35                           0.736481640167869 126.509532809217 0.293339341107792 -138.600345089457 0.293339341107791 -138.600345089457 0.897979099439084 134.608944287945 
7.4                            0.734468993886761 120.34711735709  0.295381050680429 -142.49005312155 0.295381050680428 -142.49005312155 0.896893729852781 133.1341923694   
7.45                           0.732262006174489 114.16486778411  0.297456385247741 -146.389525988931 0.297456385247741 -146.389525988931 0.8957711707809  131.659804972803 
7.5                            0.729862248515424 107.959998556014 0.299560393043092 -150.299342945351 0.299560393043092 -150.299342945351 0.894610762530977 130.185973564824 
7.55                           0.727273498275719 101.729938304365 0.301687690803224 -154.219966879824 0.301687690803224 -154.219966879824 0.893411972284405 128.712937373266 
7.6                            0.724501817723703 95.472356877277  0.303832510836945 -158.151738955818 0.303832510836945 -158.151738955818 0.89217463652906 127.241000297322 
7.65                           0.721555614539921 89.185192098875  0.305988754773138 -162.094874332681 0.305988754773138 -162.094874332681 0.890899407743927 125.770547854856 
7.7                            0.718445677931341 82.866676004714  0.308150053993387 -166.049459068619 0.308150053993387 -166.049459068619 0.889588492033312 124.302057005761 
7.75                           0.715185184192307 76.5153602344731 0.310309836571025 -170.015448302138 0.310309836571025 -170.015448302139 0.88824672800027 122.836084357358 
7.8                            0.711789665557528 70.1301401728853 0.312461400329974 -173.992665802452 0.312461400329974 -173.992665802452 0.886882905396684 121.373209369661 
7.85                           0.70827693652342 63.7102773377164 0.314597991410164 -177.980804968577 0.314597991410163 -177.980804968577 0.885510878650063 119.913906040625 
7.9                            0.704666972517527 57.2554194235019 0.316712887490151 178.020568658417 0.316712887490151 178.020568658416 0.884149534313472 118.458335744    
7.95                           0.700981736899835 50.7656173266465 0.318799484582249 174.012013325267 0.318799484582249 174.012013325267 0.882820413775244 117.006112744539 
8                              0.697244953788913 44.2413384076796 0.320851386092661 169.994205417598 0.320851386092661 169.994205417597 0.881542550567347 115.556175833598 
8.05                           0.693481826096456 37.6834751974509 0.322862492641237 165.967932238754 0.322862492641237 165.967932238754 0.880326180540951 114.106919370579 
8.1                            0.689718700366795 31.0933487344325 0.324827090974929 161.93408325319  0.324827090974928 161.93408325319  0.879168912499437 112.656603283795 
8.15                           0.685982682459795 24.4727057390468 0.326739940197364 157.893639863151 0.326739940197363 157.893639863151 0.878057094294416 111.203842896152 
8.2                            0.682301210657046 17.8237088968236 0.328596353483943 153.847663819911 0.328596353483942 153.847663819911 0.876971483749591 109.7479050212   
8.25                           0.678701595254557 11.1489196424396 0.330392273464527 149.79728440247  0.330392273464525 149.79728440247  0.875893574058427 108.288698956021 
8.3                            0.67521053595395 4.45127301583884 0.332124339537873 145.743684526029 0.332124339537871 145.743684526029 0.874809546025843 106.826563145719 
8.35                           0.671853630196768 -2.26595560005189 0.333789945533079 141.688085968301 0.333789945533077 141.688085968301 0.87371126276951 105.362015863059 
8.4                            0.668654886834788 -8.99919175811242 0.335387286348937 137.631733922551 0.335387286348935 137.631733922551 0.872595373950058 103.895573929157 
8.45                           0.665636260055436 -15.7446108054389 0.3369153924736  133.575881101135 0.336915392473598 133.575881101135 0.871461791971099 102.427659449915 
8.5                            0.662817218197291 -22.498193524724 0.338374151601947 129.521771621404 0.338374151601945 129.521771621404 0.870312296907811 100.958571230037 
8.55                           0.66021436097042 -29.2557874008498 0.339764316911236 125.470624906792 0.339764316911234 125.470624906791 0.869149528847116 99.4884910131123 
8.6                            0.657841096684982 -36.0131720197756 0.341087501909834 121.423619829637 0.341087501909832 121.423619829637 0.867976357224398 98.0175032714214 
8.65                           0.655707388505503 -42.7661268258649 0.342346162121169 117.381879309102 0.342346162121167 117.381879309102 0.866795528302135 96.5456170887322 
8.7                            0.653819575665844 -49.5104992632379 0.343543564188167 113.346455558241 0.343543564188165 113.346455558241 0.865609490651017 95.0727853205008 
8.75                           0.65218027222626 -56.242271227072 0.344683743266728 109.318316149701 0.344683743266727 109.318316149701 0.864420324106581 93.5989197317772 
8.8                            0.650788342577326 -62.9576217640199 0.345771449807238 105.298331041136 0.345771449807237 105.298331041136 0.863229724044293 92.1239023382468 
8.85                           0.649638949742279 -69.6529840887991 0.346812086991265 101.287260670406 0.346812086991265 101.287260670406 0.862039012429181 90.6475936711168 
8.9                            0.648723669818826 -76.325095217426 0.347811640190661 97.2857451986759 0.347811640190661 97.2857451986759 0.860849159797994 89.1698387294101 
8.95                           0.64803066380464 -82.971036837717 0.348776599846446 93.2942949479501 0.348776599846447 93.2942949479501 0.859660809931755 87.6904712653457 
9                              0.647544896676324 -89.5882664184885 0.349713879126959 89.3132820498439 0.349713879126962 89.3132820498439 0.858474303281343 86.2093168985756 
9.05                           0.647248392979532 -96.1746379702467 0.350630727623652 85.3429332956942 0.350630727623656 85.3429332956941 0.857289697535365 84.7261954212731 
9.1                            0.647120518312385 -102.728412281711 0.351534642186131 81.3833241554786 0.351534642186136 81.3833241554785 0.856106784914349 83.2409225510001 
9.15                           0.647138276862305 -109.248256840866 0.352433275794762 77.4343739152866 0.352433275794768 77.4343739152865 0.854925106346327 81.7533113107796 
9.2                            0.647276616463341 -115.733235984748 0.353334345129432 73.495841870866  0.35333434512944 73.4958418708658 0.853743962918268 80.2631731605403 
9.25                           0.647508734325301 -122.182792094332 0.354245537227566 69.5673245084682 0.354245537227575 69.5673245084679 0.852562425068625 78.7703189654618 
9.3                            0.647806378487306 -128.596718852949 0.355174415343294 65.6482536040902 0.355174415343304 65.6482536040898 0.851379339976964 77.2745598600295 
9.35                           0.648140142009846 -134.975127718975 0.356128323832624 61.7378951783752 0.356128323832635 61.7378951783746 0.850193337563683 75.7757080482165 
9.4                            0.648479748798383 -141.318408832053 0.357114291605457 57.8353492569253 0.357114291605469 57.8353492569245 0.849002835460048 74.2735775675811 
9.45                           0.64879433162735 -147.627187587229 0.358138933412716 53.9395504045872 0.358138933412729 53.9395504045864 0.84780604325712 72.7679850363739 
9.5                            0.649052704307544 -153.902278085204 0.359208347983708 50.0492690273765 0.359208347983721 50.0492690273755 0.846600966296457 71.2587503967386 
9.55                           0.649223630939999 -160.144634612464 0.360328011803322 46.1631134671039 0.360328011803336 46.1631134671028 0.845385409227222 69.7456976629089 
9.6                            0.649276095773935 -166.35530223403 0.361502667129835 42.2795329514747 0.361502667129849 42.2795329514734 0.844156979523118 68.2286556803491 
9.65                           0.649179577307174 -172.53536750404 0.362736202712703 38.3968215064848 0.362736202712716 38.3968215064834 0.842913091127805 66.7074588996714 
9.7                            0.648904329924072 -178.685910222323 0.364031525589478 34.513122988341  0.36403152558949 34.5131229883396 0.841650968377941 65.1819481676062 
9.75                           0.648421675569795 175.192042906876 0.365390422339336 30.6264374488132 0.365390422339348 30.6264374488118 0.840367650337599 63.6519715361151 
9.8                            0.647704306741186 169.097561923621 0.366813408270347 26.7346291106021 0.366813408270357 26.7346291106007 0.839059995665752 62.117385089802  
9.85                           0.646726600487517 163.029853838561 0.368299563247629 22.8354362973694 0.368299563247637 22.8354362973682 0.837724688128696 60.5780537909943 
9.9                            0.645464941237902 156.988298765346 0.369846353266104 18.9264837353376 0.369846353266109 18.9264837353366 0.836358242861125 59.0338523411859 
9.95                           0.643898048211501 150.972481349007 0.371449437478865 15.0052977178485 0.371449437478867 15.005297717848  0.834957013472432 57.4846660569128 
10                             0.642007301054009 144.982216949262 0.373102461261786 11.0693246978116 0.373102461261786 11.0693246978116 0.833517200087936 55.9303917575367 
