! Touchstone file exported from HFSS 3D Layout Design 2026.1.0
!        File:           D:/Work/SIM/ADS_AUTO_SIM/projects/RFSOC_RF/TX_Fillter.aedt
!        Generated:      03:06:14 AM Aug 31, 2026
!        Design:         TX_BAND1_MCFIL_R35_CNN047
!        Project:        TX_Fillter
!
# GHz S MA R 50.000000
! Terminal data exported
! Port[1] = Port1
! Port[2] = Port2
14                             0.9726729805207  -166.366232074383 0.00376941051306125 -176.474482221823 0.00376941051306125 -176.474482221823 0.974001273276252 -161.401061547153 
14.05                          0.972171574329041 -167.246107454473 0.0038464995766901 -176.816318497274 0.00384649957669011 -176.816318497273 0.973526264482701 -162.26174480284 
14.1                           0.971654093773046 -168.13200128326 0.00392746130209161 -177.137105946423 0.00392746130209161 -177.137105946422 0.973036331706941 -163.128263700873 
14.15                          0.971119724506891 -169.024109443685 0.00401260936288628 -177.43652220038 0.00401260936288628 -177.436522200379 0.972530735664127 -164.000797208983 
14.2                           0.970567596541101 -169.922638406094 0.00410228851944724 -177.714300506202 0.00410228851944723 -177.714300506201 0.972008687408838 -164.87953366348 
14.25                          0.969996779468601 -170.827805941506 0.00419687803525577 -177.970238972121 0.00419687803525576 -177.97023897212 0.971469344128284 -165.764671388091 
14.3                           0.969406277195394 -171.739841893587 0.00429679549313546 -178.204210623296 0.00429679549313544 -178.204210623295 0.970911804503192 -166.656419362806 
14.35                          0.968795022115341 -172.658989015128 0.00440250106063161 -178.416174258427 0.00440250106063159 -178.416174258426 0.970335103583907 -167.554997947591 
14.4                           0.968161868659897 -173.585503875492 0.0045145022603995 -178.606186077682 0.00451450226039951 -178.606186077681 0.969738207121857 -168.46063966637 
14.45                          0.967505586143796 -174.51965784624 0.00463335930910314 -178.774412028822 0.00463335930910313 -178.774412028821 0.969120005287985 -169.373590057314 
14.5                           0.966824850816101 -175.46173817302 0.00475969109720952 -178.921140791449 0.00475969109720951 -178.921140791448 0.968479305699826 -170.294108596156 
14.55                          0.966118237012588 -176.412049142747 0.00489418189244081 -179.046797289109 0.00489418189244081 -179.046797289108 0.967814825667293 -171.222469700071 
14.6                           0.965384207289735 -177.370913356242 0.00503758886182492 -179.151956586255 0.0050375888618249 -179.151956586254 0.967125183553758 -172.158963820534 
14.65                          0.964621101402114 -178.338673117691 0.00519075052163415 -179.237357992849 0.00519075052163416 -179.237357992848 0.966408889133119 -173.103898634627 
14.7                           0.963827123963418 -179.315691953783 0.00535459624147846 -179.303919164956 0.00535459624147848 -179.303919164955 0.965664332804989 -174.05760034539 
14.75                          0.963000330605788 179.697643723056 0.00553015694897257 -179.352749956924 0.00553015694897256 -179.352749956924 0.964889773508208 -175.020415103167 
14.8                           0.962138612422091 178.700922791001 0.00571857720539724 -179.385165751894 0.00571857720539725 -179.385165751894 0.964083325147051 -175.992710561386 
14.85                          0.961239678440082 177.693707416316 0.00592112885143109 -179.402699974982 0.0059211288514311 -179.402699974982 0.963242941313908 -176.974877581939 
14.9                           0.96030103583513 176.675530851112 0.00613922645631738 -179.407115480524 0.00613922645631737 -179.407115480524 0.962366398055859 -177.967332107292 
14.95                          0.959319967537701 175.645895007735 0.00637444484493121 -179.400414504146 0.00637444484493123 -179.400414504146 0.961451274389349 -178.970517218697 
15                             0.95829350683162 174.604267782887 0.00662853902654345 -179.384846885211 0.00662853902654348 -179.38484688521 0.960494930215482 -179.984905402442 
15.05                          0.957218408466914 173.550080100972 0.00690346690835355 -179.362916297878 0.00690346690835358 -179.362916297878 0.959494481226606 178.988998950994 
15.1                           0.956091115724286 172.482722641882 0.00720141524815428 -179.337384281654 0.00720141524815429 -179.337384281655 0.958446770320453 177.950656786642 
15.15                          0.954907722763631 171.401542213595 0.00752482938630267 -179.311271935956 0.00752482938630269 -179.311271935956 0.957348334948512 176.899491331562 
15.2                           0.953663931462377 170.3058377244   0.00787644740055035 -179.287859237774 0.0078764474005504 -179.287859237774 0.956195369716801 175.834884711698 
15.25                          0.952355001795721 169.194855703128 0.00825933945195254 -179.270682055555 0.00825933945195253 -179.270682055555 0.954983683425656 174.756174197656 
15.3                           0.95097569462359 168.067785308433 0.00867695324058531 -179.263527063044 0.00867695324058533 -179.263527063044 0.953708649574842 173.662648032243 
15.35                          0.949520205520241 166.923752759785 0.00913316667176972 -179.270424899899 0.00913316667176971 -179.270424899899 0.952365149164457 172.553540786183 
15.4                           0.947982088001661 165.761815113213 0.0096323490538658 -179.295642076126 0.0096323490538658 -179.295642076126 0.950947504381916 171.428028181134 
15.45                          0.946354164160269 164.580953294025 0.0101794324160669 -179.343672268944 0.0101794324160669 -179.343672268944 0.949449401469751 170.28522131099  
15.5                           0.944628420289459 163.38006428644  0.0107799948596893 -179.419227807729 0.0107799948596893 -179.419227807729 0.947863800703944 169.124160183403 
15.55                          0.942795884551189 162.157952366472 0.0114403582525267 -179.52723227998 0.0114403582525268 -179.52723227998 0.946182830960207 167.943806493632 
15.6                           0.940846483081356 160.913319249416 0.0121677030594884 -179.672815315041 0.0121677030594884 -179.672815315041 0.944397665783098 166.743035532309 
15.65                          0.938768870105748 159.644753007234 0.0129702036945342 -179.861310710871 0.0129702036945342 -179.861310710871 0.942498377171058 165.520627117918 
15.7                           0.936550226610131 158.350715594567 0.0138571885043499 179.901740836585 0.0138571885043499 179.901740836585 0.940473762411986 164.275255434348 
15.75                          0.934176020815182 157.0295288059   0.0148393293846393 179.610583058112 0.0148393293846393 179.610583058112 0.938311138201167 163.005477644874 
15.8                           0.931629722078673 155.679358472498 0.0159288671236994 179.259228066376 0.0159288671236993 179.259228066376 0.935996094885196 161.709721148254 
15.85                          0.928892457791721 154.298196698921 0.017139879911361 178.841431431173 0.017139879911361 178.841431431173 0.933512201924543 160.38626934318  
15.9                           0.92594260023653 152.883841940137 0.0184886040992784 178.350656758778 0.0184886040992784 178.350656758778 0.930840653455102 159.033245778969 
15.95                          0.92275526708312 151.433876739371 0.0199938183141354 177.780028020202 0.0199938183141354 177.780028020202 0.927959840032333 157.648596600494 
16                             0.919301715039913 149.94564299634  0.0216773044781396 177.122267684655 0.0216773044781396 177.122267684655 0.924844829108116 156.230071255936 
16.05                          0.915548600916603 148.416214735691 0.0235644022514358 176.36961846045  0.0235644022514358 176.36961846045  0.921466732336787 154.775201545417 
16.1                           0.911457077748802 146.84236852809  0.0256846769376253 175.513746111379 0.0256846769376254 175.513746111379 0.917791932221072 153.281279276254 
16.15                          0.906981685390142 145.220552032473 0.02807272500962 174.545620391196 0.0280727250096202 174.545620391196 0.91378113366444 151.745333102108 
16.2                           0.902068984830573 143.546851658305 0.030769146060771 173.455370619351 0.0307691460607711 173.455370619351 0.909388197489284 150.164105630651 
16.25                          0.896655873284651 141.816961220117 0.0338217149438629 172.232111820204 0.033821714943863 172.232111820204 0.904558702810591 148.534032700604 
16.3                           0.890667502934071 140.026154879047 0.0372867925953064 170.863736706773 0.0372867925953065 170.863736706773 0.899228173496237 146.85122803246  
16.35                          0.884014710886436 138.169269966756 0.0412310174517076 169.336668201886 0.0412310174517078 169.336668201886 0.893319891579988 145.111478529023 
16.4                           0.876590853579946 136.240708993512 0.0457333193367145 167.635566839471 0.0457333193367146 167.635566839471 0.886742209450442 143.310258785511 
16.45                          0.868267930387897 134.234476100006 0.0508872903512306 165.742987622923 0.0508872903512307 165.742987622923 0.879385267388998 141.442778561662 
16.5                           0.858891888616271 132.144272773445 0.0568039257627289 163.638982358203 0.056803925762729 163.638982358203 0.871117032673448 139.504085159377 
16.55                          0.848277045173377 129.963692961466 0.0636147002998656 161.300647213849 0.0636147002998657 161.300647213849 0.861778618656937 137.489255519414 
16.6                           0.836199676209618 127.686582155245 0.0714748517633705 158.701623137554 0.0714748517633705 158.701623137554 0.851178950018114 135.393732931156 
16.65                          0.822391083168381 125.307663745346 0.0805665724440038 155.811571829561 0.0805665724440038 155.811571829561 0.839089073578458 133.213894192466 
16.7                           0.806530962255987 122.823596561257 0.0911015105850439 152.595677066678 0.091101510585044 152.595677066678 0.825236876930826 130.94797970104  
16.75                          0.788242886653665 120.234720165383 0.103321490842957 149.014267467911 0.103321490842957 149.014267467911 0.809303841847732 128.597586558592 
16.8                           0.767095472729483 117.547880239881 0.117495595401945 145.022731845481 0.117495595401945 145.022731845481 0.790926987054607 126.170015721834 
16.85                          0.742615773178412 114.780909553745 0.133910656526031 140.572012006509 0.13391065652603 140.572012006509 0.769711679205976 123.68186834775  
16.9                           0.714326038215451 111.969544348121 0.152850890356189 135.610113189028 0.152850890356189 135.610113189028 0.745264768861485 121.164356310829 
16.95                          0.681821125066738 109.177662208505 0.174561335993636 130.085246611514 0.174561335993635 130.085246611514 0.717262217599562 118.670687789375 
17                             0.644909639198349 106.511375126038 0.199190243215313 123.951327413865 0.199190243215312 123.951327413865 0.685568886447225 116.285275577991 
17.05                          0.603841080345633 104.135795677551 0.226710040741204 117.176398798121 0.226710040741204 117.176398798121 0.650424232251264 114.132725957749 
17.1                           0.559619476665502 102.288310140179 0.256828118083789 109.753817592379 0.256828118083788 109.753817592379 0.612683624301316 112.380624828151 
17.15                          0.514337472060514 101.271070801568 0.288917953330848 101.714421661155 0.288917953330847 101.714421661156 0.574044330534615 111.22370192491  
17.2                           0.471333289144151 101.388205558781 0.322019670151687 93.1356148636134 0.322019670151687 93.1356148636136 0.537087618271259 110.831812328019 
17.25                          0.434814301843791 102.789155784739 0.354955484066783 84.1417053476897 0.354955484066783 84.1417053476899 0.504898243336369 111.25435113521  
17.3                           0.408623205853343 105.249138666133 0.386558956454374 74.8912204215835 0.386558956454374 74.8912204215836 0.480145352248926 112.318654619502 
17.35                          0.394441460751701 108.086140978041 0.415941697288362 65.5523747474507 0.415941697288362 65.5523747474507 0.463948222954031 113.618200932265 
17.4                           0.39072234095838 110.429453805654 0.442678348941913 56.27457608773   0.442678348941913 56.2745760877301 0.455287535795952 114.655092386179 
17.45                          0.393445203250461 111.659096506424 0.466830947538639 47.1663971635462 0.466830947538638 47.1663971635462 0.451457870158941 115.047299885705 
17.5                           0.397979134967699 111.593742036588 0.488827368131239 38.2864954779849 0.488827368131238 38.286495477985  0.449172481752951 114.637313260079 
17.55                          0.400512078183961 110.368996574646 0.509274502819673 29.6471004154663 0.509274502819672 29.6471004154663 0.445521302771285 113.462223782189 
17.6                           0.398498820065101 108.24613371757  0.528785781242783 21.2251317317062 0.528785781242781 21.2251317317063 0.438396792903254 111.667836149962 
17.65                          0.390501962534894 105.498165916647 0.547862086453273 12.9755411509184 0.547862086453272 12.9755411509185 0.426503495514086 109.441901854669 
17.7                           0.375877824534406 102.376434706436 0.566827777298376 4.84341183987731 0.566827777298374 4.84341183987741 0.40920586649375 106.986509342888 
17.75                          0.354528898719852 99.1229487543071 0.585807214491719 -3.22649540360634 0.585807214491717 -3.22649540360623 0.386385101250399 104.521358628277 
17.8                           0.326780186697314 96.0073618298308 0.604727400473295 -11.282749159899 0.604727400473294 -11.2827491598989 0.358374714824705 102.307735584298 
17.85                          0.293376989103698 93.3870796766002 0.623338952750664 -19.3623691906422 0.623338952750663 -19.3623691906421 0.32599220569595 100.689214595681 
17.9                           0.255604141368073 91.8069265097631 0.641253616757785 -27.4877105032747 0.641253616757785 -27.4877105032747 0.290672017599778 100.14870629518  
17.95                          0.215574223756095 92.1727440364135 0.657998704142535 -35.6650226310651 0.657998704142535 -35.6650226310651 0.254710983052213 101.37032336716  
18                             0.17683475149523 96.0128141029991 0.673086520284917 -43.884798687397 0.673086520284917 -43.884798687397 0.221613458605303 105.230729529424 
18.05                          0.145460494302588 105.475244959747 0.686091238917979 -52.124022275936 0.686091238917978 -52.1240222759361 0.196295262319519 112.457170255835 
18.1                           0.130391716780831 121.201520068624 0.696719834543518 -60.350170715287 0.696719834543517 -60.3501707152871 0.184190494833529 122.594902878927 
18.15                          0.137754887047237 137.912195987031 0.704861514828826 -68.5264349754237 0.704861514828825 -68.5264349754238 0.188206113569862 133.168045170408 
18.2                           0.163009519173282 148.978566358476 0.710604135351592 -76.6172684965985 0.71060413535159 -76.6172684965986 0.206119284044325 141.291096597097 
18.25                          0.196774154840857 153.818083530841 0.714215326150079 -84.5932765801841 0.714215326150077 -84.5932765801842 0.232488236126563 145.915146689237 
18.3                           0.232379868165545 154.51977177268  0.716096185212496 -92.4346761786376 0.716096185212494 -92.4346761786377 0.262149894986941 147.533479739101 
18.35                          0.266215318617056 152.765928221534 0.716721624746763 -100.132990534397 0.716721624746761 -100.132990534397 0.291542417760271 147.006329268408 
18.4                           0.296412829082567 149.543340985703 0.716581708642128 -107.691095375296 0.716581708642127 -107.691095375296 0.318514236944411 145.040088828695 
18.45                          0.322033846946801 145.402075362755 0.716133959380865 -115.122036706875 0.716133959380864 -115.122036706875 0.341864584548981 142.119553002146 
18.5                           0.342659545170673 140.648812985339 0.715770734761857 -122.447138303267 0.715770734761857 -122.447138303267 0.360992783804182 138.55979759575  
18.55                          0.358175732027446 135.452958037301 0.715800994299079 -129.693853302737 0.71580099429908 -129.693853302737 0.375672952229094 134.562795884531 
18.6                           0.368652214237105 129.902817012533 0.71644318327527 -136.893673264628 0.716443183275272 -136.893673264628 0.385915093033629 130.258022086141 
18.65                          0.374274610597607 124.035821751961 0.717825359975463 -144.080262685921 0.717825359975466 -144.080262685921 0.39188220269431 125.728875663215 
18.7                           0.375309624232837 117.854978501114 0.719989320308414 -151.287877778779 0.719989320308417 -151.287877778779 0.39384449223593 121.029413720546 
18.75                          0.372093918631785 111.337550594432 0.722896588884755 -158.550066553385 0.722896588884758 -158.550066553385 0.392158710270503 116.194711828408 
18.8                           0.365040756839031 104.439003994491 0.726435242993062 -165.898627176532 0.726435242993065 -165.898627176532 0.387264148186348 111.246810872446 
18.85                          0.354660596056684 97.0938859731901 0.730427344164383 -173.362810632048 0.730427344164385 -173.362810632048 0.379688580636612 106.197198364243 
18.9                           0.341592941829532 89.214910806271  0.734637142879727 179.031222344041 0.734637142879729 179.03122234404  0.370057936722678 101.046093070887 
18.95                          0.326647173112328 80.6920081682409 0.738780142954779 171.260655991653 0.73878014295478 171.260655991653 0.359103485268603 95.7784354541348 
19                             0.310849248121955 71.3947418148522 0.742532576850052 163.30594312099  0.742532576850052 163.30594312099  0.347660458002614 90.3565643535595 
19.05                          0.295487444661651 61.1846570864801 0.745539973974611 155.150376993567 0.745539973974612 155.150376993567 0.336653350943706 84.7103785453318 
19.1                           0.282140137812817 49.9478503334844 0.747422593165671 146.779356939358 0.747422593165671 146.779356939358 0.327066836627037 78.727649046283  
19.15                          0.272649444312803 37.6569247406565 0.747775029475238 138.179508168292 0.747775029475239 138.179508168292 0.319907774440763 72.2499006741234 
19.2                           0.268986079544524 24.4528199585164 0.746157939134963 129.337971992165 0.746157939134964 129.337971992165 0.316171044436298 65.0815285608078 
19.25                          0.272971698013195 10.6944625798297 0.742082216973324 120.242352272869 0.742082216973327 120.242352272869 0.316823163087649 57.0187335457464 
19.3                           0.285925569490285 -3.10056443970685 0.734990556174782 110.881935821866 0.734990556174787 110.881935821866 0.322803974860574 47.8978565082311 
19.35                          0.308412643502018 -16.4300590467757 0.724247956837116 101.250812908217 0.724247956837122 101.250812908217 0.335017359031827 37.6507234676519 
19.4                           0.340214919874324 -28.9772059853701 0.709159875057359 91.353279140801  0.709159875057366 91.3532791408012 0.354256503017498 26.3441933083518 
19.45                          0.380448565789195 -40.656679968656 0.689040165535787 81.2112459194745 0.689040165535793 81.2112459194746 0.381022949268533 14.1819923243394 
19.5                           0.427670004966373 -51.543666153935 0.663343404104449 70.8722503061876 0.663343404104455 70.8722503061876 0.415267381664732 1.46435829506875 
19.55                          0.479932311804176 -61.7697987492865 0.631850161818514 60.4152908869861 0.631850161818517 60.415290886986  0.456165720672275 -11.4745906571312 
19.6                           0.534880430602047 -71.447373089254 0.594851940401756 49.950944486633  0.594851940401758 49.950944486633  0.502072949577878 -24.3219176643496 
19.65                          0.58997459841595 -80.6371361569322 0.553248781697323 39.6131953551188 0.553248781697322 39.6131953551189 0.550730057496674 -36.8166869185088 
19.7                           0.64283016261246 -89.3501150964184 0.508484848523699 29.5435547707003 0.508484848523697 29.5435547707006 0.59967216694204 -48.7595839248145 
19.75                          0.691558247225998 -97.5672577622169 0.462318760465155 19.8719080910368 0.462318760465153 19.8719080910374 0.646681220200876 -60.0120708114074 
19.8                           0.73497292800515 -105.262249950767 0.416512916554031 10.7003617620737 0.416512916554029 10.7003617620746 0.690114523547543 -70.4917837260258 
19.85                          0.772605535124821 -112.418220382696 0.372561357469841 2.09469697256619 0.37256135746984 2.09469697256742 0.729023135095825 -80.1655211219716 
19.9                           0.804565132245529 -119.035339788392 0.331536917378027 -5.91575595176359 0.331536917378027 -5.91575595176212 0.763083348701953 -89.0397653833089 
19.95                          0.831334018572398 -125.130925280882 0.294067383467613 -13.3321966123473 0.294067383467614 -13.3321966123456 0.792427522576672 -97.1497164478332 
20                             0.853575986127592 -130.73542068822 0.260400279722708 -20.1778240782951 0.26040027972271 -20.1778240782933 0.817459580636893 -104.548593450078 
20.05                          0.871996119170365 -135.887217420489 0.230504617909119 -26.4894435275176 0.230504617909122 -26.4894435275158 0.838705323484164 -111.298665275763 
20.1                           0.887257024277555 -140.628059933173 0.204171747001619 -32.3106626375059 0.204171747001622 -32.3106626375042 0.856712293270445 -117.464648561879 
20.15                          0.899939290682054 -144.999689957815 0.181096745664051 -37.6870607600213 0.181096745664055 -37.6870607600196 0.871993286704618 -123.109396710216 
20.2                           0.910530360699801 -149.041735635911 0.160936011164789 -42.6631181287286 0.160936011164793 -42.6631181287272 0.88500071659877 -128.291430658014 
20.25                          0.919428830584056 -152.790584557691 0.143343957371866 -47.2804804305185 0.143343957371869 -47.2804804305172 0.896119725418375 -133.063776840965 
20.3                           0.926955557911029 -156.278934405289 0.127994059572124 -51.5771356940217 0.127994059572127 -51.5771356940206 0.905671226656375 -137.473646210936 
20.35                          0.933366624456976 -159.535763870781 0.114589291755577 -55.5871654372409 0.11458929175558 -55.5871654372399 0.913919322876071 -141.562606029436 
20.4                           0.938865681534387 -162.586538207526 0.10286591238426 -59.3408297944491 0.102865912384262 -59.3408297944484 0.921079979773462 -145.367008682015 
20.45                          0.943614664630718 -165.453527671707 0.092593377289225 -62.8648284731692 0.0925933772892271 -62.8648284731687 0.927329390599475 -148.918529442606 
20.5                           0.947742634333736 -168.156164744046 0.0835721949844917 -66.1826394711629 0.0835721949844933 -66.1826394711626 0.932811365178682 -152.244726353871 
20.55                          0.951352859511192 -170.711398221136 0.0756308450622319 -69.3148780457481 0.0756308450622332 -69.314878045748 0.937643555470845 -155.369575190938 
20.6                           0.954528394627417 -173.134022641757 0.0686224153893608 -72.2796443607171 0.0686224153893617 -72.2796443607171 0.941922559332899 -158.313956955687 
20.65                          0.957336428495855 -175.4369737342  0.0624213181797943 -75.0928441182396 0.0624213181797948 -75.0928441182397 0.945728038263073 -161.096089660496 
20.7                           0.959831658691653 -177.631587516658 0.0569202646109183 -77.7684758245175 0.0569202646109186 -77.7684758245177 0.949126009964154 -163.731904059439 
20.75                          0.962058906046585 -179.727824371654 0.0520275718320328 -80.3188835830161 0.0520275718320329 -80.3188835830162 0.952171469525434 -166.23536699962 
20.8                           0.96405514209016 178.265538829391 0.0476648169404319 -82.7549770671999 0.0476648169404317 -82.7549770672   0.954910473338268 -168.618757814882 
20.85                          0.965851065179149 176.340744822914 0.0437648214162525 -85.0864216170844 0.0437648214162522 -85.0864216170844 0.957381797134801 -170.892903668457 
20.9                           0.96747233025741 174.490916488105 0.0402699349943124 -87.3218018613177 0.0402699349943119 -87.3218018613178 0.959618258106158 -173.067379569967 
20.95                          0.968940512650117 172.709938281945 0.0371305828495467 -89.4687622698185 0.0371305828495462 -89.4687622698186 0.961647772549707 -175.15067829475 
21                             0.970273867209247 170.992355410923 0.0343040399660915 -91.5341278161294 0.0343040399660909 -91.5341278161293 0.963494205248332 -177.150354816674 
21.05                          0.971487929490312 169.333287986247 0.0317533991043367 -93.5240076031664 0.031753399104336 -93.5240076031663 0.965178054561174 -179.073149235408 
21.1                           0.97259599450888 167.728357806559 0.0294467024149742 -95.4438839530028 0.0294467024149735 -95.4438839530025 0.966717007563849 179.074908411427 
21.15                          0.973609500196552 166.173625773661 0.027356210665638 -97.2986891187747 0.0273562106656373 -97.2986891187743 0.96812639204432 177.288408588675 
21.2                           0.974538336304223 164.665538264047 0.0254577878209172 -99.0928714630554 0.0254577878209166 -99.0928714630547 0.96941954630801 175.562485552723 
21.25                          0.975391094682536 163.200881051505 0.0237303821502756 -100.830452669197 0.023730382150275 -100.830452669196 0.970608123209263 173.892751476803 
21.3                           0.976175273220634 161.77673960668  0.0221555880563224 -102.51507731125 0.022155588056322 -102.515077311249 0.9717023413113  172.275239730335 
21.35                          0.976897442953905 160.390464792971 0.0207172754114046 -104.150055902031 0.0207172754114042 -104.15005590203 0.972711193350762 170.706355906723 
21.4                           0.977563385741031 159.03964313951  0.0194012753912049 -105.738402364261 0.0194012753912045 -105.73840236426 0.973642620064453 169.182835424545 
21.45                          0.97817820829694 157.722071006112 0.0181951136423843 -107.282866722498 0.0181951136423838 -107.282866722498 0.974503655785045 167.701706718778 
21.5                           0.978746437129196 156.435732066408 0.0170877831639225 -108.785963689961 0.0170877831639223 -108.78596368996 0.975300550921898 166.2602591978   
21.55                          0.979272097969806 155.178777627688 0.0160695505640256 -110.249997720726 0.0160695505640254 -110.249997720725 0.976038875430517 164.856015274039 
21.6                           0.979758782554046 153.949509382566 0.0151317904175262 -111.677085011018 0.015131790417526 -111.677085011017 0.976723606576473 163.486705885822 
21.65                          0.980209705021576 152.746364251164 0.014266843328887 -113.069172860618 0.0142668433288869 -113.069172860617 0.977359203668815 162.150249019171 
21.7                           0.980627749764403 151.567901025436 0.0134678940342982 -114.428056744514 0.0134678940342982 -114.428056744514 0.977949671936964 160.844730814244 
21.75                          0.981015512191947 150.412788571262 0.012728866479211 -115.755395393798 0.012728866479211 -115.755395393797 0.978498617325541 159.568388904399 
21.8                           0.981375333603777 149.279795380757 0.0120443333069212 -117.052724141835 0.0120443333069212 -117.052724141835 0.979009293661583 158.319597688832 
21.85                          0.981709331138613 148.167780298006 0.0114094376077088 -118.321466755552 0.0114094376077089 -118.321466755552 0.979484643391221 157.096855284002 
21.9                           0.982019423591271 147.075684267232 0.0108198251216063 -119.562945941091 0.0108198251216064 -119.562945941091 0.97992733287506 155.898771936299 
21.95                          0.982307353747536 146.002522974108 0.0102715853734711 -120.778392687253 0.0102715853734712 -120.778392687254 0.980339783062941 154.724059709683 
22                             0.982574707772971 144.94738026922  0.00976120045686737 -121.968954588148 0.00976120045686744 -121.968954588149 0.980724196231536 153.571523288425 
22.05                          0.982822932099532 143.909402278121 0.00928550038164835 -123.135703267791 0.00928550038164843 -123.135703267793 0.98108257935602 152.440051757402 
22.1                           0.983053348179111 142.887792115526 0.00884162406593468 -124.27964101343 0.0088416240659348 -124.279641013431 0.981416764595055 151.328611241302 
22.15                          0.983267165412175 141.881805132304 0.00842698519202223 -125.401706710669 0.00842698519202232 -125.401706710671 0.981728427292444 150.236238300164 
22.2                           0.983465492509803 140.890744633404 0.00803924226224077 -126.502781161764 0.00803924226224093 -126.502781161765 0.982019101836163 149.162033992376 
22.25                          0.983649347506395 139.913958012922 0.00767627228871932 -127.58369185826 0.00767627228871944 -127.583691858263 0.982290195663456 148.105158527898 
22.3                           0.98381966660655 138.950833259439 0.00733614763351183 -128.645217270464 0.00733614763351199 -128.645217270466 0.982543001657384 147.064826444524 
22.35                          0.98397731202153 138.000795790694 0.00701711558517982 -129.688090708564 0.00701711558517994 -129.688090708567 0.982778709144025 146.040302248516 
22.4                           0.9841230789275  137.063305581768 0.00671758031682785 -130.713003803692 0.00671758031682793 -130.713003803695 0.982998413669247 145.030896468357 
22.45                          0.984257701658244 136.137854555329 0.00643608692051228 -131.720609651393 0.00643608692051238 -131.720609651396 0.983203125708447 144.035962076693 
22.5                           0.984381859228812 135.223964206322 0.00617130725533582 -132.71152565498 0.00617130725533586 -132.711525654983 0.983393778441168 143.054891241014 
22.55                          0.984496180272876 134.32118343675  0.00592202738261317 -133.686336101837 0.00592202738261321 -133.68633610184 0.983571234704332 142.087112368406 
22.6                           0.984601247465045 133.429086579071 0.00568713639224671 -134.645594501854 0.00568713639224677 -134.645594501857 0.983736293222383 141.132087413761 
22.65                          0.984697601489626 132.5472715892   0.00546561645071895 -135.589825713795 0.00546561645071899 -135.589825713798 0.98388969419952 140.189309424462 
22.7                           0.984785744609084 131.675358392286 0.00525653392358936 -136.519527882408 0.00525653392358938 -136.519527882411 0.98403212434802 139.258300297648 
22.75                          0.984866143878377 130.812987366321 0.0050590314446585 -137.435174206442 0.0050590314446585 -137.435174206444 0.984164221417036 138.33860872888  
22.8                           0.984939234045375 129.959817950288 0.00487232082051732 -138.337214555418 0.00487232082051733 -138.33721455542 0.984286578278095 137.429808333401 
22.85                          0.98500542017241 129.115527365004 0.00469567667344693 -139.226076950961 0.00469567667344692 -139.226076950962 0.984399746616437 136.531495923293 
22.9                           0.985065080009604 128.279809436103 0.00452843073791537 -140.102168926663 0.00452843073791537 -140.102168926664 0.984504240271246 135.643289925613 
22.95                          0.98511856614683 127.452373509716 0.00436996673652278 -140.965878778881 0.00436996673652276 -140.965878778882 0.984600538262605 134.764828928226 
23                             0.985166207967895 126.632943452387 0.00421971577042007 -141.817576719428 0.00421971577042007 -141.817576719428 0.984689087538434 133.895770341459 
