! Touchstone file exported from HFSS 3D Layout Design 2026.1.0
!        File:           D:/Work/SIM/ADS_AUTO_SIM/projects/RFSOC_RF/TX_Fillter.aedt
!        Generated:      04:54:48 AM Aug 31, 2026
!        Design:         TX_BAND1_MCFIL_R49_CNN022
!        Project:        TX_Fillter
!
# GHz S MA R 50.000000
! Terminal data exported
! Port[1] = Port1
! Port[2] = Port2
14                             0.973978302472145 -162.511214305296 0.00360244044614322 -177.747987428446 0.00360244044614322 -177.747987428446 0.974395723710438 -162.370144084333 
14.05                          0.973517211895133 -163.378233765451 0.0036701692033609 -178.167541702449 0.00367016920336089 -178.167541702449 0.973948447876121 -163.239216309196 
14.1                           0.973042105996693 -164.250771929035 0.00374099652628669 -178.567053619605 0.00374099652628667 -178.567053619605 0.973487986208872 -164.113586684453 
14.15                          0.972552305960154 -165.128992046983 0.00381516117500409 -178.946055061192 0.00381516117500407 -178.946055061192 0.973013717599782 -164.993404190248 
14.2                           0.972047088348843 -166.013065947194 0.003892924988561 -179.304108426237 0.00389292498856098 -179.304108426237 0.972524981055269 -165.878825527744 
14.25                          0.971525681418649 -166.903174594547 0.00397457539110907 -179.640813519001 0.00397457539110903 -179.640813519001 0.972021072472941 -166.770015612431 
14.3                           0.970987261061796 -167.799508695347 0.00406042818981962 -179.955815223842 0.00406042818981959 -179.955815223843 0.971501241101613 -167.667148105516 
14.35                          0.970430946338362 -168.702269350452 0.00415083070008625 179.751187995376 0.00415083070008623 179.751187995376 0.970964685648953 -168.570405986904 
14.4                           0.969855794546144 -169.611668761804 0.00424616523807431 179.480434743652 0.00424616523807428 179.480434743651 0.970410549995298 -169.47998217369 
14.45                          0.969260795772614 -170.527930997592 0.00434685302588194 179.232090475833 0.0043468530258819 179.232090475833 0.969837918466561 -170.396080188511 
14.5                           0.968644866864826 -171.451292821919 0.00445335856054976 179.006236411184 0.00445335856054972 179.006236411184 0.969245810612633 -171.318914882584 
14.55                          0.968006844743935 -172.382004595491 0.00456619450504062 178.802857602314 0.00456619450504059 178.802857602314 0.968633175430141 -172.248713218797 
14.6                           0.967345478980316 -173.32033125465 0.00468592716727944 178.621830203052 0.00468592716727938 178.621830203052 0.967998884959655 -173.185715120863 
14.65                          0.96665942353286 -174.266553376911 0.00481318264260861 178.462908007593 0.00481318264260858 178.462908007591 0.967341727177282 -174.130174395189 
14.7                           0.965947227541456 -175.220968342193 0.00494865370583997 178.32570836467  0.00494865370583993 178.325708364669 0.966660398088708 -175.082359732963 
14.75                          0.965207325044694 -176.183891600048 0.00509310755178578 178.209697605113 0.00509310755178574 178.209697605113 0.965953492919883 -176.042555800792 
14.8                           0.964438023474832 -177.155658054475 0.00524739449812629 178.114176157932 0.00524739449812624 178.114176157932 0.965219496282288 -177.011064429277 
14.85                          0.963637490758575 -178.136623579383 0.00541245778219523 178.038263567761 0.00541245778219518 178.03826356776  0.964456771171679 -177.988205910025 
14.9                           0.962803740824432 -179.127166679453 0.00558934460432347 177.980883663184 0.00558934460432344 177.980883663183 0.963663546636666 -178.974320412925 
14.95                          0.961934617284629 179.87230968694  0.00577921859548644 177.940750158903 0.00577921859548641 177.940750158902 0.962837903926996 -179.969769536969 
15                             0.961027775020515 178.861376103895 0.0059833739170166 177.916353002069 0.00598337391701657 177.916353002069 0.961977760899929 179.025061990387 
15.05                          0.960080659354034 177.839574491843 0.00620325123611315 177.905945791319 0.00620325123611314 177.905945791319 0.961080854425781 178.009764448444 
15.1                           0.959090482432412 176.806415674819 0.00644045586407215 177.907534602696 0.00644045586407212 177.907534602696 0.960144720489182 176.983901073948 
15.15                          0.95805419638686 175.761376693555 0.00669677839610126 177.918868546431 0.00669677839610125 177.918868546431 0.95916667162946 175.947005805684 
15.2                           0.956968462746352 174.703897832948 0.00697421825411986 177.937432349326 0.00697421825411981 177.937432349326 0.958143771299816 174.898580798543 
15.25                          0.9558296174915  173.633379328086 0.00727501060931388 177.960441206758 0.00727501060931386 177.960441206757 0.957072804648315 173.838093679377 
15.3                           0.954633631017293 172.549177707959 0.00760165725212856 177.984838074525 0.00760165725212852 177.984838074524 0.955950245131272 172.764974513305 
15.35                          0.953376062132584 171.450601730141 0.00795696208713897 178.007293473484 0.00795696208713892 178.007293473483 0.954772216257681 171.678612444891 
15.4                           0.952052005052514 170.336907853092 0.00834407206287421 178.024207760317 0.00834407206287417 178.024207760317 0.953534447627419 170.578351973895 
15.45                          0.95065602813045 169.207295185055 0.00876652450713167 178.031715678519 0.00876652450713167 178.031715678519 0.952232224260313 169.463488819908 
15.5                           0.949182102818985 168.060899839793 0.00922830203270707 178.025692849034 0.00922830203270705 178.025692849034 0.950860328010583 168.333265324159 
15.55                          0.947623521033255 166.896788619436 0.00973389641433159 178.001763695408 0.00973389641433158 178.001763695408 0.949412969612566 167.186865330068 
15.6                           0.945972798699403 165.71395193349  0.0102883831243306 177.955310130248 0.0102883831243306 177.955310130248 0.947883709597501 166.023408476687 
15.65                          0.944221562787063 164.511295850411 0.01089750856377 177.881480164672 0.0108975085637699 177.881480164672 0.946265365942824 164.841943831181 
15.7                           0.942360418522972 163.287633164188 0.0115677924521894 177.775195446291 0.0115677924521893 177.775195446291 0.944549905846252 163.641442777966 
15.75                          0.94037879273171 162.041673343249 0.0123066483605692 177.631156588603 0.0123066483605692 177.631156588603 0.942728318433216 162.42079107347  
15.8                           0.938264748309002 160.77201121298  0.0131225260114946 177.443845027741 0.0131225260114946 177.443845027741 0.940790464477529 161.178779967228 
15.85                          0.936004763651229 159.477114207157 0.0140250797555342 177.20752003083  0.0140250797555342 177.20752003083  0.938724898302841 159.914096282998 
15.9                           0.93358346937544 158.155308008769 0.0150253685980934 176.916209379713 0.0150253685980933 176.916209379713 0.936518655886964 158.625311349499 
15.95                          0.930983332782112 156.804760389572 0.0161360943385255 176.563692157205 0.0161360943385254 176.563692157205 0.934157001749687 157.310868671403 
16                             0.928184278129224 155.423463053902 0.0173718858438009 176.143471959303 0.0173718858438008 176.143471959303 0.931623125387358 155.969070241415 
16.05                          0.9251632277624  154.009211302237 0.0187496392724225 175.648738732052 0.0187496392724224 175.648738732052 0.928897775724312 154.598061419505 
16.1                           0.921893545307398 152.559581363646 0.0202889262590039 175.072317269618 0.0202889262590038 175.072317269618 0.925958819157638 153.195814355137 
16.15                          0.918344357261634 151.071905319937 0.0220124847401232 174.40660019263  0.0220124847401231 174.40660019263  0.922780703127178 151.760110017218 
16.2                           0.914479723158706 149.543243683636 0.0239468103201843 173.643462934913 0.0239468103201843 173.643462934913 0.919333802569977 150.288519047469 
16.25                          0.910257616720719 147.970355938215 0.0261228698970062 172.774157885923 0.0261228698970061 172.774157885923 0.91558362092336 148.778381901467 
16.3                           0.905628670732646 146.349669767637 0.0285769636974083 171.789184354018 0.0285769636974082 171.789184354019 0.91148981033495 147.226789143539 
16.35                          0.900534626479977 144.677250398152 0.0313517668135938 170.678130431097 0.0313517668135938 170.678130431097 0.907004967295384 145.630563403916 
16.4                           0.894906414351771 142.948772615966 0.0344975864708193 169.429482170968 0.0344975864708193 169.429482170969 0.902073150083155 143.98624552563  
16.45                          0.888661775908425 141.159499879029 0.0380738758862377 168.030394798293 0.0380738758862377 168.030394798293 0.896628053667063 142.29008903852  
16.5                           0.881702320559299 139.304277942693 0.0421510482623381 166.466420065539 0.042151048262338 166.466420065539 0.890590767379142 140.538069634435 
16.55                          0.873909895124644 137.377555265303 0.0468126324706666 164.721183615829 0.0468126324706666 164.721183615829 0.883867033790354 138.725920307328 
16.6                           0.865142138900065 135.373450275975 0.0521578003551526 162.776006743521 0.0521578003551526 162.776006743521 0.876343930112812 136.849209083856 
16.65                          0.855227114594808 133.285898182465 0.0583042655428091 160.609469087009 0.0583042655428092 160.609469087009 0.867885918554798 134.903486066343 
16.7                           0.843956974411028 131.108930262603 0.0653914901212509 158.196913962326 0.065391490121251 158.196913962326 0.858330282947045 132.884541743627 
16.75                          0.831080792871728 128.837171069752 0.0735840134575266 155.509908666455 0.0735840134575267 155.509908666456 0.847482128927833 130.788841957357 
16.8                           0.816297069207779 126.466690665065 0.0830744968203632 152.515692108376 0.0830744968203633 152.515692108376 0.835109450835453 128.614240257686 
16.85                          0.799247139651109 123.996430008082 0.0940856986167714 149.176677765275 0.0940856986167715 149.176677765275 0.82093939061604 126.361119869146 
16.9                           0.779512122267938 121.430541219133 0.106869978565855 145.450140203649 0.106869978565856 145.450140203649 0.804657939313911 124.034187734099 
16.95                          0.756618467526207 118.782163466616 0.121703994276011 141.288309539419 0.121703994276011 141.288309539419 0.785917249880434 121.645226603049 
17                             0.730061247093681 116.079388660888 0.13887498576808 136.639239957163 0.13887498576808 136.639239957163 0.76435774346289 119.217177377755 
17.05                          0.699360385573935 113.374402779304 0.158653666871254 131.449001795944 0.158653666871254 131.449001795944 0.73965631240387 116.789878852271 
17.1                           0.664172545643934 110.75679868     0.181248067139029 125.665925963125 0.181248067139029 125.665925963125 0.711616027055586 114.427403084647 
17.15                          0.624486675351439 108.371205376348 0.206734578255441 119.247667555443 0.206734578255441 119.247667555443 0.680312776047849 112.225712951624 
17.2                           0.580923716937569 106.436097563673 0.234970080739539 112.171472672954 0.234970080739539 112.171472672954 0.646300618489906 110.316584566978 
17.25                          0.535118365665954 105.25180607839  0.265505177143531 104.446842730813 0.265505177143531 104.446842730813 0.610834838880704 108.858904547162 
17.3                           0.490050286517873 105.167756451839 0.297540537328963 96.1276171456762 0.297540537328963 96.1276171456762 0.575990179237012 108.003612953376 
17.35                          0.450000916787661 106.458692979926 0.329980559496761 87.3180629617321 0.329980559496761 87.3180629617321 0.544465883479447 107.822734606579 
17.4                           0.419661463689842 109.087085002156 0.361614678626709 78.1669970231905 0.361614678626709 78.1669970231905 0.518905495033091 108.221533612201 
17.45                          0.402245687691683 112.492850650955 0.391387298564384 68.847633006037  0.391387298564385 68.847633006037  0.500871591254104 108.900797307322 
17.5                           0.397631067578126 115.726490130386 0.418644831099923 59.5281213650913 0.418644831099923 59.5281213650913 0.490069078882246 109.437998633403 
17.55                          0.402291116922854 117.950513096059 0.44324485299573 50.3435294893449 0.443244852995731 50.3435294893449 0.484422608227476 109.454547249078 
17.6                           0.411166582473252 118.810133807625 0.465493704041366 41.3791293618557 0.465493704041367 41.3791293618556 0.480935964889078 108.741052136744 
17.65                          0.419671349545118 118.384520533374 0.485972884591538 32.6681594978271 0.485972884591539 32.668159497827  0.476665759942021 107.267363812182 
17.7                           0.424589523535097 116.953959890469 0.505346675707047 24.200507178452  0.505346675707047 24.2005071784518 0.469288391697475 105.119422577476 
17.75                          0.42405072425425 114.831759363169 0.524213050020384 15.9362214553244 0.524213050020384 15.9362214553242 0.457222098127811 102.433483625942 
17.8                           0.417178038643748 112.301942518252 0.543014076339612 7.81902663766243 0.543014076339612 7.81902663766224 0.439514500800711 99.3598801197229 
17.85                          0.403762185435299 109.619428006942 0.561994301139786 -0.212496665712492 0.561994301139785 -0.212496665712611 0.415686699420702 96.0562050762592 
17.9                           0.384072864353949 107.036683444674 0.581189677348993 -8.21648689564052 0.581189677348993 -8.21648689564062 0.385629653436766 92.7021431744239 
17.95                          0.358812295892837 104.841362880253 0.600435376576723 -16.241690446663 0.600435376576722 -16.241690446663 0.349582594816484 89.5338522608464 
18                             0.329191201804559 103.40010676467  0.619388915410341 -24.3231252638416 0.61938891541034 -24.3231252638416 0.308200534681149 86.9073104468755 
18.05                          0.297109638468779 103.201129761974 0.63757046493032 -32.4792596650984 0.63757046493032 -32.4792596650984 0.262732908445919 85.4201514244042 
18.1                           0.265414232292533 104.861372488955 0.654422931167272 -40.7107958270935 0.654422931167272 -40.7107958270935 0.215407593268606 86.1591654579575 
18.15                          0.238104477399587 108.987441332026 0.669390044797969 -49.0013527040268 0.669390044797969 -49.0013527040268 0.170314079054578 91.1606928104151 
18.2                           0.220035705962517 115.694560304727 0.682002872290744 -57.3202702405945 0.682002872290744 -57.3202702405945 0.135290406364162 103.615560260959 
18.25                          0.215327231341883 123.898301223494 0.691957773271912 -65.6273856329399 0.691957773271913 -65.6273856329399 0.122710237742334 124.060836368495 
18.3                           0.22483191123308 131.459281348321 0.699166844048262 -73.8791033593722 0.699166844048263 -73.8791033593722 0.138662346439669 143.230132957062 
18.35                          0.245473695923748 136.655086978576 0.703768096295866 -82.0346592631106 0.703768096295866 -82.0346592631106 0.173195815168542 153.770628192014 
18.4                           0.272459767910786 139.074223016543 0.706094905313588 -90.0614077110748 0.706094905313588 -90.0614077110748 0.21438740095277 157.492323510073 
18.45                          0.301533146337995 139.142777596901 0.706616461782816 -97.9382936163548 0.706616461782816 -97.9382936163549 0.255722970052911 157.395139843354 
18.5                           0.329707418769697 137.466258530813 0.705867196335598 -105.657237190563 0.705867196335598 -105.657237190563 0.294125750264725 155.235058261436 
18.55                          0.355124642473137 134.54736600104  0.704381722003884 -113.22269227079 0.704381722003884 -113.22269227079 0.328149453419688 151.925913407188 
18.6                           0.376730186480212 130.739785596387 0.702645412011353 -120.649949397875 0.702645412011352 -120.649949397875 0.357168074889575 147.953216439338 
18.65                          0.393999188998775 126.274368250521 0.701063469396109 -127.962808068677 0.701063469396109 -127.962808068677 0.381006618526767 143.584615456972 
18.7                           0.406745474012875 121.293587920436 0.699946162473957 -135.191119782753 0.699946162473957 -135.191119782753 0.399750279539362 138.971293815239 
18.75                          0.414997500547498 115.878616074793 0.699505591924725 -142.36851598736 0.699505591924725 -142.36851598736 0.413636722834348 134.198833404407 
18.8                           0.418923257357645 110.067973685911 0.699859280872819 -149.530464603781 0.699859280872819 -149.530464603781 0.422994584107348 129.314102234858 
18.85                          0.418790429962988 103.869753370224 0.701036977944191 -156.712682324034 0.701036977944191 -156.712682324034 0.428211107281035 124.339988022827 
18.9                           0.414952151655596 97.269445668427  0.702988477142991 -163.949870864772 0.702988477142991 -163.949870864772 0.429719013419918 119.283401971516 
18.95                          0.407851352342216 90.2349683437815 0.705591494322946 -171.274731456981 0.705591494322946 -171.274731456981 0.427995625924967 114.1391023047   
19                             0.398038265432933 82.7202220891376 0.708659484607747 -178.717226497753 0.708659484607747 -178.717226497753 0.423568587356635 108.890526968476 
19.05                          0.386196124550033 74.6685362401703 0.711949671878003 173.695915386605 0.711949671878003 173.695915386605 0.417023144655675 103.508189147409 
19.1                           0.37316939469113 66.017762743543  0.715171487213376 165.941429453745 0.715171487213374 165.941429453745 0.409006541704609 97.9460026608111 
19.15                          0.359986799864187 56.7094239032652 0.71799512528154 157.999450368057 0.717995125281538 157.999450368057 0.400226176445469 92.1361196407395 
19.2                           0.347867758116384 46.7046918815827 0.72005916528228 149.85314600773  0.720059165282277 149.85314600773  0.391440514722405 85.983509158873  
19.25                          0.338196401662267 36.0086657703686 0.720975455181351 141.488107152191 0.720975455181346 141.488107152191 0.383445584536292 79.3625442729933 
19.3                           0.332445855150446 24.6992058526069 0.720329188995389 132.891660524785 0.720329188995384 132.891660524785 0.377064297430372 72.1190264163341 
19.35                          0.3320447902559  12.9469874205035 0.717672905359558 124.052416819356 0.717672905359552 124.052416819356 0.373147895828457 64.0817426082629 
19.4                           0.338204758378103 1.00618227051141 0.712515562621925 114.960513120065 0.71251556262192 114.960513120065 0.372593597841955 55.0868909646713 
19.45                          0.351758557954855 -10.8356524741516 0.704312166912094 105.609104193712 0.70431216691209 105.609104193713 0.376365897174906 45.0154626051156 
19.5                           0.373062170160255 -22.3310961756731 0.692465169352192 95.9976110032661 0.692465169352188 95.9976110032664 0.385484009551603 33.8371757845058 
19.55                          0.401968359160798 -33.3295334042886 0.67635406850794 86.1369273604226 0.676354068507938 86.1369273604228 0.400921988671758 21.645892297795  
19.6                           0.437831727371867 -43.7876161060452 0.655410145848632 76.0561015682955 0.655410145848632 76.0561015682955 0.423390087880065 8.66645996091541 
19.65                          0.479511450106772 -53.7374018293513 0.629242882724034 65.8089584035189 0.629242882724033 65.8089584035188 0.453039948059209 -4.77869382576586 
19.7                           0.525392859226142 -63.2380782994528 0.597799279836265 55.4780467999002 0.597799279836264 55.4780467998999 0.489223000663157 -18.332192376158 
19.75                          0.573488936539213 -72.3362337424741 0.561503581001523 45.17297006466   0.561503581001521 45.1729700646594 0.530450541738418 -31.6641584043097 
19.8                           0.621659435662665 -81.0468746606907 0.52130573884127 35.021439546761  0.521305738841265 35.0214395467602 0.574616658920476 -44.5103698834358 
19.85                          0.667910760727577 -89.3547830063   0.478589338592832 25.1542945235696 0.478589338592825 25.1542945235688 0.619408210847463 -56.6831094969556 
19.9                           0.710675102231721 -97.2282158744446 0.43495365238629 15.6887413423181 0.434953652386282 15.6887413423173 0.662737071245633 -68.0656642639906 
19.95                          0.7489687944274  -104.63518409975 0.391948698741113 6.71504374894843 0.391948698741103 6.71504374894769 0.703041347092952 -78.6010144958664 
20                             0.782394625108673 -111.55533108034 0.350858227135211 -1.70991488638471 0.350858227135202 -1.70991488638525 0.73939030988611 -88.2794234933443 
20.05                          0.811025778507195 -117.984988018657 0.312587053237912 -9.56196154256351 0.312587053237902 -9.56196154256378 0.77142321616351 -97.1261518931084 
20.1                           0.835241810147539 -123.936545296988 0.277653040149876 -16.8440536400105 0.277653040149867 -16.8440536400105 0.799200480628471 -105.189923303772 
20.15                          0.855575701172757 -129.434692606436 0.246248099747497 -23.5786752136812 0.246248099747489 -23.578675213681 0.823040881582025 -112.532937732641 
20.2                           0.872601115983305 -134.51181395365 0.218326553221566 -29.8004511860347 0.218326553221559 -29.8004511860342 0.843387737304063 -119.22304730365 
20.25                          0.886863642119848 -139.203905986493 0.193691126599007 -35.5501551380575 0.193691126599002 -35.5501551380569 0.86071726484812 -125.32824161024 
20.3                           0.898846926977765 -143.547546851425 0.172062190409226 -40.8704191857474 0.172062190409222 -40.8704191857467 0.875484865630871 -130.913179046886 
20.35                          0.908961701470099 -147.577929013484 0.15312697701605 -45.8029686784705 0.153126977016046 -45.8029686784697 0.88809890735846 -136.037299591081 
20.4                           0.917547636544985 -151.327748568326 0.136571218905453 -50.3870265769105 0.13657121890545 -50.3870265769098 0.898911781749688 -140.754036369882 
20.45                          0.924881190928776 -154.82669930062 0.122097515798876 -54.6585289607944 0.122097515798874 -54.6585289607937 0.9082205466714  -145.110722528537 
20.5                           0.931185403791332 -158.101354354625 0.10943460969574 -58.649860570447 0.109434609695739 -58.6498605704463 0.916272150332643 -149.14889677269 
20.55                          0.936639525947274 -161.175274715261 0.0983408826192913 -62.3898998713099 0.0983408826192902 -62.3898998713094 0.923270311380141 -152.904808269001 
20.6                           0.94138756087496 -164.069236006575 0.0886044365257471 -65.9042324782103 0.0886044365257463 -65.9042324782098 0.929382505115144 -156.409996434318 
20.65                          0.945545430803485 -166.801505330202 0.0800413191072446 -69.2154435872057 0.0800413191072441 -69.2154435872054 0.934746333059909 -159.691873272808 
20.7                           0.949206798883739 -169.388127838314 0.0724928759147686 -72.343435755357 0.0724928759147682 -72.3434357553568 0.939475012124625 -162.774269815847 
20.75                          0.952447710084844 -171.843200961872 0.0658228125187432 -75.305741653973 0.0658228125187428 -75.305741653973 0.943661954304216 -165.677929070131 
20.8                           0.955330250012287 -174.179125509445 0.0599142941346228 -78.1178159871145 0.0599142941346225 -78.1178159871148 0.94738451483156 -168.420940037968 
20.85                          0.957905413011374 -176.406829533698 0.0546672511725759 -80.7932995395138 0.0546672511725756 -80.7932995395141 0.950707025415978 -171.019114025942 
20.9                           0.960215345630755 -178.535964612827 0.04999596425451 -83.3442533868356 0.0499959642545097 -83.3442533868361 0.953683233890337 -173.486307764   
20.95                          0.962295102090206 179.424923851906 0.0458269479560469 -85.7813640736672 0.0458269479560466 -85.7813640736678 0.956358261089303 -175.834699209745 
21                             0.964174020777237 177.46824983128  0.042097123257305 -88.1141219522908 0.0420971232573048 -88.1141219522915 0.958770169888413 -178.075022178197 
21.05                          0.965876807178984 175.587260580219 0.0387522543777794 -90.3509754526077 0.038752254377779 -90.3509754526086 0.960951224832811 179.783234362647 
21.1                           0.967424389433791 173.775928534432 0.0357456200341243 -92.4994641745434 0.0357456200341239 -92.4994641745442 0.962928905773374 177.731657050594 
21.15                          0.968834597486088 172.02885866464  0.0330368883398456 -94.5663335725807 0.0330368883398452 -94.5663335725816 0.964726726130829 175.762764311846 
21.2                           0.970122705013524 170.34120903449  0.030591166251062 -96.5576337639996 0.0305911662510616 -96.5576337640004 0.966364895889922 173.869883983073 
21.25                          0.971301864206583 168.70862259612  0.0283781972997603 -98.4788047103623 0.02837819729976 -98.4788047103631 0.967860860966887 172.047048986425 
21.3                           0.972383456529482 167.12716853273  0.0263716845783155 -100.334749735777 0.0263716845783153 -100.334749735778 0.969229743880562 170.288908201541 
21.35                          0.973377377288776 165.593291707471 0.0245487191315288 -102.129899076145 0.0245487191315286 -102.129899076145 0.9704847053723  168.590650137852 
21.4                           0.974292267793758 164.103768998074 0.0228892968678363 -103.868264910307 0.0228892968678361 -103.868264910308 0.971637242476591 166.947937401432 
21.45                          0.9751357058081  162.655671486567 0.0213759097319968 -105.553489109851 0.0213759097319965 -105.553489109851 0.972697435302667 165.356850280149 
21.5                           0.975914362633316 161.246331635395 0.0199931991663032 -107.188884758796 0.019993199166303 -107.188884758797 0.973674152251538 163.813838046504 
21.55                          0.976634133355634 159.873314718128 0.0187276618399876 -108.777472335502 0.0187276618399874 -108.777472335503 0.974575221407243 162.315676807307 
21.6                           0.97730024539565 158.53439388812  0.01756739927735 -110.32201131385 0.0175673992773499 -110.32201131385 0.97540757428327 160.859432920265 
21.65                          0.977917349424537 157.227528365019 0.0165019044007783 -111.82502782625 0.0165019044007783 -111.82502782625 0.976177366879807 159.442431156109 
21.7                           0.978489595876015 155.950844299829 0.0155218791622374 -113.288838934247 0.0155218791622374 -113.288838934247 0.976890082040825 158.062226916502 
21.75                          0.979020699632938 154.70261794688  0.0146190784005786 -114.71557397087 0.0146190784005786 -114.71557397087 0.977550616334873 156.716581927285 
21.8                           0.97951399495816 153.481260827607 0.0137861758630924 -116.107193350045 0.0137861758630924 -116.107193350044 0.978163354075653 155.403442917488 
21.85                          0.979972482338873 152.285306618445 0.0130166489949503 -117.465505180325 0.0130166489949503 -117.465505180325 0.978732230613837 154.120922870242 
21.9                           0.980398868597133 151.113399534904 0.0123046796525025 -118.792179971222 0.0123046796525026 -118.792179971221 0.979260786643714 152.867284494814 
21.95                          0.980795601368011 149.964284017242 0.0116450683551195 -120.088763678967 0.0116450683551196 -120.088763678967 0.979752214956633 151.640925621782 
22                             0.981164898846371 148.836795551278 0.0110331600715496 -121.356689303544 0.0110331600715497 -121.356689303544 0.980209400821812 150.440366267526 
22.05                          0.981508775542679 147.729852481548 0.0104647798540118 -122.597287219095 0.0104647798540119 -122.597287219095 0.980634956971608 149.264237151301 
22.1                           0.981829064658905 146.642448694059 0.00993617689756256 -123.811794394605 0.00993617689756274 -123.811794394605 0.981031254002858 148.111269479394 
22.15                          0.982127437591047 145.573647062814 0.00944397582281674 -125.001362640323 0.00944397582281692 -125.001362640323 0.981400446870966 146.980285837139 
22.2                           0.982405420979851 144.52257356871  0.00898513416442675 -126.167065997082 0.00898513416442696 -126.167065997081 0.981744498042857 145.870192051853 
22.25                          0.982664411662046 143.488412011639 0.00855690520204061 -127.309907370079 0.00855690520204082 -127.309907370078 0.982065197784082 144.779969908594 
22.3                           0.982905689817633 142.470399247077 0.00815680539989123 -128.430824495333 0.00815680539989143 -128.430824495333 0.982364181980399 143.708670616655 
22.35                          0.983130430562134 141.46782088737  0.00778258582993255 -129.530695315562 0.00778258582993278 -129.530695315562 0.982642947832138 142.655408938358 
22.4                           0.983339714194104 140.480007415592 0.00743220704500767 -130.610342832407 0.00743220704500789 -130.610342832407 0.982902867708127 141.619357903347 
22.45                          0.983534535276313 139.506330666404 0.00710381694577785 -131.670539493474 0.00710381694577807 -131.670539493474 0.983145201403022 140.599744041533 
22.5                           0.98371581070238 138.546200634032 0.00679573125042962 -132.712011165351 0.00679573125042984 -132.71201116535 0.983371107005981 139.5958430764   
22.55                          0.983884386878445 137.599062572324 0.00650641623146346 -133.735440737463 0.00650641623146365 -133.735440737463 0.983581650558511 138.606976027707 
22.6                           0.984041046130858 136.66439435611  0.00623447343078272 -134.741471396194 0.00623447343078291 -134.741471396194 0.983777814654016 137.63250567895  
22.65                          0.98418651243522 135.741704076717 0.0059786261041833 -135.730709603939 0.00597862610418347 -135.730709603939 0.983960506110156 136.671833370408 
22.7                           0.984321456548882 134.830527847687 0.00573770718031807 -136.703727813676 0.00573770718031824 -136.703727813676 0.984130562827096 135.724396083326 
22.75                          0.984446500617872 133.930427799494 0.00551064854820368 -137.661066946078 0.00551064854820382 -137.661066946078 0.984288759929332 134.789663784858 
22.8                           0.984562222319675 133.040990244494 0.00529647151212767 -138.603238653038 0.00529647151212778 -138.603238653037 0.984435815275762 133.867137006994 
22.85                          0.984669158595276 132.161823995418 0.00509427827405019 -139.530727388803 0.00509427827405029 -139.530727388803 0.984572394411492 132.956344635744 
22.9                           0.984767809016896 131.29255882259  0.00490324432182139 -140.443992307518 0.00490324432182146 -140.443992307518 0.98469911502539 132.056841889588 
22.95                          0.98485863883202 130.432844036649 0.00472261161720457 -141.343469003899 0.00472261161720459 -141.343469003898 0.984816550969155 131.168208468552 
23                             0.984942081719161 129.582347184991 0.0045516824911924 -142.229571111928 0.0045516824911924 -142.229571111928 0.984925235886741 130.290046857327 
