! Touchstone file exported from HFSS 3D Layout Design 2026.1.0
!        File:           D:/Work/ADS/HFSS_VERDICT/hfss_sma_connector_cpw.aedt
!        Generated:      05:07:42 PM Aug  5, 2026
!        Design:         SINGLE_END_SMA_CPW_30MM
!        Project:        hfss_sma_connector_cpw
!
! Variables:
!        $sma_Base_D = 6.25mm
!        $sma_Base_L = 8mm
!        $sma_Feet_L = 4mm
!        $sma_Feet_W = 1mm
!        $sma_Front_L = 1.5mm
!        $sma_Front_W = 6.5mm
!        $sma_Hole_D = 1.25mm
!        $sma_PTFE_D = 4.2mm
!        $sma_Pin_D = 0.95mm
!        $sma_Pin_P = 1.7mm
!
# GHz S MA R 50.000000
! Terminal data exported
! Port[1] = Port1
! Port[2] = S1_1_Pin_T1
0.5                            0.0758541900408781 -139.098591700637 0.987004476592694 -42.1377688940333 0.987004476592695 -42.1377688940332 0.0763570096769072 -126.969475997749 
0.6                            0.0883911828868063 -148.984852968279 0.984385894836356 -50.459985641125 0.984385894836357 -50.459985641125 0.0888180280686038 -134.148165335866 
0.7                            0.0997202329792766 -158.867328895214 0.981817787927863 -58.7603985117507 0.981817787927863 -58.7603985117507 0.0999952090526368 -141.145984995892 
0.8                            0.109749699032969 -168.782534996871 0.979326516481447 -67.0417685293835 0.979326516481447 -67.0417685293835 0.109811167218714 -147.961731138664 
0.9                            0.1184090637886  -178.763614300153 0.976941782475736 -75.3064532118846 0.976941782475736 -75.3064532118846 0.118215349558553 -154.587941394445 
1                              0.125651157522736 171.156897765968 0.974693305271487 -83.5569462369055 0.974693305271488 -83.5569462369055 0.125183503279743 -161.01101796198 
1.1                            0.131454610933248 160.945019627005 0.972606155990162 -91.796054328836 0.972606155990163 -91.796054328836 0.130719166535372 -167.211084181482 
1.2                            0.135826219659212 150.563706257286 0.970697027152544 -100.026870823573 0.970697027152544 -100.026870823573 0.134856252373118 -173.161873716754 
1.3                            0.138803350520731 139.971552761302 0.96897193418755 -108.252648488483 0.96897193418755 -108.252648488483 0.137662121155992 -178.83073847082 
1.4                            0.140456654223249 129.121795315415 0.967425266962466 -116.476631607775 0.967425266962466 -116.476631607775 0.139240827219757 175.821087133656 
1.5                            0.140893314797243 117.961709512103 0.966039957360779 -124.701881904595 0.966039957360779 -124.701881904595 0.139736359345202 170.837678011683 
1.6                            0.140260920795245 106.432692393087 0.964788515191356 -132.931118315908 0.964788515191357 -132.931118315908 0.139335623553574 166.266574126778 
1.7                            0.138751771263861 94.4715855507514 0.9636347097729  -141.166582172519 0.9636347097729  -141.166582172519 0.138270604593889 162.155181488562 
1.8                            0.136606956985947 82.0141499532051 0.96253570506548 -149.409934213842 0.96253570506548 -149.409934213842 0.13681855998107 158.544549635817 
1.9                            0.134118780600331 69.0019456292955 0.961444481766466 -157.66218659443 0.961444481766466 -157.66218659443 0.135298289444556 155.459818369364 
2                              0.131628952226866 55.3938953497981 0.960312398236277 -165.923670793375 0.960312398236277 -165.923670793375 0.134059747156465 152.897500947013 
2.1                            0.1295187570963  41.1828822323057 0.959091754771406 -174.194040648717 0.959091754771406 -174.194040648717 0.133464200440755 150.811733618198 
2.2                            0.128186923656709 26.415039452597  0.957738235401566 177.52769165784  0.957738235401566 177.52769165784  0.13385384421538 149.104392816386 
2.3                            0.128012908818557 11.2049461293217 0.956213111318603 169.243090074696 0.956213111318602 169.243090074696 0.135513950200723 147.625795543605 
2.4                            0.129309228372232 -4.26365771752578 0.95448510319164 160.954204125641 0.95448510319164 160.954204125641 0.13863608502958 146.190653591328 
2.5                            0.132274833963249 -19.7595251467996 0.952531817984918 152.663458779948 0.952531817984919 152.663458779948 0.143293941106179 144.606998210237 
2.6                            0.136966256670379 -35.0446323822455 0.950340700103977 144.37353090523  0.950340700103977 144.37353090523  0.149440189926788 142.707990228861 
2.7                            0.143297952531486 -49.9178901202761 0.947909465873407 136.087218849863 0.947909465873407 136.087218849863 0.156924336858949 140.374607703975 
2.8                            0.151069891712982 -64.2435534011339 0.945246022279512 127.807311713742 0.945246022279512 127.807311713742 0.165523575810285 137.543005135172 
2.9                            0.160009172650071 -77.9567889014738 0.94236790250005 119.536464478652 0.94236790250005 119.536464478652 0.174976150643102 134.198509371098 
3                              0.169810835645991 -91.0517425706781 0.939301278660653 111.277084409866 0.939301278660655 111.277084409866 0.185009581358068 130.362681712429 
3.1                            0.180168997050845 -103.562629772626 0.93607963360701 103.031233083195 0.93607963360701 103.031233083195 0.195360711092259 126.079504434105 
3.2                            0.190796359811415 -115.546007364756 0.932742186342877 94.8005471476045 0.932742186342877 94.8005471476044 0.205787930108097 121.404099427411 
3.3                            0.201434192898949 -127.067765550174 0.92933216951019 86.5861796307861 0.929332169510192 86.5861796307861 0.216077405753329 116.394940113597 
3.4                            0.211855949472872 -138.195075169439 0.925895052517939 78.388762358873  0.92589505251794 78.3887623588729 0.226045295197164 111.109164287176 
3.5                            0.221867228304823 -148.992141837645 0.922476792345884 70.2083889955624 0.922476792345884 70.2083889955623 0.235537516484758 105.600155523845 
3.6                            0.231303924893652 -159.518435395172 0.919122177988338 62.0446173809896 0.919122177988337 62.0446173809896 0.244428175654907 99.9165974275069 
3.7                            0.240029687230086 -169.828347956193 0.9158733164933  53.8964892991883 0.915873316493301 53.8964892991883 0.252617372261978 94.1023998417049 
3.8                            0.247933302338865 -179.971587784802 0.912768290934698 45.7625655212348 0.912768290934697 45.7625655212347 0.260028854760097 88.1970946317724 
3.9                            0.254926352495026 170.006103376027 0.909840005308446 37.6409739259859 0.909840005308446 37.6409739259858 0.266607839029018 82.2364501462845 
4                              0.260941324238568 160.062135769487 0.907115219546633 29.5294686381453 0.907115219546633 29.5294686381452 0.272319200711529 76.2531542507331 
4.1                            0.265930272851153 150.156274974386 0.904613770265721 21.4254983796753 0.90461377026572 21.4254983796753 0.277146177738883 70.2774769847538 
4.2                            0.269864103527699 140.249917695501 0.9023479696259  13.3262825378179 0.902347969625898 13.3262825378179 0.281089656989271 64.3378578481911 
4.3                            0.272732506519921 130.305465876632 0.900322175459233 5.22889374668092 0.90032217545923 5.22889374668094 0.284168059590644 58.4613791323184 
4.4                            0.274544564060005 120.285816212889 0.898532529962136 -2.86965399816819 0.898532529962133 -2.86965399816809 0.286417778366869 52.674092182169  
4.5                            0.27533002284744 110.153986491294 0.896966870812015 -10.9723125699673 0.896966870812012 -10.9723125699672 0.287894055795903 47.0011624333604 
4.6                            0.275141189176877 99.8729144567028 0.895604826393028 -19.081903219292 0.895604826393024 -19.0819032192918 0.288672120001514 41.4667948828018 
4.7                            0.27405534535997 89.4054876799136 0.894418114510992 -27.201017535745 0.894418114510988 -27.201017535745 0.288848319053743 36.0938977189532 
4.8                            0.27217749518637 78.7148929478439 0.893371069941934 -35.3319174822902 0.893371069941931 -35.33191748229  0.288540911515406 30.9034425439938 
4.9                            0.269643110939477 67.7654076648839 0.892421428672472 -43.4764367762892 0.892421428672468 -43.4764367762891 0.287890089362622 25.9134910716594 
5                              0.266620365397166 56.5237848954824 0.891521394167507 -51.6358867513992 0.891521394167503 -51.635886751399 0.287056741616081 21.137888192206  
5.1                            0.26331109047408 44.9613893490309 0.890619002500126 -59.8109708745718 0.890619002500124 -59.8109708745716 0.286219438597196 16.5846777778365 
5.2                            0.259949437632562 33.0571912467075 0.889659789104965 -68.0017132326403 0.889659789104965 -68.0017132326402 0.285569166814181 12.2543843083337 
5.3                            0.256797002490439 20.8015736952558 0.888588742419995 -76.2074073359145 0.888588742419995 -76.2074073359144 0.285301521112358 8.13841260030216 
5.4                            0.254133168920623 8.20061689532401 0.887352511618604 -84.4265920852138 0.887352511618606 -84.4265920852139 0.285606403170998 4.2179222786085  
5.5                            0.252239844198964 -4.71990219292988 0.885901817129532 -92.6570610861695 0.885901817129535 -92.6570610861694 0.286655781934145 0.463583790355472 
5.6                            0.25138079671656 -17.9119920165049 0.88419398725717 -100.895909189021 0.884193987257176 -100.895909189021 0.288590662727811 -3.16343960354475 
5.7                            0.251777464974084 -31.305788050295 0.882195501736437 -109.139616518483 0.882195501736439 -109.139616518483 0.291508917345238 -6.70914871815794 
5.8                            0.253584947880631 -44.8137375520549 0.879884364033028 -117.38416679127 0.879884364033031 -117.38416679127 0.295455829098041 -10.2231960051156 
5.9                            0.256873035564286 -58.3385350215074 0.877252074004959 -125.625194984685 0.877252074004963 -125.625194984685 0.300418942816046 -13.7547333606094 
6                              0.261616700700108 -71.7833221905371 0.874304969749524 -133.858159408696 0.874304969749526 -133.858159408696 0.306328087257471 -17.348354908151 
6.1                            0.267698245750548 -85.061708404935 0.871064768053065 -142.078533136025 0.871064768053065 -142.078533136025 0.313060466339807 -21.0408440754355 
6.2                            0.274920167319652 -98.1052547873539 0.867568232392655 -150.282007999587 0.867568232392654 -150.282007999587 0.3204498169858  -24.8591903063071 
6.3                            0.283025211693052 -110.867139081916 0.863865995218288 -158.464701419222 0.863865995218286 -158.464701419222 0.328298074129379 -28.8199919813658 
6.4                            0.291719089141782 -123.322102781856 0.860020633782974 -166.623353959391 0.860020633782972 -166.623353959391 0.336387864929172 -32.9300507047044 
6.5                            0.300691913428906 -135.463759708376 0.856104145504512 -174.755505082255 0.856104145504508 -174.755505082256 0.344494395966234 -37.1877808787858 
6.6                            0.309635909434424 -147.300632400504 0.85219499680737 177.140363852856 0.852194996807367 177.140363852856 0.352395730464036 -41.5850217769933 
6.7                            0.318258463081773 -158.852041386211 0.848374931950143 169.064727375611 0.848374931950139 169.064727375611 0.359880916332793 -46.1089048983892 
6.8                            0.326290694967837 -170.14452641691 0.844725725144136 161.016959075915 0.844725725144135 161.016959075915 0.366755820043397 -50.7435389121936 
6.9                            0.333492327951471 178.790926747885 0.84132604059331 152.995321417463 0.84132604059331 152.995321417464 0.37284680961973 -55.4713827365392 
7                              0.339653809579729 167.920846404499 0.838248534178094 144.99700055873  0.838248534178094 144.99700055873  0.378002616207412 -60.2742613261997 
7.1                            0.344596609861527 157.210544207971 0.835557293043173 137.01818227187  0.835557293043172 137.01818227187  0.382094806461385 -65.1340336902378 
7.2                            0.348172473632422 146.624853330762 0.833305671633088 129.054163417714 0.833305671633088 129.054163417714 0.385017335477415 -70.0329533452281 
7.3                            0.350262240709223 136.128483285011 0.831534549958509 121.099492362698 0.831534549958512 121.099492362698 0.386685634008885 -74.9537755473723 
7.4                            0.350774691010281 125.686108662876 0.830271015125216 113.148131054912 0.830271015125216 113.148131054912 0.387035620277965 -79.8796700384136 
7.5                            0.349645736541325 115.262276508901 0.829527450913037 105.193631018568 0.82952745091304 105.193631018568 0.386022918991854 -84.7939970944032 
7.6                            0.346838166788096 104.821190085869 0.829301010418116 97.2293150887735 0.829301010418118 97.2293150887735 0.383622422448028 -89.680000131071 
7.7                            0.342342053153864 94.326408148033  0.829573439103889 89.248456144662  0.829573439103889 89.248456144662  0.379828150603371 -94.5204592085847 
7.8                            0.336175824546615 83.7404893972771 0.830311203522769 81.2444433484339 0.830311203522769 81.2444433484339 0.374653178860114 -99.2973332750216 
7.9                            0.328387932064228 73.024612555413  0.831465855823186 73.210925544577  0.831465855823184 73.210925544577  0.368129239636566 -103.991389133283 
8                              0.319058916317357 62.1382156997527 0.832974515090463 65.1419208391714 0.832974515090464 65.1419208391714 0.360305522389381 -108.581763089863 
8.1                            0.308303562948436 51.0387285432234 0.834760260679474 57.0318817042095 0.834760260679473 57.0318817042095 0.351246280707838 -113.04531389334 
8.2                            0.296272659434459 39.6815251907717 0.836732096829589 48.8757077554746 0.836732096829589 48.8757077554747 0.341027239814163 -117.355483238871 
8.3                            0.283153613641321 28.0203120222446 0.838783956876127 40.6687066048095 0.838783956876126 40.6687066048096 0.329731739498775 -121.480156001021 
8.4                            0.26916879723967 16.0082957284006 0.840792002183742 32.4065222379087 0.840792002183743 32.4065222379087 0.317449597789295 -125.37768908144 
8.5                            0.254569807567056 3.60065606897692 0.842609401343757 24.0850874613916 0.842609401343757 24.0850874613916 0.304286005379865 -128.989951341921 
8.6                            0.239624608727988 -9.24092302351011 0.844058401718084 15.7007090520872 0.844058401718085 15.7007090520872 0.290396171420186 -132.231548993821 
8.7                            0.224591916318044 -22.540582102629 0.844922192630636 7.250375687351   0.844922192630637 7.25037568735091 0.276072653985704 -134.97812887051 
8.8                            0.209670706812658 -36.2954168936675 0.844944878074795 -1.26819348609791 0.844944878074796 -1.268193486098  0.261898371721096 -137.070946483045 
8.9                            0.194894561522906 -50.4496938929624 0.843840349679539 -9.86017480948123 0.843840349679539 -9.86017480948122 0.248815331340226 -138.377546991325 
9                              0.179900307672181 -64.8103022955682 0.84114501875952 -18.5520295011742 0.84114501875952 -18.5520295011742 0.237579432808396 -138.856874768677 
9.1                            0.16369453880257 -78.6075824799164 0.83482392752346 -27.4128051668935 0.834823927523462 -27.4128051668935 0.228399509286638 -138.106631149202 
9.2                            0.149005320269087 -88.9152205808881 0.81775282962708 -36.1933213304648 0.817752829627076 -36.1933213304652 0.229207598663391 -135.03858034425 
9.3                            0.153962033435579 -97.7824525403024 0.798002937646672 -43.4918841616393 0.798002937646674 -43.4918841616395 0.254739034752991 -135.27361322477 
9.4                            0.161954283828239 -113.635413420016 0.803314236979691 -50.6020288750258 0.803314236979689 -50.6020288750258 0.265957557298764 -142.063912564238 
9.5                            0.157794724950333 -131.048134195415 0.813685460533484 -59.1002556058701 0.813685460533485 -59.1002556058702 0.253988311015354 -147.125289141847 
9.6                            0.140905071797868 -146.704683910971 0.813865562087587 -68.5528270832011 0.813865562087583 -68.5528270832012 0.237586238265361 -148.048185546619 
9.7                            0.112231913500115 -153.783405970825 0.793271988641704 -78.4632509056574 0.793271988641708 -78.4632509056571 0.233936005414723 -144.103822410471 
9.8                            0.108522197993363 -138.664671794538 0.741788953627543 -87.0330303446885 0.741788953627545 -87.0330303446885 0.270184942960239 -140.545492299533 
9.9                            0.172951366777358 -140.410017185587 0.700568522051376 -91.2329890270589 0.700568522051379 -91.2329890270576 0.326808072051016 -148.112422207904 
10                             0.22383673932608 -161.165908791095 0.717929497908916 -95.1957952972486 0.717929497908917 -95.1957952972486 0.343545507048358 -160.352588563663 
