! Touchstone file exported from HFSS 3D Layout Design 2026.1.0
!        File:           D:/Work/SIM/ADS_AUTO_SIM/projects/RFSOC_RF/TX_Fillter.aedt
!        Generated:      02:24:17 AM Aug 31, 2026
!        Design:         TX_BAND1_MCFIL_R29_CNN027
!        Project:        TX_Fillter
!
# GHz S MA R 50.000000
! Terminal data exported
! Port[1] = Port1
! Port[2] = Port2
14                             0.972947879255153 -165.041078565667 0.00369488597095409 -176.251634443073 0.0036948859709541 -176.251634443073 0.974542206297037 -159.643796552004 
14.05                          0.972450729136075 -165.928724331763 0.00376830038362915 -176.630583231972 0.00376830038362915 -176.630583231972 0.974082122737198 -160.512224848546 
14.1                           0.971937987845565 -166.822456414144 0.00384525704912353 -176.989014542828 0.00384525704912351 -176.989014542828 0.973607852987196 -161.386388408104 
14.15                          0.971408887634002 -167.722463680585 0.00392603673311762 -177.32654370247 0.00392603673311759 -177.326543702469 0.973118704563618 -162.266453809577 
14.2                           0.970862609689214 -168.628944950914 0.00401094771860136 -177.642831041004 0.00401094771860133 -177.642831041004 0.972613939095637 -163.152596380303 
14.25                          0.970298279870761 -169.542109651304 0.00410032880863484 -177.937590172624 0.00410032880863479 -177.937590172624 0.972092768499696 -164.045000772293 
14.3                           0.969714964013189 -170.46217852101 0.00419455267840643 -178.210597087037 0.0041945526784064 -178.210597087037 0.971554350768217 -164.943861584486 
14.35                          0.969111662746915 -171.389384376609 0.00429402961912547 -178.461700063117 0.00429402961912543 -178.461700063117 0.970997785326393 -165.849384035439 
14.4                           0.968487305778352 -172.32397293937 0.0043992117218281 -178.690830400725 0.00439921172182806 -178.690830400725 0.970422107904828 -166.761784691342 
14.45                          0.967840745562723 -173.266203731992 0.00451059755555289 -178.898013947538 0.00451059755555285 -178.898013947537 0.969826284868458 -167.681292254825 
14.5                           0.967170750293534 -174.216351051714 0.00462873740171262 -179.083383374833 0.00462873740171259 -179.083383374832 0.969209206933765 -168.608148420643 
14.55                          0.966475996121694 -175.174705027585 0.00475423911504518 -179.247191129735 0.00475423911504517 -179.247191129733 0.968569682196404 -169.542608805022 
14.6                           0.965755058504479 -176.141572770627 0.0048877746915051 -179.389822961531 0.00488777469150509 -179.38982296153 0.967906428379971 -170.484943956284 
14.65                          0.965006402569597 -177.117279626673 0.005030087635146 -179.511811886958 0.005030087635146 -179.511811886956 0.967218064203242 -171.435440455237 
14.7                           0.964228372362135 -178.102170542854 0.00518200122979953 -179.613852424653 0.00518200122979951 -179.613852424652 0.966503099747584 -172.394402114886 
14.75                          0.963419178821685 -179.096611560071 0.00534442783760381 -179.696814893684 0.0053444278376038 -179.696814893683 0.965759925687927 -173.362151290177 
14.8                           0.962576886312842 179.899008554655 0.00551837936570369 -179.761759536681 0.00551837936570369 -179.761759536681 0.964986801229069 -174.339030309821 
14.85                          0.961699397503853 178.884276520309 0.00570497906536595 -179.809950197119 0.00570497906536597 -179.809950197118 0.964181840563717 -175.325403043775 
14.9                           0.960784436354611 177.858752580797 0.00590547485509855 -179.842867254893 0.00590547485509855 -179.842867254892 0.963342997638529 -176.321656621691 
14.95                          0.959829528935345 176.821968350673 0.00612125439205908 -179.862219507743 0.0061212543920591 -179.862219507742 0.962468048978818 -177.328203319635 
15                             0.958831981750004 175.773424445049 0.00635386215520518 -179.869954681132 0.00635386215520517 -179.869954681132 0.961554574280135 -178.345482634621 
15.05                          0.957788857181862 174.712587868004 0.00660501885062292 -179.868268259057 0.00660501885062293 -179.868268259057 0.960599934424397 -179.373963569135 
15.1                           0.956696945611301 173.638889130383 0.00687664350589613 -179.859610355743 0.00687664350589616 -179.859610355742 0.959601246517681 179.585852849242 
15.15                          0.955552733674681 172.551719063831 0.00717087868819888 -179.84669039547 0.00717087868819891 -179.846690395469 0.958555355474233 178.533430784576 
15.2                           0.954352368035638 171.450425293367 0.00749011936237699 -179.832479436321 0.00749011936237702 -179.83247943632 0.957458801583759 177.468196513296 
15.25                          0.953091613922348 170.334308325526 0.00783704600349196 -179.82021006365 0.00783704600349198 -179.820210063649 0.956307783393545 176.389535012008 
15.3                           0.951765807541562 169.202617203104 0.00821466269662087 -179.813373889511 0.0082146626966209 -179.813373889511 0.955098115108951 175.296786170463 
15.35                          0.950369801306738 168.054544670585 0.0086263410994019 -179.81571682253 0.00862634109940193 -179.815716822529 0.953825177560296 174.189240581959 
15.4                           0.948897900606011 166.889221786517 0.00907587131511686 -179.831232414808 0.0090758713151169 -179.831232414808 0.952483861594373 173.066134856814 
15.45                          0.947343790576792 165.705711910062 0.00956752093246154 -179.86415374332 0.00956752093246156 -179.86415374332 0.951068502516526 171.926646397128 
15.5                           0.945700451035794 164.503003978798 0.0101061037405506 -179.91894443677 0.0101061037405506 -179.91894443677 0.949572803923854 170.769887562623 
15.55                          0.943960057321455 163.280004983394 0.0106970599340294 179.999710390924 0.0106970599340294 179.999710390924 0.947989748918379 169.594899147987 
15.6                           0.942113864321174 162.035531531992 0.0113465499957113 179.886912398361 0.0113465499957113 179.886912398361 0.946311496253946 168.400643081808 
15.65                          0.940152070354665 160.768300383122 0.012061564898181 179.737556436003 0.012061564898181 179.737556436003 0.944529258430716 167.185994246047 
15.7                           0.938063656836471 159.476917810903 0.0128500558202267 179.546333986315 0.0128500558202267 179.546333986315 0.942633158078789 165.949731303215 
15.75                          0.935836198706274 158.159867650625 0.0137210872521775 179.307732388838 0.0137210872521775 179.307732388838 0.940612058132794 164.690526406674 
15.8                           0.933455639445518 156.815497857403 0.0146850181949837 179.016028532719 0.0146850181949837 179.016028532719 0.938453360247242 163.406933658498 
15.85                          0.930906023029415 155.44200539706  0.015753717176288 178.665275624995 0.015753717176288 178.665275624994 0.936142764581112 162.097376170856 
15.9                           0.928169173314266 154.037419279134 0.0169408180550886 178.249281567297 0.0169408180550886 178.249281567296 0.933663982416746 160.76013158326  
15.95                          0.925224309028951 152.599581541279 0.018262025115033 177.761577384911 0.018262025115033 177.761577384911 0.930998390980886 159.393315893505 
16                             0.922047579598672 151.126126009016 0.0197354778126761 177.195374036745 0.0197354778126761 177.195374036745 0.928124617189272 157.994865481097 
16.05                          0.91861150332002 149.614454695639 0.0213821878149654 176.543505777661 0.0213821878149654 176.543505777661 0.925018033698195 156.562517248726 
16.1                           0.914884284737533 148.061711791387 0.0232265636947663 175.798358030684 0.0232265636947664 175.798358030684 0.92165014644437 155.093786896029 
16.15                          0.910828982219292 146.464755345881 0.0252970419102918 174.951777441615 0.0252970419102918 174.951777441615 0.917987847587918 153.585945495798 
16.2                           0.90640248944808 144.820127016652 0.0276268465001139 173.994961422147 0.0276268465001139 173.994961422147 0.91399250122373 152.035994805643 
16.25                          0.901554285601279 143.124020707468 0.0302549042381435 172.918324036064 0.0302549042381435 172.918324036064 0.909618821187483 150.440642180374 
16.3                           0.896224898236233 141.372251661522 0.0332269466328431 171.711334556683 0.0332269466328432 171.711334556683 0.904813490626515 148.796276649934 
16.35                          0.890344010411435 139.560228778209 0.0365968346805007 170.362324456826 0.0365968346805006 170.362324456826 0.899513461823091 147.098948849058 
16.4                           0.883828129972564 137.682934861539 0.0404281457750524 168.858258063768 0.0404281457750525 168.858258063767 0.89364386263132 145.344359271018 
16.45                          0.876577725934018 135.734922618473 0.0447960628715737 167.184461776179 0.0447960628715737 167.184461776179 0.88711542441959 143.527862151964 
16.5                           0.86847372837908 133.710339199751 0.0497896006637532 165.324306886994 0.0497896006637533 165.324306886994 0.879821339194527 141.644496777002 
16.55                          0.859373292300797 131.6030000152   0.0555141864405894 163.258842201756 0.0555141864405894 163.258842201756 0.8716334580047  139.689065077045 
16.6                           0.849104757969428 129.40654519975  0.0620945745741348 160.966375683796 0.0620945745741349 160.966375683795 0.862397773160954 137.656285517464 
16.65                          0.83746183019739 127.114732171493 0.069677996762919 158.422010814712 0.069677996762919 158.422010814712 0.851929210226733 135.541070687139 
16.7                           0.824197199925573 124.721949357624 0.0784373085648292 155.59715573009  0.0784373085648293 155.59715573009  0.840005941036109 133.339002946415 
16.75                          0.809016238263818 122.22408545449  0.0885736454175099 152.459045433981 0.08857364541751 152.45904543398  0.826363801776294 131.047123494608 
16.8                           0.791572164309949 119.619963791179 0.100317690088699 148.97035543275  0.100317690088699 148.97035543275  0.810692103225804 128.665210721267 
16.85                          0.771465473565771 116.913661857795 0.11392800751798 145.089046996412 0.11392800751798 145.089046996412 0.79263337487964 126.197808164345 
16.9                           0.74825276228918 114.118187245828 0.129683966041274 140.768678852723 0.129683966041274 140.768678852723 0.771791690492833 123.657367932589 
16.95                          0.721473765274666 111.261158637884 0.147869575551569 135.959552141178 0.147869575551569 135.959552141178 0.747757469402166 121.068974921805 
17                             0.690710508605989 108.393267512789 0.168743454437153 130.6112120372   0.168743454437153 130.6112120372   0.720160982711399 118.477119532058 
17.05                          0.65569784276522 105.600134797556 0.192490021907374 124.676952789177 0.192490021907374 124.676952789177 0.688770946735098 115.954656016306 
17.1                           0.616506080928936 103.01712121243  0.219149822082004 118.120918904339 0.219149822082004 118.120918904339 0.653654323734937 113.61290749696  
17.15                          0.573803913907123 100.843393061047 0.248535395082719 110.927906062109 0.248535395082719 110.927906062109 0.615399228381592 111.608962783085 
17.2                           0.529165337467946 99.3439037566893 0.280154984691702 103.114747059022 0.280154984691702 103.114747059022 0.575359676044872 110.14062197268  
17.25                          0.485288786211114 98.8145617797924 0.313185160720019 94.7402181394177 0.31318516072002 94.7402181394177 0.535798793054793 109.412281547192 
17.3                           0.445860875774794 99.4750559027365 0.346539304258391 85.9085711299229 0.346539304258391 85.9085711299228 0.499714514340831 109.55498574569  
17.35                          0.414741039983902 101.282875189498 0.379050310821848 76.7619711047099 0.379050310821848 76.7619711047099 0.470145439907391 110.511634446389 
17.4                           0.394461186241039 103.78031639408  0.409721597954627 67.4608982731654 0.409721597954627 67.4608982731654 0.44904929219272 111.962771016442 
17.45                          0.38485001851676 106.193030676419 0.437943232113138 58.1577479474712 0.437943232113138 58.1577479474712 0.436361491838023 113.39908700793  
17.5                           0.382996322652924 107.79953201951  0.463577343805079 48.9729954214155 0.463577343805079 48.9729954214154 0.429971543820472 114.332762234608 
17.55                          0.384646866758452 108.236706158472 0.4868917413186  39.9817718587128 0.486891741318599 39.9817718587128 0.426646915644126 114.481524107281 
17.6                           0.385794408260712 107.507155819722 0.508398497468426 31.2129051933605 0.508398497468425 31.2129051933605 0.423162341663678 113.800726779333 
17.65                          0.383491487883474 105.817029741464 0.528677874701639 22.6571414519495 0.528677874701638 22.6571414519495 0.416986973085996 112.406700962361 
17.7                           0.375927468373041 103.435604399825 0.54824112059562 14.2794034766138 0.54824112059562 14.2794034766139 0.406456212648977 110.490992970367 
17.75                          0.362193829958477 100.633943652456 0.567447191776316 6.03104890693689 0.567447191776316 6.03104890693692 0.390669134748325 108.273571438157 
17.8                           0.342036366678985 97.6826277548696 0.586465112543299 -2.1398798472988 0.586465112543299 -2.13987984729876 0.369334777709568 105.995683175101 
17.85                          0.315709459003951 94.8845685016064 0.605268259681307 -10.2808802356108 0.605268259681307 -10.2808802356107 0.342679849039984 103.941121283904 
17.9                           0.283957118011338 92.6368452290999 0.623651015317613 -18.4294547660061 0.623651015317614 -18.4294547660061 0.311456541154378 102.479963533684 
17.95                          0.248133081889012 91.5341093513402 0.641263918755074 -26.6094961930196 0.641263918755074 -26.6094961930196 0.277066319762576 102.134665677983 
18                             0.210514966087563 92.5371482790571 0.657666282286378 -34.8294585911976 0.657666282286379 -34.8294585911977 0.241822921642429 103.658815822211 
18.05                          0.174947146583236 97.1698881962117 0.672393825989997 -43.0823672571395 0.672393825989998 -43.0823672571396 0.209361882926885 108.045711506938 
18.1                           0.147799919778709 107.235120624194 0.68503408780021 -51.3477375561886 0.685034087800211 -51.3477375561886 0.184947952234963 116.141318389676 
18.15                          0.13746798872257 122.379900951631 0.695296945727949 -59.5952634655926 0.69529694572795 -59.5952634655927 0.174516890765602 127.377225357996 
18.2                           0.148209162004079 137.205830582531 0.703065287669394 -67.7897736058688 0.703065287669394 -67.789773605869 0.18109025086123 138.795102429498 
18.25                          0.1748802102227  146.614753360847 0.708414291312069 -75.8966153523756 0.708414291312069 -75.8966153523757 0.201920362971214 147.223624480429 
18.3                           0.209115571645031 150.537523701163 0.711596320744205 -83.8865080972918 0.711596320744205 -83.8865080972919 0.23108075705045 151.7994067401   
18.35                          0.24501319066077 150.77236574494  0.712998236109007 -91.7390879594255 0.712998236109007 -91.7390879594255 0.263302128517891 153.25697301483  
18.4                           0.279257536538327 148.758112531545 0.713084350981502 -99.4447681692095 0.713084350981501 -99.4447681692096 0.295094230642846 152.570141701505 
18.45                          0.310074238994242 145.366320084824 0.71233907138633 -107.004979293373 0.71233907138633 -107.004979293373 0.324392987385121 150.477530131646 
18.5                           0.336552727658345 141.098601385502 0.711219413566755 -114.431165986191 0.711219413566755 -114.431165986191 0.350058844274972 147.465376318457 
18.55                          0.358285499484357 136.24288588631  0.71012198362614 -121.74303550761 0.710121983626141 -121.74303550761 0.371526924937758 143.84090664107  
18.6                           0.375169085246178 130.96349480824  0.709364211539745 -128.966509551618 0.709364211539746 -128.966509551618 0.388588787005621 139.795762262683 
18.65                          0.387287910097655 125.350882702803 0.709176873388225 -136.131702650615 0.709176873388226 -136.131702650615 0.401257750054513 135.448112567549 
18.7                           0.394846005836091 119.449570211016 0.709704133849581 -143.271109604836 0.709704133849582 -143.271109604836 0.409686639870899 130.868885102702 
18.75                          0.398129817784915 113.27427994361  0.711007806930688 -150.418073593878 0.71100780693069 -150.418073593878 0.41411985643922 126.097807047539 
18.8                           0.397492775484018 106.819480199627 0.713073539640166 -157.605539713921 0.713073539640168 -157.605539713921 0.414868645167474 121.152995603567 
18.85                          0.393355525315346 100.06511825992  0.715817662734811 -164.865071759614 0.715817662734812 -164.865071759614 0.412302021286966 116.036271534293 
18.9                           0.386217225770165 92.9801518366983 0.719094250619204 -172.22611177799 0.719094250619206 -172.22611177799 0.406847693107691 110.735382584345 
18.95                          0.376673926743343 85.5249866891443 0.722702369418769 -179.715479157895 0.72270236941877 -179.715479157895 0.398998414831805 105.223756713342 
19                             0.36544007367852 77.6538489341804 0.726393530511077 172.642874303033 0.726393530511078 172.642874303033 0.389320005445837 99.4581593021344 
19.05                          0.353368679083897 69.3183460941542 0.729879024036083 164.82782791184  0.729879024036083 164.82782791184  0.378458276341671 93.3747053647388 
19.1                           0.341464674663866 60.4738474591634 0.732836176058585 156.820763437593 0.732836176058585 156.820763437593 0.367143771797584 86.8841624116813 
19.15                          0.330884381687631 51.090415838665  0.734911866791904 148.60498333232  0.734911866791904 148.60498333232  0.356195724392974 79.8684848449375 
19.2                           0.322912265858945 41.1689054649622 0.735721232922678 140.165005967841 0.735721232922678 140.165005967841 0.346529272284681 72.1820490271717 
19.25                          0.318905693740649 30.7592609923138 0.734839868216383 131.485997312366 0.734839868216384 131.485997312367 0.33917036288557 63.6627044710579 
19.3                           0.32020240582031 19.9721476594567 0.731789619342207 122.553747876825 0.731789619342208 122.553747876825 0.335276378387118 54.1581983951176 
19.35                          0.327996167876906 8.97131973508304 0.726021745320066 113.355733833041 0.726021745320069 113.355733833041 0.336143012510212 43.5700523817678 
19.4                           0.343198922179175 -2.05925601244403 0.716906850533458 103.883840813986 0.716906850533461 103.883840813986 0.34315280444268 31.9064390868708 
19.45                          0.366310464634916 -12.9614319443985 0.703747607752466 94.1391641260724 0.703747607752469 94.1391641260725 0.357610052038573 19.3198153458321 
19.5                           0.397305539648148 -23.6359673231414 0.685834650346139 84.1387822463368 0.685834650346142 84.1387822463368 0.380445712556806 6.09858061065066 
19.55                          0.435542785158068 -34.0439431241074 0.662561850055734 73.9234308172173 0.662561850055737 73.9234308172173 0.41186844921622 -7.39565387333274 
19.6                           0.479720418816471 -44.180574669459 0.633597029015169 63.5637313400023 0.63359702901517 63.5637313400022 0.451116692744362 -20.8122715890184 
19.65                          0.527933280917413 -54.041570261109 0.599067219785746 53.1616972224339 0.599067219785745 53.1616972224338 0.49645031699249 -33.8695149995962 
19.7                           0.577879310482253 -63.6009908594339 0.559681228727005 42.8447118045082 0.559681228727003 42.8447118045083 0.545416419493338 -46.3678797847804 
19.75                          0.627198936072345 -72.8079739314432 0.516710784677527 32.7517048721891 0.516710784677524 32.7517048721893 0.595306033048764 -58.1761868778918 
19.8                           0.673846767763898 -81.5983128775397 0.471806585849392 23.0149314529567 0.471806585849388 23.0149314529571 0.643643947979148 -69.2140029900029 
19.85                          0.716363202900435 -89.9113847182612 0.42670994845736 13.7431535923173 0.426709948457356 13.7431535923179 0.688551123104878 -79.4406000525472 
19.9                           0.753965768482923 -97.7037989771543 0.382971221020644 5.01126343784267 0.382971221020641 5.0112634378435  0.72889154929977 -88.8488580884853 
19.95                          0.786472295599751 -104.95567090952 0.341766495588925 -3.14190263080229 0.341766495588923 -3.14190263080126 0.764218330033874 -97.4598166412862 
20                             0.814130659320892 -111.669956260666 0.303840395337596 -10.7091694307522 0.303840395337595 -10.7091694307511 0.794602256763005 -105.315937815445 
20.05                          0.837435071409367 -117.867613680027 0.269546922538268 -17.7072282247606 0.269546922538268 -17.7072282247594 0.82043343854449 -112.473597911433 
20.1                           0.856978091032918 -123.581460556109 0.238939683798702 -24.1683322410481 0.238939683798703 -24.1683322410469 0.842254191667389 -118.996119008477 
20.15                          0.873353232679403 -128.850587527245 0.211870688590445 -30.1332172428419 0.211870688590446 -30.1332172428406 0.86064376420777 -124.948271103882 
20.2                           0.887102060346161 -133.716118198657 0.188074808971001 -35.6458694532469 0.188074808971002 -35.6458694532457 0.876151274555278 -130.392513923225 
20.25                          0.898692424480183 -138.218388677817 0.167232192980844 -40.7500688860073 0.167232192980845 -40.7500688860063 0.889263900517773 -135.386784600848 
20.3                           0.908515214306388 -142.395294511818 0.149009670248729 -45.4873417663547 0.149009670248731 -45.4873417663538 0.900397067709434 -139.983449323985 
20.35                          0.916890477093734 -146.281474021141 0.133085631536642 -49.8959088667688 0.133085631536643 -49.895908866768 0.909896586727659 -144.229032322262 
20.4                           0.924077243864481 -149.908035103537 0.119163294242   -54.0102801695258 0.119163294242001 -54.0102801695251 0.918046251372881 -148.164411170639 
20.45                          0.930283975155452 -153.3026058173  0.106976443270047 -57.8612382258731 0.106976443270048 -57.8612382258725 0.925077174970513 -151.825258511697 
20.5                           0.935678163973884 -156.489559335043 0.0962906319257358 -61.4760359153692 0.0962906319257365 -61.4760359153688 0.931176957567773 -155.242588252492 
20.55                          0.940394550194675 -159.490318576619 0.0869018512190556 -64.8786978427659 0.0869018512190563 -64.8786978427656 0.936497847246053 -158.443321530706 
20.6                           0.94454186855872 -162.32368410629 0.0786339410903077 -68.0903587213123 0.0786339410903082 -68.0903587213121 0.941163636060716 -161.450826098833 
20.65                          0.948208261964296 -165.006153898736 0.0713355102927276 -71.1296009194165 0.0713355102927277 -71.1296009194164 0.945275313564098 -164.285406826414 
20.7                           0.95146556439459 -167.552219126581 0.0648768016046362 -74.0127713558684 0.0648768016046362 -74.0127713558682 0.94891561995864 -166.964739254677 
20.75                          0.954372664120609 -169.974629360441 0.0591467331157152 -76.7542687423097 0.059146733115715 -76.7542687423096 0.952152675779994 -169.50424604897 
20.8                           0.956978135921969 -172.284625800385 0.054050222651592 -79.3667983991205 0.0540502226515916 -79.3667983991205 0.955042860131209 -171.917420223185 
20.85                          0.959322300282591 -174.492143927674 0.0495058310727466 -81.8615952685731 0.0495058310727463 -81.861595268573 0.957633088513954 -174.216100756553 
20.9                           0.961438836816482 -176.605988278161 0.0454437211558065 -84.2486174504291 0.0454437211558061 -84.2486174504288 0.959962616023655 -176.410706688906 
20.95                          0.96335605217249 -178.633982517704 0.0418039091109193 -86.5367133002866 0.0418039091109188 -86.5367133002863 0.962064467483191 -178.510435572566 
21                             0.965097880350845 179.41690197578  0.03853477740762 -88.7337652945475 0.0385347774076195 -88.7337652945473 0.963966575075947 179.476568367531 
21.05                          0.966684675562362 177.540436024842 0.035591815511365 -90.8468137382911 0.0355918155113644 -90.8468137382907 0.965692686690933 177.543071658208 
21.1                           0.968133843854398 175.731038367547 0.0329365563979227 -92.8821631260829 0.0329365563979222 -92.8821631260824 0.967263094285464 175.682630534024 
21.15                          0.969460348998766 173.983694818362 0.0305356795691189 -94.8454736475721 0.0305356795691183 -94.8454736475716 0.96869522061693 173.889487982522 
21.2                           0.970677119918766 172.293888844521 0.0283602547483861 -96.7418400069718 0.0283602547483855 -96.741840006971 0.970004094157947 172.158485980324 
21.25                          0.971795380660619 170.65754182624  0.0263851039464986 -98.5758594223521 0.0263851039464982 -98.5758594223513 0.971202735395184 170.484990492696 
21.3                           0.972824919133526 169.070961533543 0.0245882628810054 -100.351690397838 0.024588262881005 -100.351690397838 0.972302472603222 168.864827210037 
21.35                          0.973774307196072 167.530797581199 0.022950525684724 -102.07310362261 0.0229505256847237 -102.073103622609 0.973313201241584 167.294226331942 
21.4                           0.974651081880472 166.03400281854  0.0214550594124004 -103.743526144348 0.0214550594124001 -103.743526144348 0.974243598077487 165.769774991002 
21.45                          0.975461895411562 164.577799776164 0.0200870770588548 -105.366079788825 0.0200870770588545 -105.366079788824 0.975101298780403 164.288376142542 
21.5                           0.976212640036594 163.1596514304   0.0188335596673604 -106.94361464829 0.0188335596673602 -106.943614648289 0.975893045906549 162.847212940486 
21.55                          0.976908552415723 161.777235662906 0.0176830196731479 -108.478738335556 0.0176830196731476 -108.478738335556 0.976624812769053 161.443717780198 
21.6                           0.977554301342044 160.428422890136 0.0166252989348489 -109.97384159486 0.0166252989348487 -109.973841594859 0.977301907578742 160.075545322067 
21.65                          0.9781540617965  159.111256418853 0.0156513959952369 -111.431120771627 0.0156513959952368 -111.431120771627 0.977929061369913 158.74054891979  
21.7                           0.978711577746038 157.823935151934 0.0147533180167387 -112.852597568442 0.0147533180167386 -112.852597568441 0.978510502540108 157.436759968604 
21.75                          0.97923021562457 156.56479832565  0.0139239535873251 -114.240136451609 0.013923953587325 -114.240136451608 0.97905002029147 156.162369764546 
21.8                           0.979713010066282 155.332312007318 0.0131569632146091 -115.595460019665 0.013156963214609 -115.595460019665 0.979551018831457 154.91571352893  
21.85                          0.980162703167488 154.125057122238 0.0124466848422246 -116.920162600446 0.0124466848422246 -116.920162600445 0.980016563848184 153.69525630482  
21.9                           0.980581778319553 152.94171881246  0.011788052151198 -118.215722305487 0.011788052151198 -118.215722305487 0.980449422501562 152.499580476223 
21.95                          0.98097248946839 151.781076958264 0.0111765237652843 -119.483511738473 0.0111765237652843 -119.483511738473 0.980852097951054 151.327374697538 
22                             0.981336886505692 150.641997717149 0.010608021775741 -120.724807527204 0.010608021775741 -120.724807527204 0.98122685926307 150.177424051689 
22.05                          0.981676837375633 149.523425955316 0.010078878248132 -121.940798825378 0.010078878248132 -121.940798825379 0.981575767396904 149.048601281386 
22.1                           0.981994047382293 148.424378463843 0.00958578858006763 -123.132594910699 0.00958578858006767 -123.132594910699 0.98190069785088 147.939858959888 
22.15                          0.982290076102783 147.343937866244 0.00912577075132352 -124.301231988894 0.00912577075132357 -124.301231988895 0.982203360454578 146.850222486208 
22.2                           0.982566352245456 146.281247136588 0.00869612965233947 -125.447679298751 0.00869612965233949 -125.447679298751 0.982485316714477 145.778783805431 
22.25                          0.982824186738601 145.235504657895 0.00829442579844579 -126.572844600801 0.00829442579844581 -126.572844600801 0.982747995055694 144.724695768201 
22.3                           0.98306478429058 144.205959759643 0.00791844783921872 -127.67757912159 0.00791844783921873 -127.677579121591 0.98299270424907 143.687167054828 
22.35                          0.983289253625506 143.19190868096  0.00756618835836525 -128.762682016238 0.00756618835836528 -128.76268201624 0.983220645268595 142.665457599196 
22.4                           0.983498616567967 142.192690912804 0.00723582253215194 -129.828904404004 0.00723582253215195 -129.828904404004 0.98343292178728 141.658874456021 
22.45                          0.983693816124762 141.207685878167 0.00692568927581792 -130.876953024702 0.00692568927581793 -130.876953024703 0.983630549488847 140.666768062128 
22.5                           0.983875723690217 140.236309914343 0.00663427455948801 -131.907493557848 0.00663427455948801 -131.907493557849 0.983814464346821 139.688528848595 
22.55                          0.984045145483721 139.278013525588 0.00636019661932314 -132.921153641214 0.00636019661932316 -132.921153641216 0.983985530000962 138.723584165929 
22.6                           0.984202828312953 138.332278878264 0.00610219282728279 -133.918525621018 0.00610219282728275 -133.91852562102 0.984144544342737 137.771395489007 
22.65                          0.9843494647435  137.398617513783 0.0058591080149596 -134.900169062047 0.00585910801495957 -134.900169062048 0.984292245406082 136.831455872503 
22.7                           0.984485697744683 136.476568257527 0.00562988407435998 -135.866613042642 0.00562988407435997 -135.866613042643 0.984429316646625 135.903287630963 
22.75                          0.984612124872184 135.565695304353 0.00541355068196118 -136.818358256495 0.00541355068196115 -136.818358256496 0.984556391681445 134.986440220708 
22.8                           0.984729302040192 134.665586463498 0.00520921701249375 -137.755878940657 0.00520921701249373 -137.755878940658 0.984674058551905 134.080488303324 
22.85                          0.984837746929023 133.775851547549 0.00501606432617659 -138.679624646891 0.00501606432617658 -138.679624646892 0.984782863564048 133.185029972826 
22.9                           0.984937942068393 132.896120891839 0.00483333932800311 -139.590021871561 0.00483333932800308 -139.590021871562 0.984883314754037 132.299685130534 
22.95                          0.985030337631551 132.026043992079 0.00466034821049753 -140.487475557522 0.00466034821049754 -140.487475557522 0.984975885020205 131.424093993497 
23                             0.985115353971168 131.165288249306 0.00449645130243263 -141.372370479976 0.00449645130243262 -141.372370479976 0.985061014958087 130.557915723788 
