! Touchstone file exported from HFSS 3D Layout Design 2026.1.0
!        File:           D:/Work/SIM/ADS_AUTO_SIM/projects/RFSOC_RF/TX_Fillter.aedt
!        Generated:      03:11:37 AM Aug 31, 2026
!        Design:         TX_BAND1_MCFIL_R36_CNN038
!        Project:        TX_Fillter
!
# GHz S MA R 50.000000
! Terminal data exported
! Port[1] = Port1
! Port[2] = Port2
14                             0.974492773419277 -161.40661043639 0.0035250847933691 -177.271496904143 0.0035250847933691 -177.271496904143 0.974434251929508 -160.630928021326 
14.05                          0.974047115298307 -162.278642139243 0.00359110179460916 -177.693081048979 0.00359110179460912 -177.693081048979 0.973975817063779 -161.493814920077 
14.1                           0.973588299236272 -163.156007751247 0.00366012914166354 -178.094316850933 0.00366012914166352 -178.094316850933 0.973503323540549 -162.362363853266 
14.15                          0.973115700825898 -164.038855803863 0.00373239978323418 -178.474697280997 0.00373239978323418 -178.474697280997 0.973016089615089 -163.236741965775 
14.2                           0.972628655188645 -164.927342641014 0.00380816939165731 -178.833743593918 0.0038081693916573 -178.833743593917 0.972513388753978 -164.117125111282 
14.25                          0.972126453673723 -165.821632925539 0.00388771885806091 -179.171012296614 0.0038877188580609 -179.171012296613 0.97199444593627 -165.003698420441 
14.3                           0.971608340230992 -166.721900185177 0.00397135708138266 -179.486102955201 0.00397135708138266 -179.4861029552  0.9714584335851  -165.896656914136 
14.35                          0.971073507419678 -167.628327401754 0.00405942408736327 -179.778666886676 0.00405942408736324 -179.778666886676 0.970904467086187 -166.796206166094 
14.4                           0.970521092009745 -168.541107647708 0.00415229451827949 179.951583227653 0.00415229451827948 179.951583227653 0.970331599843798 -167.702563019641 
14.45                          0.969950170126772 -169.460444774503 0.00425038153949248 179.704862782243 0.00425038153949248 179.704862782243 0.969738817817881 -168.615956363901 
14.5                           0.969359751884406 -170.386554158018 0.00435414121498075 179.481303732297 0.00435414121498074 179.481303732298 0.969125033478157 -169.536627975368 
14.55                          0.968748775440457 -171.319663506571 0.004464077411045 179.280942135417 0.00446407741104501 179.280942135418 0.968489079101796 -170.46483343145 
14.6                           0.968116100403506 -172.260013737899 0.0045807472954909 179.103704786554 0.0045807472954909 179.103704786555 0.967829699330624 -171.400843103379 
14.65                          0.96746050050616 -173.207859932143 0.00470476750903018 178.949395012341 0.00470476750903021 178.949395012341 0.967145542891372 -172.344943236757 
14.7                           0.96678065544853 -174.163472368751 0.00483682109666022 178.817677724798 0.00483682109666021 178.817677724798 0.966435153367958 -173.297437128998 
14.75                          0.966075141800861 -175.12713765614 0.00497766529970996 178.708063872319 0.00497766529970996 178.70806387232  0.965696958897782 -174.258646414092 
14.8                           0.965342422837032 -176.099159964049 0.00512814032448487 178.619894466877 0.00512814032448489 178.619894466878 0.964929260644059 -175.228912466384 
14.85                          0.964580837150399 -177.079862369762 0.0052891792214939 178.552324409131 0.00528917922149391 178.552324409132 0.964130219872694 -176.208597936573 
14.9                           0.963788585879597 -178.069588330755 0.00546181903070785 178.504306375767 0.00546181903070787 178.504306375767 0.963297843434467 -177.198088434795 
14.95                          0.962963718343679 -179.068703297933 0.00564721337391684 178.47457507336  0.00564721337391684 178.47457507336  0.962429967420487 -178.197794377594 
15                             0.962104115852523 179.922403514549 0.00584664670592667 178.461632197327 0.00584664670592667 178.461632197327 0.961524238719845 -179.208153017825 
15.05                          0.961207473418559 178.903317184827 0.00606155047315191 178.463732459633 0.00606155047315189 178.463732459633 0.960578094162072 179.770369320992 
15.1                           0.96027127904843 177.873594943763 0.00629352147245383 178.478871060882 0.00629352147245379 178.478871060882 0.959588736871538 178.737274781379 
15.15                          0.959292790236267 176.832763817135 0.00654434275643666 178.504772977401 0.00654434275643666 178.504772977401 0.958553109394631 177.692031251891 
15.2                           0.958269007212039 175.780318023286 0.0068160074957988 178.538884408069 0.00681600749579879 178.538884408069 0.957467863080795 176.634069358755 
15.25                          0.9571966424162  174.715716096406 0.00711074628708683 178.578366675845 0.00711074628708682 178.578366675845 0.95632932310242 175.562779133132 
15.3                           0.956072085572474 173.638377701569 0.00743105848817594 178.620092802923 0.00743105848817592 178.620092802923 0.955133448382369 174.477506312906 
15.35                          0.95489136361015 172.547680102985 0.00777974827747085 178.660646875485 0.00777974827747085 178.660646875485 0.953875785556858 173.377548232112 
15.4                           0.953650094540648 171.442954241678 0.00815996627043913 178.69632618488  0.00815996627043909 178.69632618488  0.95255141592972 172.262149244448 
15.45                          0.952343434214152 170.32348037281  0.00857525769386227 178.723145979611 0.00857525769386225 178.723145979611 0.951154894164226 171.130495619679 
15.5                           0.950966014662764 169.1884832061   0.00902961832055567 178.736846491274 0.00902961832055565 178.736846491274 0.949680177201327 169.981709843094 
15.55                          0.949511872466979 168.037126485223 0.00952755961323151 178.732901713952 0.00952755961323149 178.732901713952 0.948120541576537 168.814844238239 
15.6                           0.947974365249475 166.868506933627 0.0100741848255737 178.706529227868 0.0100741848255736 178.706529227869 0.94646848691655 167.6288738221   
15.65                          0.946346073988043 165.681647485014 0.0106752781738161 178.652700172151 0.0106752781738161 178.652700172151 0.944715622911947 166.42268828941  
15.7                           0.944618688327178 164.475489706787 0.0113374096386055 178.566148295673 0.0113374096386055 178.566148295673 0.942852536459185 165.195083009129 
15.75                          0.94278287142895 163.248885314505 0.0120680585039623 178.441376854953 0.0120680585039623 178.441376854953 0.940868634912283 163.944748901401 
15.8                           0.940828100104189 162.000586665251 0.0128757594117804 178.27266198719  0.0128757594117804 178.27266198719  0.93875196044142 162.670261047926 
15.85                          0.938742474961287 160.729236108718 0.0137702755364032 178.054051064921 0.0137702755364032 178.054051064921 0.936488969310488 161.370065873578 
15.9                           0.936512494046168 159.433354068431 0.0147628045013186 177.779354432463 0.0147628045013187 177.779354432463 0.934064268391554 160.042466723657 
15.95                          0.934122781851969 158.111325724174 0.0158662239141552 177.442128825475 0.0158662239141552 177.442128825475 0.931460299345953 158.685607651984 
16                             0.931555763559774 156.761386174646 0.01709538494162 177.035650671675 0.0170953849416201 177.035650671675 0.928656958510001 157.297455234177 
16.05                          0.928791271817701 155.381603982854 0.0184674642475819 176.552877347394 0.0184674642475819 176.552877347394 0.925631137489662 155.875778234715 
16.1                           0.92580607013141 153.969863055984 0.0200023869495123 175.986394303173 0.0200023869495124 175.986394303173 0.922356165618656 154.418124996532 
16.15                          0.922573272849191 152.523842902381 0.021723336091888 175.328345751862 0.021723336091888 175.328345751862 0.918801130553582 152.921798505169 
16.2                           0.919061636571421 151.04099746572  0.0236573675695281 174.570346314604 0.0236573675695282 174.570346314604 0.91493004710952 151.383829233455 
16.25                          0.915234691364537 149.518532999805 0.0258361535205263 173.703370625617 0.0258361535205263 173.703370625617 0.910700836685395 149.800946140997 
16.3                           0.911049672181542 147.953385878356 0.0282968819569765 172.717617393253 0.0282968819569766 172.717617393253 0.90606406998301 148.169546655124 
16.35                          0.906456201212818 146.342201929943 0.03108334570652 171.60234380165  0.0310833457065201 171.60234380165  0.900961413931532 146.485667207498 
16.4                           0.90139466053147 144.681320002486 0.0342472592627235 170.345665436005 0.0342472592627237 170.345665436005 0.895323709725894 144.744957121152 
16.45                          0.89579418182816 142.966764237263 0.037849847113856 168.934316188189 0.0378498471138561 168.934316188189 0.889068593088924 142.942660621004 
16.5                           0.88957016768726 141.194252353341 0.0419637499634836 167.353361986289 0.0419637499634838 167.353361986289 0.882097551738439 141.07361493484  
16.55                          0.882621250113236 139.35923171647  0.0466752929697709 165.585861964095 0.046675292969771 165.585861964095 0.874292302193444 139.132277596913 
16.6                           0.874825594000174 137.45696204579  0.0520871472189399 163.612471351639 0.05208714721894 163.612471351639 0.865510366306717 137.112804345104 
16.65                          0.866036480142245 135.482674782014 0.0583213823707785 161.410982837391 0.0583213823707785 161.410982837391 0.855579753094066 135.009212305803 
16.7                           0.856077181373102 133.431856669374 0.065522837997991 158.955809018971 0.0655228379979911 158.955809018971 0.844292734236436 132.815684483184 
16.75                          0.844735326781665 131.300732331783 0.073862605646291 156.217420525245 0.073862605646291 156.217420525246 0.831398899580609 130.52710556316  
16.8                           0.831757322555904 129.087062150706 0.0835411685469858 153.161776888239 0.0835411685469858 153.161776888239 0.81659809628304 128.139972670724 
16.85                          0.816844117368067 126.791433029768 0.0947903250166356 149.749827172446 0.0947903250166356 149.749827172446 0.799534673130295 125.653907679856 
16.9                           0.799650909877017 124.419304640862 0.107872338104337 145.937224641486 0.107872338104337 145.937224641487 0.779795966524871 123.07412143377  
16.95                          0.779795639026826 121.984177459382 0.123073724095692 141.674506472213 0.123073724095692 141.674506472213 0.75692061386892 120.415352367434 
17                             0.756884628950678 119.51233709565  0.14068971723306 136.908145102035 0.14068971723306 136.908145102035 0.730426579529056 117.708007294126 
17.05                          0.730568573037587 117.049591446215 0.160994019950704 131.583074076239 0.160994019950704 131.58307407624  0.699874972111666 115.007379966338 
17.1                           0.700646729272606 114.669970894947 0.184187951684207 125.647469300751 0.184187951684207 125.647469300751 0.66499271709042 112.406618938474 
17.15                          0.667236763150761 112.484909802472 0.210325747495657 119.060560881257 0.210325747495657 119.060560881257 0.625880000189254 110.052787868413 
17.2                           0.631010461470054 110.648002330846 0.239221985781053 111.803739464519 0.239221985781054 111.803739464519 0.583314152991194 108.161215053289 
17.25                          0.593443183019042 109.344347928748 0.270365508837208 103.893798038448 0.270365508837209 103.893798038448 0.539105774095741 107.013612638752 
17.3                           0.556927477574226 108.747327322177 0.302887154690678 95.3947313213096 0.302887154690678 95.3947313213097 0.496337450632023 106.909204263159 
17.35                          0.524504815522854 108.931325507967 0.335636955915694 86.42211809804   0.335636955915693 86.42211809804   0.459138327732037 108.029551664995 
17.4                           0.499032841177399 109.767056191138 0.367392549080118 77.1342028981687 0.367392549080117 77.1342028981686 0.431607357767482 110.229176433789 
17.45                          0.482006986464196 110.887537641876 0.397142283387192 67.7085633054709 0.397142283387191 67.7085633054709 0.416009050327175 112.91701108525  
17.5                           0.472779647340958 111.804649554699 0.424319015309887 58.3110871974069 0.424319015309885 58.3110871974069 0.411416746644353 115.25755914403  
17.55                          0.46882433725324 112.114668877573 0.448876091921254 49.0689184736477 0.448876091921251 49.0689184736478 0.41411942034841 116.594112370505 
17.6                           0.466810277505202 111.627844676655 0.471192372573124 40.056515463089  0.471192372573121 40.0565154630891 0.419423176914786 116.686548957678 
17.65                          0.463658128152183 110.355826012373 0.491882264764483 31.2963898484042 0.49188226476448 31.2963898484045 0.423265535013607 115.631372237149 
17.7                           0.45706766786532 108.428458447356 0.511603909282796 22.7698098255183 0.511603909282793 22.7698098255185 0.422843019862475 113.674579895968 
17.75                          0.445572907744231 106.022088954018 0.530919257696499 14.4311641093229 0.530919257696497 14.4311641093232 0.41652354168863 111.086438749959 
17.8                           0.428390410046718 103.326834708694 0.550214523451147 6.2215379491127  0.550214523451146 6.22153794911294 0.40353138613729 108.118524245963 
17.85                          0.40525923746448 100.546741177856 0.569666407860226 -1.92037150035073 0.569666407860225 -1.92037150035056 0.383677550810135 105.010599719922 
17.9                           0.376359595621273 97.9225326744723 0.589237300096385 -10.0501482117202 0.589237300096384 -10.0501482117202 0.357218749210064 102.023182853541 
17.95                          0.342334185099355 95.7736036316825 0.608689884891053 -18.2118509671887 0.608689884891053 -18.2118509671887 0.324849698796971 99.4896490322466 
18                             0.304420712395421 94.5632108564696 0.627619371923592 -26.4340455810277 0.627619371923591 -26.4340455810278 0.28782432469058 97.8957391361396 
18.05                          0.264718624319541 94.9900025384518 0.645505471286346 -34.7275465574437 0.645505471286345 -34.7275465574439 0.24823162024437 98.0014024404379 
18.1                           0.226630492029227 98.0662112076986 0.661784702825997 -43.0850523570059 0.661784702825996 -43.0850523570061 0.20950527617287 100.988033402196 
18.15                          0.195388329816249 104.938494048366 0.675937167121684 -51.4829460460583 0.675937167121681 -51.4829460460585 0.177186593650375 108.373767348153 
18.2                           0.177755650660813 115.79206504368  0.687573506653647 -59.885298845527 0.687573506653644 -59.8852988455273 0.159016341082779 120.705725435929 
18.25                          0.178732167388434 128.093218660925 0.69650249656073 -68.2496199744387 0.696502496560725 -68.2496199744389 0.161147097874603 134.863471151807 
18.3                           0.196861474698186 137.858081534125 0.702762053140534 -76.5333726538148 0.70276205314053 -76.5333726538149 0.181787497647135 145.686084242986 
18.35                          0.225587786080179 143.375036447604 0.706606842101636 -84.7000151392508 0.706606842101632 -84.7000151392508 0.213177971382625 151.381240857041 
18.4                           0.258420307609955 145.254741415778 0.708459244026982 -92.7234922284376 0.708459244026979 -92.7234922284376 0.248266464702145 153.046728371911 
18.45                          0.29101997270168 144.626056737241 0.708840259455223 -100.590617624607 0.708840259455222 -100.590617624607 0.282691569444381 152.113063845328 
18.5                           0.32087495237877 142.368126077373 0.708298943274258 -108.301392217986 0.708298943274258 -108.301392217986 0.314058217542945 149.572033152882 
18.55                          0.346634548213423 139.050014591015 0.707354108425026 -115.867743916848 0.707354108425027 -115.867743916848 0.341127506794799 146.025770094813 
18.6                           0.367644535422968 135.020871638893 0.706454416261835 -123.311341833012 0.706454416261838 -123.311341833012 0.363328890192173 141.830455864085 
18.65                          0.383666382477412 130.490320307647 0.705956443667398 -130.661074294958 0.705956443667401 -130.661074294958 0.380484889834464 137.196145418138 
18.7                           0.394710094182016 125.580769274106 0.706116666240309 -137.950600452699 0.706116666240312 -137.9506004527  0.392652173550877 132.245628199847 
18.75                          0.40093611824198 120.359142695546 0.70709236927187 -145.216193355572 0.707092369271874 -145.216193355572 0.400029537579256 127.048372125849 
18.8                           0.40260153154435 114.855791859228 0.708947262428449 -152.494946859168 0.708947262428451 -152.494946859168 0.402907823653161 121.640291569628 
18.85                          0.400036058612062 109.075545051419 0.711658996161067 -159.823335771397 0.711658996161069 -159.823335771397 0.40164776142089 116.035297744363 
18.9                           0.393638735343052 103.003730372884 0.715127176255791 -167.236090181361 0.715127176255791 -167.236090181361 0.396676752220414 110.231781352597 
18.95                          0.383888843415531 96.6087372264619 0.71918150602376 -174.765353950325 0.719181506023759 -174.765353950325 0.388498037385222 104.215636487557 
19                             0.371366321109642 89.8420235132759 0.723590215694258 177.559874280465 0.723590215694257 177.559874280464 0.377706865429798 97.960602963681  
19.05                          0.356777833760284 82.6363178083625 0.728068922318565 169.71398917234  0.728068922318564 169.71398917234  0.365008861901481 91.4263284088864 
19.1                           0.340985442111432 74.9031998438224 0.732289521403738 161.674673709562 0.732289521403738 161.674673709562 0.351236355996007 84.554612282967  
19.15                          0.325035357872708 66.5325354878218 0.735887769980081 153.422419753113 0.735887769980084 153.422419753113 0.337359432969284 77.2649493823496 
19.2                           0.310183727113218 57.3986224154799 0.738467188823556 144.939723947708 0.738467188823562 144.939723947708 0.324490151161685 69.4519678953788 
19.25                          0.297912188492923 47.3807266934042 0.739596335618915 136.210138865991 0.739596335618924 136.210138865992 0.313879876367155 60.9895989044035 
19.3                           0.289914530626958 36.4055022243501 0.738797145556706 127.217541988034 0.738797145556719 127.217541988035 0.306908384155765 51.7486377884726 
19.35                          0.288018317597703 24.5078341178457 0.735524761712851 117.94619207155  0.735524761712866 117.94619207155  0.305055189176644 41.6324177964934 
19.4                           0.294000013978021 11.8800413172438 0.729144785351578 108.382312678762 0.729144785351594 108.382312678762 0.309827805043109 30.6250638043858 
19.45                          0.309291856506077 -1.14215739231554 0.718922169785043 98.5179652922237 0.718922169785058 98.5179652922235 0.3226105237141  18.8294245056102 
19.5                           0.334659200604916 -14.1771489541772 0.704045203012095 88.3576707942625 0.704045203012106 88.3576707942621 0.34441628982736 6.46379982107585 
19.55                          0.369965240584097 -26.918803062349 0.683712544642397 77.9273857251095 0.683712544642404 77.9273857251091 0.375583160262156 -6.19076108041755 
19.6                           0.414084744250024 -39.1940236003244 0.657300677610245 67.2839374241872 0.657300677610248 67.283937424187  0.415518955551586 -18.8600453012209 
19.65                          0.46496915571544 -50.9363686699828 0.624593107095965 56.5212605799312 0.624593107095963 56.5212605799314 0.462612806592266 -31.3192932946551 
19.7                           0.519873430777149 -62.1247626752792 0.585996615210297 45.7689698562394 0.585996615210293 45.7689698562402 0.514392220375634 -43.3968019479889 
19.75                          0.575753572486255 -72.7379948022039 0.542630879285764 35.1805269327397 0.542630879285761 35.1805269327412 0.567923439406138 -54.9590607233066 
19.8                           0.629764157994702 -82.7413728619248 0.496207634679905 24.9127606354344 0.496207634679905 24.9127606354365 0.620346192061527 -65.9001282549129 
19.85                          0.679695328985247 -92.0959591389344 0.44872046355986 15.103258551073  0.448720463559865 15.1032585510757 0.669356040574258 -76.1416608413247 
19.9                           0.72419820711889 -100.773978969358 0.402072250344718 5.85343792706245 0.402072250344727 5.85343792706548 0.713471341237178 -85.6375606201675 
19.95                          0.762760525793431 -108.769106431659 0.357786947683714 -2.77817913025192 0.357786947683727 -2.77817913024879 0.752041048425213 -94.3758091210741 
20                             0.795510956651537 -116.098389855696 0.316881156406483 -10.7730290943851 0.316881156406497 -10.7730290943822 0.785069486418235 -102.374732457567 
20.05                          0.822970363462863 -122.7979830786  0.279881089759964 -18.143743043798 0.27988108975998 -18.1437430437954 0.812977062326607 -109.675253696778 
20.1                           0.845836592561706 -128.916353027355 0.246923208170547 -24.9237576464559 0.246923208170563 -24.9237576464537 0.836386523056115 -116.332080333695 
20.15                          0.864836977236718 -134.507733616796 0.217877967460017 -31.1580952847905 0.217877967460032 -31.1580952847889 0.855972469839168 -122.406041730288 
20.2                           0.88064559095759 -139.62712433703 0.192459689095968 -36.8964567388796 0.192459689095982 -36.8964567388785 0.872373955867906 -127.958506536765 
20.25                          0.893847317832889 -144.327054248976 0.170308609136656 -42.1886607419269 0.170308609136667 -42.1886607419263 0.886153898688147 -133.047872565885 
20.3                           0.904930122639007 -148.655812576733 0.151045141238679 -47.081968857242 0.151045141238688 -47.0819688572418 0.897787430859099 -137.727694026858 
20.35                          0.914291689266475 -152.656711717703 0.134302111043547 -51.6197357978547 0.134302111043555 -51.6197357978548 0.907665539540635 -142.045932455691 
20.4                           0.922251844165775 -156.367995884153 0.119741627348068 -55.8409070510901 0.119741627348074 -55.8409070510907 0.916105328291369 -146.044899064191 
20.45                          0.929066116497144 -159.823110500172 0.107062157516284 -59.7800147139468 0.107062157516289 -59.7800147139474 0.92336208121936 -149.76157811805 
20.5                           0.934938256440505 -163.05114471732 0.0959998224409312 -63.4674395914165 0.0959998224409345 -63.4674395914172 0.929640776701741 -153.228129788405 
20.55                          0.940030908457824 -166.077333357916 0.0863265622450533 -66.9297956044206 0.0863265622450556 -66.9297956044213 0.935106102571309 -156.472451519083 
20.6                           0.944474324071752 -168.923554687369 0.0778468148160892 -70.1903523520758 0.0778468148160906 -70.1903523520764 0.939890747816839 -159.518730808042 
20.65                          0.948373298640433 -171.608791898338 0.0703936687021118 -73.2694497822935 0.0703936687021125 -73.269449782294 0.944102076875995 -162.387955870369 
20.7                           0.951812616003492 -174.149544834571 0.0638250195701679 -76.1848820694464 0.0638250195701681 -76.1848820694466 0.947827416130565 -165.098370416627 
20.75                          0.954861289951195 -176.560188896071 0.0580199969738394 -78.9522412590324 0.0580199969738393 -78.9522412590324 0.951138204820312 -167.665869764275 
20.8                           0.957575858158095 -178.853283466421 0.05287577528553 -81.5852187015848 0.0528757752855296 -81.5852187015846 0.954093241529819 -170.104341159272 
20.85                          0.960002939940476 178.960165323893 0.0483047975892699 -84.0958661689149 0.0483047975892693 -84.0958661689141 0.956741221475279 -172.425953748005 
20.9                           0.962181226185342 176.870481844952 0.0442323969222961 -86.4948203336677 0.0442323969222954 -86.4948203336667 0.959122722416051 -174.641404479356 
20.95                          0.964143032673762 174.869132594565 0.0405947784714657 -88.7914949156256 0.040594778471465 -88.7914949156242 0.961271763616813 -176.76012615087 
21                             0.965915517814994 172.948567011269 0.0373373188051644 -90.9942447996525 0.0373373188051637 -90.9942447996509 0.963217034535584 -178.79046331351 
21.05                          0.967521642030873 171.102082882068 0.0344131377863037 -93.1105061262408 0.0344131377863029 -93.110506126239 0.964982867744148 179.260178920144 
21.1                           0.968980927673018 169.323712388888 0.0317819018844821 -95.1469159242069 0.0317819018844815 -95.1469159242048 0.966590013277399 177.385208818846 
21.15                          0.970310064341777 167.608125438583 0.0294088221598643 -97.1094143928367 0.0294088221598637 -97.1094143928343 0.968056258271501 175.578741040838 
21.2                           0.97152339384355 165.950547459093 0.027263815124479 -99.0033324972089 0.0272638151244786 -99.0033324972063 0.969396925552486 173.83550561059  
21.25                          0.972633300978433 164.346689310183 0.0253207994316991 -100.83346713825 0.0253207994316987 -100.833467138248 0.970625277067351 172.150770277823 
21.3                           0.973650530265689 162.792687352836 0.0235571056403071 -102.604145806263 0.0235571056403068 -102.604145806261 0.971752842136874 170.520274105987 
21.35                          0.974584444107286 161.285052052964 0.0219529800532142 -104.319282323411 0.0219529800532139 -104.319282323408 0.972789686006374 168.940170500877 
21.4                           0.975443234392535 159.820623771006 0.0204911668392468 -105.982425023338 0.0204911668392466 -105.982425023335 0.973744630734532 167.406978192746 
21.45                          0.976234096883765 158.396534617255 0.0191565553495569 -107.596798499577 0.0191565553495567 -107.596798499574 0.974625437830709 165.917538935897 
21.5                           0.976963375687366 157.010175441235 0.0179358817962712 -109.165339873095 0.0179358817962711 -109.165339873093 0.975438960031572 164.468980896884 
21.55                          0.977636683551896 155.65916717876  0.0168174763322939 -110.690730377998 0.0168174763322938 -110.690730377997 0.976191268050486 163.058686873299 
21.6                           0.97825900252997 154.341335908438 0.0157910481172301 -112.175422938246 0.01579104811723 -112.175422938244 0.976887756927052 161.68426662618  
21.65                          0.978834768607168 153.054691074965 0.014847502228757 -113.621666303078 0.0148475022287569 -113.621666303077 0.97753323566586 160.343532725474 
21.7                           0.979367943174404 151.797406423875 0.0139787833279626 -115.031526221161 0.0139787833279626 -115.03152622116 0.978132003120141 159.034479404259 
21.75                          0.979862073651689 150.56780326456  0.0131777418507077 -116.406904060256 0.0131777418507077 -116.406904060255 0.978687912500042 157.755263997167 
21.8                           0.980320345124255 149.364335738297 0.0124380192080488 -117.749553218   0.0124380192080487 -117.749553217999 0.979204426430778 156.504190604556 
21.85                          0.980745624498922 148.185577817718 0.0117539490646084 -119.061093618092 0.0117539490646083 -119.061093618092 0.979684664125599 155.27969567905  
21.9                           0.981140498408273 147.030211805653 0.0111204722470996 -120.343024543112 0.0111204722470995 -120.343024543112 0.980131441951451 154.080335276886 
21.95                          0.981507305866656 145.897018135846 0.0105330632345195 -121.596736018975 0.0105330632345193 -121.596736018976 0.980547308435565 152.904773754872 
22                             0.98184816650286 144.784866307068 0.00998766651198891 -122.823518935428 0.00998766651198879 -122.823518935429 0.980934574576459 151.751773725851 
22.05                          0.982165005050053 143.692706806467 0.00948064134419037 -124.024574061164 0.00948064134419018 -124.024574061165 0.981295340173781 150.620187112577 
22.1                           0.982459572656943 142.619563898491 0.00900871375194564 -125.20102009019 0.00900871375194545 -125.201020090192 0.981631516770393 149.50894716262  
22.15                          0.982733465489379 141.564529173027 0.00856893466491531 -126.353900837492 0.00856893466491511 -126.353900837494 0.981944847701619 148.417061306123 
22.2                           0.982988141014294 140.526755761022 0.0081586433814117 -127.484191686131 0.00815864338141144 -127.484191686133 0.982236925665937 147.343604754475 
22.25                          0.983224932294616 139.505453138293 0.00777543559839495 -128.592805374394 0.00777543559839472 -128.592805374396 0.982509208165251 146.287714751785 
22.3                           0.983445060571675 138.4998824488   0.00741713538535772 -129.680597199995 0.00741713538535745 -129.680597199997 0.982763031108256 145.248585402773 
22.35                          0.983649646368663 137.509352287672 0.00708177056867501 -130.748369708413 0.00708177056867475 -130.748369708416 0.982999620825292 144.225463010717 
22.4                           0.983839719313059 136.533214891994 0.00676755107113078 -131.796876923852 0.00676755107113051 -131.796876923855 0.983220104705522 143.217641867682 
22.45                          0.984016226846292 135.57086269398  0.00647284981719775 -132.826828173987 0.00647284981719747 -132.826828173989 0.983425520636005 142.224460446584 
22.5                           0.984180041964179 134.621725196829 0.00619618587030036 -133.838891553279 0.00619618587030009 -133.838891553282 0.983616825396076 141.245297951008 
22.55                          0.984331970110911 133.685266138475 0.00593620951540363 -134.833697064145 0.00593620951540336 -134.833697064148 0.983794902138457 140.27957118408  
22.6                           0.984472755331984 132.760980912649 0.00569168904024338 -135.811839470511 0.00569168904024311 -135.811839470513 0.983960567070051 139.326731702456 
22.65                          0.984603085776718 131.848394220359 0.00546149900249499 -136.773880894129 0.00546149900249474 -136.773880894131 0.984114575429721 138.386263225537 
22.7                           0.984723598628636 130.947057928035 0.00524460979912516 -137.720353180463 0.00524460979912494 -137.720353180465 0.984257626847141 137.457679273522 
22.75                          0.984834884531375 130.05654911137  0.00504007837888016 -138.651760057796 0.00504007837887993 -138.651760057798 0.984390370155533 136.54052101104  
22.8                           0.984937491568858 129.176468266286 0.00484703995999489 -139.568579110488 0.00484703995999471 -139.568579110489 0.984513407721529 135.634355275718 
22.85                          0.985031928850787 128.306437670539 0.0046647006333149 -140.471263584936 0.00466470063331478 -140.471263584937 0.984627299347201 134.738772773402 
22.9                           0.985118669747963 127.446099881336 0.00449233074656861 -141.360244044683 0.00449233074656852 -141.360244044683 0.984732565792265 133.853386423794 
22.95                          0.985198154816303 126.595116355913 0.0043292589788974 -142.235929889307 0.00432925897889737 -142.235929889306 0.984829691958473 132.977829842033 
23                             0.985270794443616 125.753166183477 0.00417486702627288 -143.098710750103 0.00417486702627289 -143.098710750103 0.984919129772947 132.11175594334  
