! Touchstone file exported from HFSS 3D Layout Design 2026.1.0
!        File:           D:/Work/SIM/ADS_AUTO_SIM/projects/RFSOC_RF/TX_Fillter.aedt
!        Generated:      11:07:00 PM Aug 30, 2026
!        Design:         TX_BAND1_MCFIL_R6_CNN004
!        Project:        TX_Fillter
!
# GHz S MA R 50.000000
! Terminal data exported
! Port[1] = Port1
! Port[2] = Port2
14                             0.963047206618506 170.321147459339 0.00578642385642953 169.994176133024 0.00578642385642953 169.994176133024 0.96350417842463 170.441725764245 
14.05                          0.962305475926166 169.276134927388 0.00592696773538868 169.529775835696 0.00592696773538864 169.529775835695 0.962785358879258 169.414296202504 
14.1                           0.961539545961846 168.221590601824 0.00607493005582425 169.076703766049 0.00607493005582422 169.076703766049 0.962043430144365 168.377817113925 
14.15                          0.960748254291714 167.157189362864 0.0062308742213028 168.63461691307  0.00623087422130278 168.63461691307  0.961277292202777 167.33198286355  
14.2                           0.959930364627093 166.082590152535 0.00639541421982247 168.203099423771 0.00639541421982248 168.203099423771 0.960485775495601 166.276472991028 
14.25                          0.959084560951437 164.997434989889 0.00656921962743531 167.781656818229 0.00656921962743529 167.781656818229 0.959667635400327 165.210951301621 
14.3                           0.958209441082708 163.901347911404 0.00675302114654559 167.369710114799 0.00675302114654557 167.369710114799 0.958821546177369 164.135064888454 
14.35                          0.957303509607144 162.793933829744 0.00694761674139862 166.966589918423 0.00694761674139861 166.966589918422 0.957946094324589 163.048443079722 
14.4                           0.956365170112017 161.674777303368 0.0071538784415689 166.57153053178  0.00715387844156889 166.57153053178  0.957039771271356 161.950696303993 
14.45                          0.955392716635342 160.543441208643 0.007372759893823 166.183664155157 0.00737275989382297 166.183664155157 0.956100965334568 160.841414865917 
14.5                           0.954384324239383 159.399465305233 0.00760530475378487 165.802015245998 0.00760530475378487 165.802015245998 0.955127952848486 159.720167623888 
14.55                          0.953338038602052 158.242364684485 0.00785265602162261 165.425495112701 0.0078526560216226 165.425495112701 0.954118888368088 158.586500560241 
14.6                           0.952251764505433 157.071628089442 0.00811606644079962 165.052896818901 0.00811606644079965 165.0528968189   0.953071793831534 157.439935233522 
14.65                          0.951123253083581 155.886716093773 0.00839691009613899 164.682890473778 0.00839691009613901 164.682890473778 0.951984546551033 156.2799671012   
14.7                           0.949950087671829 154.687059125515 0.00869669536743605 164.314018980394 0.00869669536743605 164.314018980394 0.950854865882421 155.106063699851 
14.75                          0.948729668076673 153.472055319838 0.00901707941810159 163.944694307288 0.00901707941810158 163.944694307288 0.949680298401666 153.917662668366 
14.8                           0.947459193058352 152.241068183258 0.0093598844253736 163.573194338231 0.0093598844253736 163.573194338231 0.948458201390761 152.714169598016 
14.85                          0.946135640786663 150.993424049594 0.0097271157901543 163.197660340892 0.00972711579015435 163.197660340893 0.947185724405279 151.494955691355 
14.9                           0.94475574699363 149.728409305654 0.0101209826012675 162.816095077075 0.0101209826012675 162.816095077075 0.945859788660565 150.25935520972  
14.95                          0.943315980503266 148.44526736196  0.0105439206717846 162.426361555233 0.0105439206717845 162.426361555234 0.94447706393195 149.006662686739 
15                             0.941812515767612 147.143195340822 0.0109986185150872 162.026182400309 0.0109986185150872 162.026182400309 0.943033942615479 147.736129882438 
15.05                          0.940241201978062 145.821340450692 0.0114880466867473 161.613139786937 0.0114880466867473 161.613139786937 0.941526510537852 146.446962449483 
15.1                           0.938597528249764 144.47879601186  0.0120154909865739 161.184675850327 0.0120154909865738 161.184675850327 0.939950514035899 145.138316279575 
15.15                          0.936876584292548 143.114597094257 0.0125845900950042 160.738093455218 0.0125845900950041 160.738093455218 0.93830132274481 143.809293494061 
15.2                           0.935073015881623 141.727715723211 0.0131993783114248 160.270557168138 0.0131993783114247 160.270557168139 0.936573887437827 142.458938038385 
15.25                          0.933180974321942 140.317055603512 0.0138643341713686 159.779094242502 0.0138643341713686 159.779094242502 0.934762692145153 141.086230834978 
15.3                           0.931194058957779 138.881446305943 0.0145844358476339 159.260595390728 0.0145844358476339 159.260595390728 0.932861699642426 139.690084443623 
15.35                          0.929105251608725 137.419636853541 0.0153652243904813 158.711815083348 0.0153652243904813 158.711815083348 0.930864289234571 138.269337172026 
15.4                           0.926906841609247 135.930288637133 0.0162128760379963 158.129371082494 0.0162128760379962 158.129371082494 0.92876318556346 136.822746572465 
15.45                          0.924590339883802 134.411967581207 0.0171342850338685 157.509742886737 0.0171342850338684 157.509742886737 0.92655037693039 135.348982252724 
15.5                           0.92214638019463 132.863135471895 0.0181371586313222 156.849268735924 0.018137158631322 156.849268735924 0.924217021338393 133.846617921302 
15.55                          0.919564605344006 131.282140348825 0.019230126244456 156.144140798429 0.0192301262444558 156.144140798428 0.921753338114319 132.314122578043 
15.6                           0.916833535683942 129.667205852086 0.0204228650382322 155.390398138333 0.0204228650382321 155.390398138333 0.919148482553562 130.749850752204 
15.65                          0.913940416768523 128.01641940475  0.0217262446326795 154.583917035797 0.0217262446326794 154.583917035797 0.916390400525917 129.152031680742 
15.7                           0.910871042358354 126.32771910097  0.0231524940427028 153.720398208972 0.0231524940427026 153.720398208972 0.913465659370486 127.518757311048 
15.75                          0.907609548230692 124.598879160464 0.0247153944890856 152.795350458992 0.0247153944890854 152.795350458992 0.910359250668728 125.847969005232 
15.8                           0.904138171336588 122.827493803609 0.0264305023044743 151.804070229279 0.0264305023044741 151.804070229279 0.907054359591303 124.137442818884 
15.85                          0.900436967747587 121.010959399625 0.0283154068232456 150.741616535359 0.0283154068232454 150.741616535358 0.903532094436076 122.384773228311 
15.9                           0.896483481515989 119.14645474677  0.03039002888377 149.602780680426 0.0303900288837698 149.602780680426 0.899771168677587 120.587355189721 
15.95                          0.89225235499904 117.230919363093 0.0326769663740013 148.382050124786 0.0326769663740012 148.382050124786 0.895747526296266 118.742364437031 
16                             0.88771486933517 115.26102970676  0.0352018940892115 147.073565824686 0.0352018940892113 147.073565824685 0.891433899313306 116.846735969127 
16.05                          0.882838401584193 113.233173317493 0.0379940259912819 145.671072300836 0.0379940259912817 145.671072300835 0.886799284296078 114.897140754056 
16.1                           0.877585782547712 111.143420992236 0.0410866486690105 144.167859644706 0.0410866486690104 144.167859644705 0.8818083221091  112.889960803082 
16.15                          0.871914536506583 108.987497303664 0.0445177352416766 142.556696631959 0.0445177352416766 142.556696631959 0.876420562394976 110.821262966683 
16.2                           0.865775981160404 106.760750076838 0.0483306488689668 140.829754104672 0.0483306488689669 140.829754104672 0.870589591278101 108.686772113584 
16.25                          0.859114163176289 104.45811991206  0.0525749440250517 138.978517835493 0.0525749440250518 138.978517835493 0.864261997820177 106.481844826582 
16.3                           0.851864602427482 102.074111562054 0.0573072711337927 136.993690242124 0.0573072711337929 136.993690242123 0.85737615227096 104.201445464098 
16.35                          0.843952817090099 99.6027700585523 0.0625923850818687 134.865080647788 0.0625923850818689 134.865080647788 0.849860767973905 101.840127510165 
16.4                           0.835292603762544 97.0376661131973 0.0685042490756187 132.581484386372 0.0685042490756189 132.581484386372 0.841633220340698 99.3920247371858 
16.45                          0.82578405418469 94.3718977468967 0.0751272101391406 130.130552084034 0.075127210139141 130.130552084034 0.832597603025151 96.8508590817237 
16.5                           0.815311307061073 91.5981187031033 0.0825571981623254 127.49865213813  0.0825571981623258 127.498652138129 0.822642517286469 94.2099756381511 
16.55                          0.803740066467929 88.7086095074891 0.0909028624432655 124.67073208192  0.0909028624432658 124.670732081919 0.81163862190695 91.462420311782  
16.6                           0.790914977483253 85.6954148019601 0.100286502277358 121.630188616395 0.100286502277358 121.630188616395 0.799436027844073 88.6010831431215 
16.65                          0.776657050225   82.5505818397266 0.110844563979365 118.358762198081 0.110844563979366 118.35876219808  0.785861718994404 85.6189410641173 
16.7                           0.760761487197851 79.2665511500978 0.122727357636525 114.836480914764 0.122727357636525 114.836480914764 0.770717339522395 82.5094490916898 
16.75                          0.742996524857029 75.8367730718148 0.136097486158544 111.041690721703 0.136097486158544 111.041690721703 0.753777938029307 79.2671501391452 
16.8                           0.723104283157945 72.2566550139166 0.151126276762275 106.951225496469 0.151126276762275 106.951225496469 0.734792633858958 75.8886021595369 
16.85                          0.700805158083546 68.5249855931274 0.167987278005741 102.540790566541 0.167987278005741 102.540790566541 0.713488702783473 72.3737580444083 
16.9                           0.675807998271743 64.6460336206828 0.186845686361195 97.7856552747549 0.186845686361194 97.7856552747549 0.689581275400113 68.7279774925416 
16.95                          0.647829114520655 60.6325794083485 0.207842509706615 92.6617680499039 0.207842509706614 92.661768049904  0.662791639285382 64.9648954203869 
17                             0.616623870920801 56.5101932916366 0.231072566400975 87.1474096278734 0.231072566400974 87.1474096278736 0.632877825523848 61.1104040434219 
17.05                          0.582034745294073 52.3231087890292 0.256556360020822 81.2254668026826 0.25655636002082 81.2254668026829 0.599681281251646 57.2079949791738 
17.1                           0.544058561215155 48.1419982172712 0.28420778934974 74.8863136753283 0.284207789349739 74.8863136753287 0.563192193766001 53.3255949485002 
17.15                          0.502932111752966 44.0737508324233 0.313802676219036 68.1311051863272 0.313802676219035 68.1311051863276 0.523632402277367 49.5637059815444 
17.2                           0.459228882696513 40.2727695288601 0.344956717532707 60.9750187462293 0.344956717532706 60.9750187462296 0.481547956136271 46.0639287687324 
17.25                          0.413950323263226 36.9518553724191 0.377124104933804 53.4496829081514 0.377124104933804 53.4496829081518 0.43789340114033 43.0154286750787 
17.3                           0.368584763959333 34.3873180367178 0.409627097683523 45.6038494038061 0.409627097683523 45.6038494038063 0.394078610687641 40.6539317521548 
17.35                          0.325096924882354 32.9054359661162 0.441719979030302 37.501490687338  0.441719979030303 37.501490687338  0.35193918838575 39.2426520321344 
17.4                           0.285797817664503 32.8244133500838 0.4726786163284  29.2170637782486 0.4726786163284  29.2170637782485 0.31358497266944 39.0182292935784 
17.45                          0.253024979285505 34.3176521360317 0.501894417034445 20.8285644856813 0.501894417034444 20.828564485681  0.281082684397378 40.0866845834195 
17.5                           0.228572240059385 37.2055334647796 0.528946519792676 12.4098199284613 0.528946519792675 12.4098199284609 0.25596654935691 42.2890599879999 
17.55                          0.212974976397023 40.8245396391152 0.553632991729705 4.0237768454519  0.553632991729703 4.02377684545139 0.2387030386766  45.1341233920516 
17.6                           0.205106447266875 44.2120551909888 0.575957280739257 -4.28184868029888 0.575957280739253 -4.28184868029943 0.228425352380768 47.922725570327  
17.65                          0.202557588880767 46.5539899707594 0.596081299233534 -12.4760534006062 0.596081299233528 -12.4760534006068 0.223211463345393 50.0277670006301 
17.7                           0.20257401319755 47.4804000547711 0.61426387491058 -20.5435160454245 0.614263874910573 -20.543516045425 0.220760665047996 51.1060668769648 
17.75                          0.202836162946772 47.0167821980361 0.630801704576853 -28.4819165635783 0.630801704576846 -28.4819165635787 0.21901717237733 51.1087822223959 
17.8                           0.201747019407083 45.3871010114601 0.645983247293453 -36.2985493973599 0.645983247293446 -36.2985493973602 0.216469835998856 50.1704594143582 
17.85                          0.198375926520376 42.8631977945536 0.660058897085867 -44.0069699065402 0.660058897085862 -44.0069699065404 0.21217275234847 48.4992709968158 
17.9                           0.192288774819637 39.6979684583809 0.673225963918295 -51.6241148346195 0.673225963918292 -51.6241148346195 0.205639355942239 46.3152268968186 
17.95                          0.183386440602441 36.1116923433451 0.685624861577432 -59.1680778045216 0.685624861577432 -59.1680778045216 0.196716830721396 43.829479596739  
18                             0.17178604757481 32.3029965537801 0.697342649013731 -66.656548760708 0.697342649013735 -66.6565487607081 0.185484730024964 41.2475980111557 
18.05                          0.157744190379668 28.4718386688187 0.708420718429704 -74.1058370822219 0.708420718429711 -74.1058370822221 0.172187444949427 38.7861844308523 
18.1                           0.14161407866595 24.8543922765055 0.718864288092452 -81.5303659702989 0.718864288092462 -81.5303659702992 0.157199220392447 36.6999012571337 
18.15                          0.123832986948841 21.7810652015936 0.728652111524088 -88.942524830582 0.7286521115241  -88.9425248305826 0.141021511651133 35.3214723624976 
18.2                           0.104948925490744 19.7874858542491 0.737745367713446 -96.3527786419597 0.73774536771346 -96.3527786419605 0.124319991362232 35.1194185816727 
18.25                          0.0857258793600627 19.8485000738493 0.74609507547883 -103.769948757154 0.746095075478843 -103.769948757155 0.108019915080346 36.7682886574365 
18.3                           0.0674500446117494 23.8644412792707 0.753647638715294 -111.201594013823 0.753647638715307 -111.201594013824 0.0934807905740681 41.1647212886386 
18.35                          0.0527273999278384 35.2172298165473 0.760348329832005 -118.654433465218 0.760348329832016 -118.654433465219 0.0826914603188051 49.1172248183648 
18.4                           0.0464939371158948 55.9273110493737 0.766142686708764 -126.134762788208 0.766142686708771 -126.134762788209 0.078088259778245 60.2465978699571 
18.45                          0.0527212786486876 77.031610660981  0.770975944694904 -133.648825976224 0.770975944694908 -133.648825976225 0.0813469058137574 71.9009249361592 
18.5                           0.0685253801005434 88.6552770912117 0.774790748825776 -141.203112405522 0.774790748825776 -141.203112405522 0.0920472075640873 80.8224739253893 
18.55                          0.0892347685693145 92.2720302045035 0.777523489985743 -148.804556485856 0.777523489985742 -148.804556485856 0.10830295780498 85.7888956414435 
18.6                           0.112423668923219 91.352585114476  0.779099685213101 -156.46062236218 0.779099685213099 -156.460622362178 0.128281521982138 87.3161039119762 
18.65                          0.137124195925548 87.8889146455413 0.779428888724571 -164.179259113775 0.779428888724572 -164.179259113773 0.15078609979843 86.313401923288  
18.7                           0.162993866157271 82.8876043156329 0.778399696456736 -171.968712629839 0.778399696456743 -171.968712629835 0.175161279630347 83.51438282688   
18.75                          0.189966595813803 76.8795821903272 0.775875515445523 -179.837179591963 0.77587551544554 -179.837179591958 0.201092922830859 79.4173754496112 
18.8                           0.218106790275819 70.1662955437877 0.771691925733623 172.207711493478 0.771691925733655 172.207711493484 0.228463083015812 74.3482405415487 
18.85                          0.247535343910636 62.9327317252912 0.765656661670489 164.159604638961 0.765656661670538 164.159604638968 0.257257587482184 68.5225165832529 
18.9                           0.278381211723681 55.3017325563251 0.757553438417968 156.014308880973 0.757553438418037 156.014308880981 0.287503873131091 62.088180386685  
18.95                          0.310742406508222 47.3617879546978 0.747150949373585 147.770860708815 0.747150949373676 147.770860708823 0.319224349996118 55.1528184160849 
19                             0.344651553996022 39.1821928630714 0.734218198447635 139.432702305069 0.734218198447746 139.432702305077 0.35239835737312 47.8007227836015 
19.05                          0.380046198326236 30.8218279137064 0.718546702900409 131.008870712799 0.718546702900536 131.008870712807 0.386930922384222 40.1037363441256 
19.1                           0.416746780833258 22.3344963617483 0.699978837596775 122.515034138173 0.699978837596915 122.515034138179 0.422629790614072 32.1281219981224 
19.15                          0.45444655020219 13.7721919530247 0.678439697598815 113.97416096839  0.67843969759896 113.974160968395 0.45919400316927 23.9387266069498 
19.2                           0.492717499386933 5.1869047461238  0.653967687329028 105.41659012222  0.653967687329172 105.416590122223 0.496217530081054 15.6011266254804 
19.25                          0.531034477767713 -3.3687866558355 0.626737375807314 96.8793149250444 0.626737375807449 96.8793149250461 0.533209894729475 7.18214767754202 
19.3                           0.568816033122199 -11.8421952197123 0.597067995876918 88.4044103576042 0.597067995877039 88.4044103576043 0.569632491177004 -1.25094355872261 
19.35                          0.605476238510313 -20.1818847893725 0.565413038995064 80.0367095064952 0.565413038995166 80.0367095064941 0.604945316562377 -9.63223986078115 
19.4                           0.640478379734101 -28.3395933505386 0.532330540851678 71.8210194785395 0.532330540851758 71.8210194785376 0.638655670685089 -17.8995606462522 
19.45                          0.673380501521566 -36.272304587442 0.49843857152082 63.7992923933271 0.498438571520878 63.7992923933248 0.67035952648184 -25.9968978979876 
19.5                           0.703865023458373 -43.9440422483192 0.464364216161936 56.008181517856  0.464364216161973 56.0081815178538 0.699768316790959 -33.8764792877167 
19.55                          0.731749083665947 -51.3270609332041 0.430695454644869 48.477309651764  0.430695454644889 48.4773096517625 0.72671801707902 -41.5001146372342 
19.6                           0.75697711520415 -58.4022790563545 0.397943581578587 41.2283992606836 0.397943581578593 41.228399260683  0.751161912419432 -48.8396827845626 
19.65                          0.77960064870076 -65.1589806167319 0.366520201411824 34.2752287957122 0.36652020141182 34.2752287957128 0.773151675267116 -55.876806419272 
19.7                           0.79975163577549 -71.5939456817387 0.336728983789056 27.6242439801407 0.336728983789044 27.6242439801429 0.792812577935853 -62.6018983540729 
19.75                          0.817614943188834 -77.7102300566217 0.308769538017188 21.2755912676383 0.308769538017173 21.275591267642  0.810318051879956 -69.0128215027317 
19.8                           0.833403934893157 -83.5158094545788 0.28274945069161 15.2243457333348 0.282749450691593 15.2243457333399 0.825867188929937 -75.1133957461418 
19.85                          0.847341129106736 -89.0222574518308 0.258700528093983 9.46175222839353 0.258700528093967 9.46175222839994 0.839666987969259 -80.9119343039871 
19.9                           0.859644363626267 -94.2435662951423 0.236596069375981 3.97635987146608 0.236596069375965 3.97635987147372 0.851919715257805 -86.4199277886762 
19.95                          0.870517926665985 -99.1951641803648 0.216367047899756 -1.24501322597061 0.216367047899743 -1.24501322596208 0.862814851459541 -91.6509351743487 
20                             0.880147660264665 -103.893141036735 0.197916048531641 -6.21650495835625 0.197916048531629 -6.21650495834692 0.872524691352162 -96.6196966705774 
20.05                          0.888698959662025 -108.353668679938 0.181128540225374 -10.9526161509371 0.181128540225364 -10.9526161509273 0.881202593320952 -101.341455433207 
20.1                           0.896316711415118 -112.592587897933 0.165881532578262 -15.4677768388019 0.165881532578254 -15.4677768387918 0.888982992428936 -105.831460500492 
20.15                          0.90312641304161 -116.625130749884 0.152049917243996 -19.7760437617433 0.152049917243991 -19.7760437617331 0.895982479725683 -110.104618304595 
20.2                           0.909235923755028 -120.46574749739 0.13951089524602 -23.8909010204395 0.139510895246016 -23.8909010204295 0.902301443571305 -114.175260846862 
20.25                          0.914737473747076 -124.128011439526 0.128146898728797 -27.8251388635252 0.128146898728794 -27.8251388635155 0.908025933741137 -118.057002318511 
20.3                           0.919709697113848 -127.624579720399 0.117847374830839 -31.5907897477043 0.117847374830838 -31.5907897476952 0.913229536000583 -121.762660741271 
20.35                          0.924219552380239 -130.967192907356 0.108509739091757 -35.1991050885714 0.108509739091756 -35.1991050885631 0.917975135485826 -125.304226019534 
20.4                           0.928324061412202 -134.166700308498 0.100039742886301 -38.660559972106 0.100039742886301 -38.6605599720985 0.922316508134855 -128.692860102041 
20.45                          0.932071840201533 -137.233101438126 0.0923514422623557 -41.9848763222114 0.0923514422623557 -41.9848763222048 0.926299718039376 -131.938918546477 
20.5                           0.935504420628192 -140.175596751119 0.0853669075849128 -45.1810575940962 0.085366907584913 -45.1810575940906 0.92996432154551 -135.051985649776 
20.55                          0.938657376448406 -143.002642836987 0.0790157750579354 -48.2574300498225 0.0790157750579358 -48.257430049818 0.933344391422126 -138.040917524608 
20.6                           0.941561273535795 -145.722008803642 0.0732347116354551 -51.2216871667064 0.0732347116354555 -51.221687166703 0.936469380239074 -140.913889175669 
20.65                          0.944242466681526 -148.340831701844 0.0679668426392201 -54.080934830848 0.0679668426392204 -54.0809348308458 0.93936484388341 -143.678442867531 
20.7                           0.946723764949191 -150.865669642062 0.0631611750957396 -56.8417357663151 0.0631611750957398 -56.8417357663142 0.942053045633543 -146.341535977363 
20.75                          0.949024985907938 -153.302551817201 0.0587720380530106 -59.5101522199628 0.0587720380530107 -59.510152219963 0.944553459521083 -148.909587172629 
20.8                           0.951163416790813 -155.657025030992 0.0547585528164817 -62.0917863219107 0.0547585528164817 -62.091786321912 0.946883189518176 -151.388520211277 
20.85                          0.95315419819097 -157.934196591597 0.0510841402610313 -64.5918178180869 0.0510841402610311 -64.5918178180893 0.949057318790897 -153.783804980425 
20.9                           0.955010643563267 -160.138773599605 0.0477160684402714 -67.0150390584905 0.0477160684402711 -67.0150390584939 0.951089201072371 -156.10049560739 
20.95                          0.956744505665928 -162.27509876592 0.0446250411048509 -69.3658872485557 0.0446250411048505 -69.3658872485599 0.952990704236904 -158.343265622518 
21                             0.958366199205179 -164.347182957524 0.041784826070842 -71.6484740499181 0.0417848260708416 -71.6484740499232 0.954772414436697 -160.51644024764 
21.05                          0.959884987341651 -166.358734701677 0.0391719213646724 -73.8666126646045 0.0391719213646719 -73.8666126646105 0.956443807696835 -162.624025942364 
21.1                           0.961309138364791 -168.313186891843 0.0367652565077449 -76.0238425629151 0.0367652565077444 -76.0238425629216 0.95801339463397 -164.669737373786 
21.15                          0.96264605771423 -170.213720938244 0.0345459260453722 -78.1234520269974 0.0345459260453716 -78.1234520270044 0.959488842942917 -166.65702199156 
21.2                           0.963902399595012 -172.063288597565 0.0324969523671308 -80.1684986842256 0.0324969523671301 -80.1684986842331 0.9608770814541  -168.589082395088 
21.25                          0.9650841616675  -173.864631703077 0.030603074936403 -82.1618282004419 0.0306030749364024 -82.1618282004496 0.962184388875527 -170.468896677041 
21.3                           0.966196765665387 -175.620300000701 0.0288505631952522 -84.1060912952573 0.0288505631952516 -84.1060912952652 0.963416469770185 -172.299236920061 
21.35                          0.967245126282945 -177.332667279749 0.0272270506023106 -86.0037592316229 0.02722705060231 -86.0037592316307 0.96457851986125 -174.082686013438 
21.4                           0.968233710254721 -179.003945970246 0.0257213874728567 -87.8571379208285 0.0257213874728562 -87.8571379208361 0.965675282384436 -175.821652945043 
21.45                          0.96916658721037 179.363799637528 0.0243235105064378 -89.6683807727494 0.0243235105064373 -89.6683807727568 0.966711096903279 -177.518386711662 
21.5                           0.97004747360968 177.768641411021 0.0230243270985524 -91.4395004099825 0.023024327098552 -91.4395004099895 0.967689941756111 -179.174988978861 
21.55                          0.97087977083642 176.208776504885 0.0218156127331773 -93.1723793538041 0.021815612733177 -93.1723793538108 0.968615471102222 179.206574390219 
21.6                           0.971666598344813 174.682517488985 0.0206899199390374 -94.8687797798163 0.0206899199390371 -94.8687797798221 0.969491047370543 177.624462828732 
21.65                          0.972410822601213 173.188283373858 0.0196404974629755 -96.5303524317901 0.0196404974629753 -96.5303524317953 0.97031976977992 176.076951484623 
21.7                           0.973115082439795 171.724591443241 0.0186612184682305 -98.1586447736356 0.0186612184682303 -98.15864477364  0.971104499490166 174.562422475199 
21.75                          0.973781811349399 170.290049812924 0.0177465167042361 -99.7551084515745 0.017746516704236 -99.7551084515776 0.971847881852774 173.079356897947 
21.8                           0.974413257125079 168.8833506438   0.0168913297185517 -101.321106131476 0.0168913297185516 -101.321106131478 0.972552366155848 171.626327525687 
21.85                          0.975011499248968 167.503263944662 0.0160910482917588 -102.857917769881 0.0160910482917588 -102.857917769882 0.973220223196475 170.201992121352 
21.9                           0.975578464308049 166.148631907201 0.0153414713738074 -104.366746371417 0.0153414713738074 -104.366746371416 0.973853560962887 168.80508731414  
21.95                          0.976115939709208 164.818363721696 0.0146387658865404 -105.848723280097 0.0146387658865404 -105.848723280095 0.974454338666619 167.434422984648 
22                             0.976625585912626 163.511430827397 0.0139794308331573 -107.304913047283 0.0139794308331573 -107.30491304728 0.975024379329607 166.088877111827 
22.05                          0.97710894737186 162.22686255635  0.0133602652222889 -108.736317914875 0.0133602652222889 -108.736317914871 0.975565381101818 164.767391039309 
22.1                           0.977567462341547 160.963742133775 0.012778339373175 -110.143881948517 0.012778339373175 -110.143881948511 0.976078927460303 163.468965122895 
22.15                          0.978002471690746 159.72120300188  0.0122309692201082 -111.528494852181 0.0122309692201082 -111.528494852174 0.976566496419772 162.192654724755 
22.2                           0.97841522684057 158.498425437399 0.0117156932796656 -112.890995492486 0.0117156932796656 -112.890995492477 0.9770294688673  160.937566523298 
22.25                          0.978806896928513 157.294633436177 0.0112302519840677 -114.232175158317 0.0112302519840677 -114.232175158307 0.977469136118848 159.702855110718 
22.3                           0.979178575288057 156.109091840788 0.0107725691189476 -115.552780578909 0.0107725691189476 -115.552780578898 0.977886706782709 158.487719852913 
22.35                          0.979531285320456 154.9411036896   0.0103407351344859 -116.853516721308 0.0103407351344859 -116.853516721296 0.978283313004144 157.29140198895  
22.4                           0.979865985825618 153.790007767791 0.00993299212579532 -118.135049386162 0.00993299212579523 -118.135049386149 0.978660016156311 156.113181949427 
22.45                          0.980183575850514 152.655176342792 0.00954772030209102 -119.398007618994 0.00954772030209092 -119.39800761898 0.979017812034623 154.95237687502  
22.5                           0.980484899106234 151.536013068262 0.00918342578496379 -120.642985952524 0.00918342578496368 -120.642985952511 0.979357635604871 153.808338318317 
22.55                          0.980770747998582 150.431951042282 0.00883872959434178 -121.870546494134 0.00883872959434165 -121.87054649412 0.979680365349562 152.680450113571 
22.6                           0.981041867311665 149.342451006789 0.00851235769679905 -123.081220871272 0.00851235769679889 -123.081220871258 0.979986827251805 151.568126400464 
22.65                          0.981298957579344 148.266999676488 0.0082031320050145 -124.275512046431 0.00820313200501433 -124.275512046418 0.980277798451642 150.470809789234 
22.7                           0.9815426781753  147.205108186605 0.00790996222964671 -125.453896012247 0.00790996222964655 -125.453896012234 0.980554010605872 149.387969655678 
22.75                          0.981773650149034 146.156310649775 0.00763183849587421 -126.616823376311 0.00763183849587403 -126.616823376299 0.980816152979029 148.319100555579 
22.8                           0.981992458832031 145.120162813303 0.00736782464654232 -127.764720844435 0.00736782464654216 -127.764720844425 0.981064875290203 147.263720749031 
22.85                          0.982199656235677 144.096240808782 0.00711705216241365 -128.897992610289 0.00711705216241352 -128.89799261028 0.981300790337837 146.221370826009 
22.9                           0.982395763260159 143.084139986785 0.00687871463758065 -130.017021658644 0.00687871463758054 -130.017021658638 0.981524476422286 145.191612425246 
22.95                          0.982581271731583 142.083473830006 0.0066520627547851 -131.122170988803 0.00665206275478507 -131.122170988799 0.981736479583977 144.174027039227 
23                             0.982756646282685 141.093872938772 0.00643639971130952 -132.213784764192 0.00643639971130953 -132.213784764192 0.981937315673149 143.168214898672 
