! Touchstone file exported from HFSS 3D Layout Design 2026.1.0
!        File:           D:/Work/SIM/ADS_AUTO_SIM/projects/RFSOC_RF/TX_Fillter.aedt
!        Generated:      11:36:10 PM Aug 30, 2026
!        Design:         TX_BAND1_MCFIL_R9_CNN004
!        Project:        TX_Fillter
!
# GHz S MA R 50.000000
! Terminal data exported
! Port[1] = Port1
! Port[2] = Port2
14                             0.964922851671323 173.932034945019 0.00535344083562384 172.620195490198 0.00535344083562383 172.620195490198 0.965722536772135 176.698245383801 
14.05                          0.964226602870112 172.904208699745 0.0054811012778698 172.172983385101 0.00548110127786976 172.172983385101 0.965040463556701 175.701866941542 
14.1                           0.963507821944728 171.86746943079  0.0056154701173881 171.738959481539 0.005615470117388 171.738959481539 0.964336050266918 174.696932777258 
14.15                          0.962765422025968 170.821517956286 0.00575706432261469 171.317886636158 0.00575706432261463 171.317886636158 0.963608204239791 173.683150528579 
14.2                           0.961998246387115 169.766040232051 0.0059064483576178 170.909456671476 0.00590644835761772 170.909456671476 0.962855761651867 172.660213121042 
14.25                          0.961205062807249 168.700706423479 0.00606423901109853 170.513283715206 0.00606423901109845 170.513283715206 0.962077481708175 171.627797834386 
14.3                           0.960384557383314 167.625169906057 0.00623111075423727 170.128897330371 0.0062311107542372 170.128897330371 0.961272040257035 170.585565295829 
14.35                          0.959535327727199 166.539066187928 0.00640780169037425 169.75573548897  0.00640780169037421 169.75573548897  0.960438022763866 169.533158393495 
14.4                           0.958655875475631 165.442011747195 0.00659512016798807 169.393137451759 0.00659512016798801 169.393137451759 0.959573916568064 168.470201102379 
14.45                          0.957744598030793 164.333602775867 0.00679395213823695 169.040336626325 0.00679395213823693 169.040336626325 0.958678102336717 167.396297214422 
14.5                           0.956799779438297 163.213413821455 0.00700526934969183 168.696453484596 0.00700526934969179 168.696453484596 0.957748844616864 166.311028963302 
14.55                          0.955819580295966 162.080996316208 0.00723013848608788 168.360488628775 0.0072301384860879 168.360488628775 0.956784281374174 165.213955533495 
14.6                           0.954802026571715 160.935876982861 0.00746973136828963 168.031316100774 0.00746973136828963 168.031316100774 0.955782412389775 164.104611441946 
14.65                          0.953744997191083 159.77755610447  0.00772533635957733 167.707677033969 0.00772533635957734 167.707677033969 0.954741086368267 162.982504779338 
14.7                           0.952646210234411 158.60550564448  0.00799837113428747 167.388173746809 0.00799837113428752 167.388173746809 0.953657986588103 161.847115296401 
14.75                          0.951503207559565 157.419167201518 0.0082903969943044 167.071264374781 0.00829039699430446 167.071264374781 0.952530614900027 160.697892318975 
14.8                           0.950313337637975 156.217949781588 0.00860313494654368 166.75525812996  0.00860313494654377 166.75525812996  0.95135627384941 159.534252473549 
14.85                          0.949073736358715 155.00122736821  0.00893848378813938 166.438311265103 0.00893848378813945 166.438311265103 0.950132046663264 158.355577202787 
14.9                           0.947781305516492 153.768336268734 0.00929854048542459 166.118423801825 0.00929854048542468 166.118423801824 0.948854774801484 157.161210047985 
14.95                          0.946432688653608 152.518572212307 0.00968562317902852 165.793437059297 0.00968562317902861 165.793437059297 0.947521032723231 155.950453672536 
15                             0.945024243871811 151.251187172004 0.0101022972017393 165.461031991371 0.0101022972017394 165.46103199137  0.94612709946185 154.722566597189 
15.05                          0.943552013165766 149.96538588011  0.0105514045596625 165.118728306057 0.0105514045596626 165.118728306057 0.944668926533508 153.476759614178 
15.1                           0.942011687753625 148.660322001686 0.0110360974023875 164.763884302517 0.0110360974023876 164.763884302517 0.943142101623713 152.212191843035 
15.15                          0.94039856878938 147.335093927092 0.0115598760964266 164.393697317749 0.0115598760964267 164.393697317749 0.941541807399272 150.927966386107 
15.2                           0.938707522733135 145.988740139152 0.0121266326205754 164.005204629036 0.0121266326205755 164.005204629036 0.939862774677855 149.623125536334 
15.25                          0.936932930525579 144.62023410497  0.0127407001250049 163.595284609969 0.0127407001250049 163.595284609969 0.938099229049095 148.296645483639 
15.3                           0.935068629556979 143.228478636075 0.0134069096413148 163.160657888789 0.0134069096413148 163.160657888789 0.936244829875185 146.9474304593   
15.35                          0.933107847233276 141.812299653412 0.0141306551026316 162.697888208941 0.0141306551026316 162.697888208941 0.934292600399037 145.57430624979  
15.4                           0.931043124715444 140.370439285801 0.0149179680360396 162.20338264433  0.0149179680360397 162.20338264433  0.932234847446912 144.176013002709 
15.45                          0.928866229134339 138.901548221659 0.0157756035300357 161.6733907765   0.0157756035300357 161.6733907765   0.93006306892057 142.751197237635 
15.5                           0.926568052251307 137.40417722427  0.0167111393641435 161.10400239834  0.0167111393641436 161.10400239834  0.927767846920242 141.298402963829 
15.55                          0.924138493131586 135.876767710546 0.0177330905243072 160.491143269043 0.0177330905243071 160.491143269043 0.925338723909784 139.816061794952 
15.6                           0.921566321906895 134.317641282489 0.0188510417253909 159.8305684073   0.0188510417253909 159.8305684073   0.922764058812167 138.302481938356 
15.65                          0.918839021105721 132.724988089668 0.0200758010314612 159.117852373186 0.0200758010314612 159.117852373186 0.920030859285531 136.755835923478 
15.7                           0.91594260030041 131.096853890785 0.0214195782169683 158.348375952329 0.0214195782169682 158.348375952329 0.917124585651502 135.174146921008 
15.75                          0.912861378929958 129.431125673769 0.0228961921596217 157.517308616699 0.0228961921596217 157.517308616699 0.914028920996797 133.555273492846 
15.8                           0.909577731071014 127.725515688782 0.0245213123106598 156.619586092449 0.0245213123106598 156.619586092449 0.910725500808299 131.896892604069 
15.85                          0.906071784605549 125.977543749548 0.0263127401606511 155.649882314257 0.0263127401606511 155.649882314257 0.907193594085952 130.196480724905 
15.9                           0.902321065623905 124.184517669925 0.0282907376149788 154.602574985186 0.0282907376149788 154.602574985186 0.903409726154977 128.451292857046 
15.95                          0.898300076953214 122.343511730962 0.0304784103099612 153.471703889673 0.0304784103099613 153.471703889673 0.899347231311051 126.658339341019 
16                             0.893979797358553 120.451343128527 0.0329021551193157 152.25092102439  0.0329021551193157 152.25092102439  0.894975720918367 124.814360349318 
16.05                          0.88932708517719 118.504546447741 0.035592182374561 150.93343151918  0.035592182374561 150.93343151918  0.890260449584409 122.915798058395 
16.1                           0.884303966884055 116.499346369931 0.0385831245583482 149.511924223572 0.0385831245583482 149.511924223572 0.885161558518681 120.958766643651 
16.15                          0.878866787362152 114.431629073962 0.0419147442563702 147.978490744863 0.0419147442563701 147.978490744863 0.879633171152115 118.939020489086 
16.2                           0.872965194568287 112.296913196658 0.0456327546782523 146.324531662041 0.0456327546782523 146.324531662041 0.873622311647445 116.85192139819  
16.25                          0.866540927114135 110.090321841507 0.0497897655929233 144.54064864141  0.0497897655929233 144.54064864141  0.867067612339732 114.692406211919 
16.3                           0.859526369599656 107.806558083461 0.0544463652784919 142.616521302365 0.0544463652784919 142.616521302365 0.859897771993156 112.454957199222 
16.35                          0.851842838441123 105.439887878539 0.059672343803587 140.540768018472 0.0596723438035869 140.540768018472 0.852029724172715 110.133579059845 
16.4                           0.843398562423978 102.984136500391 0.0655480526760273 138.300790535063 0.0655480526760272 138.300790535063 0.843366476061131 107.721788629974 
16.45                          0.834086330761369 100.432707963163 0.07216587761627 135.882603564481 0.0721658776162699 135.882603564481 0.83379458629966 105.212626799308 
16.5                           0.823780802947272 97.7786418951659 0.0796317704520895 133.27065272249  0.0796317704520894 133.27065272249  0.823181272008262 102.598707313337 
16.55                          0.81233551887896 95.0147297890301 0.0880667363752469 130.447627794548 0.0880667363752467 130.447627794548 0.81137118014939 99.8723248968907 
16.6                           0.799579730163373 92.1337235862696 0.0976080949859937 127.394284083546 0.0976080949859936 127.394284083546 0.798182943071587 97.0256567206728 
16.65                          0.785315318321249 89.1286856808513 0.108410215867699 124.089293467339 0.108410215867699 124.089293467339 0.783405787594093 94.0511083633218 
16.7                           0.76931430832705 85.993552608619  0.120644258216216 120.509160019634 0.120644258216216 120.509160019634 0.766796718681253 90.9418804165986 
16.75                          0.751317875344647 82.7240171859593 0.134496207298894 116.628253976754 0.134496207298895 116.628253976754 0.748079204091716 87.6928676496186 
16.8                           0.731038337409072 79.3188776650289 0.150162196918995 112.41904349042  0.150162196918995 112.41904349042  0.726944908212844 84.3020523703621 
16.85                          0.708166479545208 75.7820578210078 0.167839764966975 107.852635621899 0.167839764966975 107.852635621899 0.703060919854118 80.7726197119524 
16.9                           0.682387666653908 72.1255639180146 0.187713400781488 102.899772526364 0.187713400781488 102.899772526364 0.676086099504307 77.1161041380879 
16.95                          0.653411428142325 68.3736965011922 0.209932715207746 97.5324548209126 0.209932715207747 97.5324548209127 0.645701502571145 73.3569639243525 
17                             0.621020079632741 64.5688357617888 0.234582169565521 91.7263590822384 0.234582169565521 91.7263590822384 0.6116608766037  69.5390448198431 
17.05                          0.585141502183583 60.7789811153663 0.26164307051853 85.4641425658642 0.261643070518531 85.4641425658642 0.573867029505313 65.7343667486812 
17.1                           0.545947784485749 57.1067774454497 0.290951976694415 78.739537489173  0.290951976694417 78.7395374891729 0.532476842315671 62.0543979971323 
17.15                          0.503973013006357 53.6986886745769 0.322164708928556 71.5617955084197 0.322164708928557 71.5617955084196 0.488029933546945 58.6631455903448 
17.2                           0.460228685404573 50.75075299343   0.354740315734719 63.9595835506129 0.354740315734719 63.9595835506128 0.441582187086918 55.7892799519164 
17.25                          0.416275013425193 48.5032550055176 0.387961094163075 55.9830212651426 0.387961094163076 55.9830212651425 0.394806068265003 53.7296516720443 
17.3                           0.374185481465452 47.2105563379009 0.420998619612743 47.7024964681586 0.420998619612743 47.7024964681585 0.349996602415043 52.8266602461834 
17.35                          0.336330018120098 47.0681842387504 0.453020037485001 39.2035003659986 0.453020037485001 39.2035003659986 0.309895268196211 53.3875120709338 
17.4                           0.304921459002404 48.0925511144437 0.483309216124335 30.5779822257373 0.483309216124335 30.5779822257374 0.277223555081066 55.5139574789208 
17.45                          0.281371661102168 50.0030402571558 0.511365908662327 21.9141102417364 0.511365908662327 21.9141102417365 0.253881867609628 58.886162803355  
17.5                           0.265719247486577 52.2263057491249 0.536952551688586 13.2870353126258 0.536952551688586 13.2870353126259 0.240080270711162 62.7095464179193 
17.55                          0.25653947955171 54.0957278193543 0.560080148505788 4.75282051941639 0.560080148505789 4.75282051941655 0.234072532348206 66.023229148525  
17.6                           0.251482530925377 55.1168447595649 0.580948014443892 -3.65359114005243 0.580948014443892 -3.65359114005226 0.232881001080755 68.155712856898  
17.65                          0.248070127972905 55.0900304985902 0.599863953249123 -11.916862082813 0.599863953249124 -11.9168620828129 0.23344204073002 68.9039964229904 
17.7                           0.244266954997756 54.0576049639813 0.617169056931717 -20.0374872921541 0.617169056931718 -20.0374872921539 0.233359329178911 68.4011606862632 
17.75                          0.238678717248013 52.1900440144557 0.633181103464282 -28.0271500636106 0.633181103464284 -28.0271500636105 0.231086898343065 66.9193203871493 
17.8                           0.230504654624784 49.7007306078401 0.648160165510354 -35.9042456498326 0.648160165510355 -35.9042456498325 0.225800573481315 64.7500392084214 
17.85                          0.219404576483861 46.8073925800006 0.662293558643553 -43.6901474074128 0.662293558643554 -43.6901474074128 0.217198583362449 62.1631444594216 
17.9                           0.205370203406158 43.7273025721188 0.675694848611758 -51.4064138664881 0.675694848611758 -51.406413866488 0.205335939460806 59.4089175416678 
17.95                          0.188631850125742 40.6935456439242 0.688411772587081 -59.0729080027286 0.68841177258708 -59.0729080027285 0.190515392113205 56.740811653451  
18                             0.169605626513858 37.9889560887671 0.70043905545803 -66.7066976747564 0.700439055458029 -66.7066976747563 0.173230880966443 54.4516846922164 
18.05                          0.148883130442273 36.0050384615513 0.711733282833681 -74.3215799639404 0.711733282833679 -74.3215799639403 0.154159246955464 52.9271851143398 
18.1                           0.12727786622899 35.3457872943936 0.722227871831837 -81.9280806659618 0.722227871831834 -81.9280806659617 0.134208251040424 52.7256245774799 
18.15                          0.105973201551411 37.004562790763  0.731846745268329 -89.5337983211177 0.731846745268327 -89.5337983211175 0.114649054609016 54.6831398939211 
18.2                           0.0868642282744508 42.5689850884162 0.740515685095602 -97.143978907371 0.740515685095599 -97.1439789073708 0.097368352152606 59.9505857319386 
18.25                          0.0730978973312526 53.8509201828239 0.748170645855919 -104.762220553061 0.748170645855917 -104.762220553061 0.085129536868789 69.5142817541151 
18.3                           0.068791719318474 70.0971936993805 0.754762627437687 -112.391219397244 0.754762627437685 -112.391219397244 0.0810925040200915 82.4720475852655 
18.35                          0.0757552187664928 85.3079254116705 0.760259053577274 -120.033480792669 0.760259053577273 -120.033480792669 0.0866733384169279 94.9244624566081 
18.4                           0.0912350854995996 94.6020299386773 0.764641943875217 -127.691935901429 0.764641943875216 -127.691935901428 0.100141249448184 103.334376570709 
18.45                          0.111373338365357 98.2976023661723 0.767903447652257 -135.370421929822 0.767903447652256 -135.370421929822 0.118510659398055 107.235293354207 
18.5                           0.133700870202041 98.2588893328296 0.770039482509106 -143.074002745098 0.770039482509105 -143.074002745098 0.139479745274167 107.693263541193 
18.55                          0.156969977521337 95.8807045118155 0.771042273641072 -150.809122691649 0.771042273641072 -150.809122691649 0.161699021445737 105.781422587201 
18.6                           0.180609988291435 91.9939811759265 0.770892541442686 -158.583597678828 0.770892541442686 -158.583597678829 0.184466155700357 102.236078152045 
18.65                          0.204413517333278 87.0807446020687 0.769551981185935 -166.406452689208 0.769551981185933 -166.406452689209 0.207466768059779 97.5187904312671 
18.7                           0.228381859953331 81.4274934621576 0.766956577905999 -174.287613745995 0.766956577905997 -174.287613745995 0.23062345558949 91.9161840641714 
18.75                          0.252643560084651 75.2109167055505 0.763011257019754 177.762543589665 0.76301125701975 177.762543589665 0.254010287065104 85.6099485612134 
18.8                           0.277404111284913 68.5445933729589 0.75758642564962 169.733795408096 0.757586425649617 169.733795408096 0.27779947499314 78.7199665080641 
18.85                          0.302908200003303 61.5051928789327 0.750517123294244 161.61683348281  0.75051712329424 161.61683348281  0.302222213501121 71.3305671570041 
18.9                           0.329406206094951 54.147880567686  0.741605745859217 153.404206122576 0.741605745859214 153.404206122576 0.327534460319119 63.5068369574936 
18.95                          0.357121453291909 46.5158677262067 0.730629550052379 145.091438868422 0.730629550052377 145.091438868422 0.353983133030918 55.3049549493117 
19                             0.386217440909529 38.6466540818683 0.71735422862585 136.678309657324 0.717354228625849 136.678309657324 0.381771162497255 46.7787216369552 
19.05                          0.416766389726236 30.576296174382  0.701554541291561 128.170203699817 0.701554541291561 128.170203699817 0.411022308251895 37.9834864284031 
19.1                           0.448722314628661 22.3423815191973 0.683042037505674 119.579405402558 0.683042037505676 119.579405402558 0.441748958091087 28.9781934310949 
19.15                          0.481903321528233 13.9860061676339 0.661698166118727 110.92611128062  0.66169816611873 110.926111280619 0.473828066174004 19.8260196012039 
19.2                           0.515988343410007 5.55282093571131 0.637508693371635 102.238895442731 0.637508693371639 102.23889544273  0.506991261928008 10.5939342573293 
19.25                          0.550532378605963 -2.90690404670138 0.610593003821927 93.5543638965398 0.610593003821932 93.5543638965394 0.540834193380374 1.35140697134951 
19.3                           0.585001115669318 -11.3392433089085 0.581220667196979 84.9158265213045 0.581220667196983 84.915826521304  0.574846940657231 -7.83156656937962 
19.35                          0.618821138855829 -19.688538243141 0.549808776425207 76.3709992291222 0.549808776425211 76.3709992291216 0.608462361145363 -16.8869415326828 
19.4                           0.65143726944671 -27.9000200604773 0.516897405789491 67.9689815048357 0.516897405789493 67.9689815048351 0.641114127092294 -25.7513499350802 
19.45                          0.682366059500211 -35.9227011543961 0.483106136826588 59.7569551424929 0.483106136826589 59.7569551424923 0.672293153422504 -34.3687302721078 
19.5                           0.711235389675217 -43.7120271098774 0.449079797934854 51.7771350266333 0.449079797934855 51.7771350266328 0.701591614396501 -42.6924793327567 
19.55                          0.737804271296852 -51.2318494833953 0.415434142813711 44.0644336411851 0.415434142813711 44.0644336411848 0.728727685846718 -50.686812451312 
19.6                           0.761962494505778 -58.4554657090876 0.382711196833136 36.6451079424676 0.382711196833136 36.6451079424675 0.753549754421453 -58.3271796945789 
19.65                          0.783714429983169 -65.3657007890056 0.351350229272624 29.5364207446704 0.351350229272625 29.5364207446705 0.776023777924483 -65.5997797025197 
19.7                           0.803153629970304 -71.9541941246238 0.321675650188142 22.7471530253713 0.321675650188143 22.7471530253717 0.796210179720176 -72.5003696302634 
19.75                          0.820434772160439 -78.2201565685722 0.293899371709357 16.2786969824474 0.293899371709359 16.278696982448  0.814236873295466 -79.0326470104562 
19.8                           0.835747805704553 -84.1688752430056 0.268133200683337 10.1264445934594 0.26813320068334 10.1264445934601 0.830273525234212 -85.2064761960149 
19.85                          0.849296987721541 -89.8101948711876 0.244406566526597 4.28123440957322 0.244406566526601 4.28123440957406 0.844510064029666 -91.0361750233888 
19.9                           0.861285633509141 -95.1571299591725 0.222685721852522 -1.26930589398984 0.222685721852527 -1.26930589398892 0.857140554900318 -96.5389999666162 
19.95                          0.871906177725736 -100.224689698283 0.202891805089211 -6.53961018382071 0.202891805089216 -6.53961018381979 0.868352266314918 -101.733895841125 
20                             0.881334544223533 -105.028941341477 0.184916345886977 -11.5452493116915 0.184916345886982 -11.5452493116906 0.87831907585247 -106.640521903132 
20.05                          0.88972767468877 -109.586301544661 0.168633699123066 -16.3022253437497 0.168633699123072 -16.3022253437488 0.887198147949482 -111.27853244669 
20.1                           0.897223174905114 -113.913026035592 0.153910470721677 -20.8264583072717 0.153910470721682 -20.8264583072709 0.895128875753543 -115.667073402316 
20.15                          0.903940251560203 -118.02486103863 0.140612303099066 -25.1334313030636 0.140612303099071 -25.1334313030629 0.902233262515025 -119.824451750705 
20.2                           0.909981340138766 -121.936820364642 0.128608503253217 -29.2379595680249 0.128608503253222 -29.2379595680244 0.908617128857692 -123.76793689431 
20.25                          0.915434021114935 -125.66305632516 0.117774998521948 -33.1540527616035 0.117774998521953 -33.1540527616031 0.914371721860236 -127.513658826727 
20.3                           0.920372973086734 -129.216798261362 0.107996049997445 -36.8948449736049 0.10799604999745 -36.8948449736047 0.919575452042447 -131.076574662775 
20.35                          0.924861819190562 -132.610338126845 0.0991650774078486 -40.4725723117315 0.0991650774078528 -40.4725723117315 0.924295593838362 -134.47048153864 
20.4                           0.928954794985431 -135.85504756658 0.0911848721354625 -43.8985827341838 0.0911848721354661 -43.8985827341839 0.92858986008791 -137.708059462752 
20.45                          0.932698211155602 -138.961415058912 0.0839674066082939 -47.1833667872483 0.0839674066082969 -47.1833667872485 0.932507809620651 -140.800932216091 
20.5                           0.93613171094178 -141.939094930023 0.0774333919849859 -50.3366010679301 0.0774333919849882 -50.3366010679303 0.936092076714505 -143.759737908121 
20.55                          0.939289336489196 -144.796962514611 0.07151169192718 -53.3671986465925 0.0715116919271817 -53.3671986465927 0.939379428183282 -146.594203431488 
20.6                           0.942200424853958 -147.543171561722 0.0661386668739887 -56.2833624825654 0.06613866687399 -56.2833624825656 0.942401662586224 -149.31321899107 
20.65                          0.944890356352157 -150.185211308315 0.0612574986600217 -59.0926391768552 0.0612574986600224 -59.0926391768554 0.945186369708899 -151.924910268945 
20.7                           0.947381177305776 -152.729961585664 0.0568175276326488 -61.8019713454355 0.0568175276326491 -61.8019713454356 0.947757569141632 -154.436706761314 
20.75                          0.949692117313879 -155.183744983265 0.0527736219530457 -64.417747558593 0.0527736219530457 -64.417747558593 0.950136245833428 -156.855405494919 
20.8                           0.951840018725886 -157.55237554815 0.049085590147844 -66.9458492506775 0.0490855901478437 -66.9458492506772 0.952340798765895 -159.187229783035 
20.85                          0.953839693455071 -159.841203802632 0.0457176421535993 -69.3916943168741 0.0457176421535987 -69.3916943168736 0.954387416872884 -161.437882977871 
20.9                           0.955704219877389 -162.055158063586 0.0426379002631835 -71.760277321387 0.0426379002631827 -71.7602773213863 0.956290394309175 -163.612597363675 
20.95                          0.957445190420925 -164.198782172977 0.0398179589486627 -74.0562063756166 0.0398179589486617 -74.0562063756155 0.958062395292209 -165.716178446822 
21                             0.959072918600143 -166.276269825198 0.0372324910680974 -76.2837368278489 0.0372324910680963 -76.2837368278476 0.959714677069408 -167.753044959813 
21.05                          0.960596612682283 -168.291495717995 0.0348588971546717 -78.4468019537079 0.0348588971546704 -78.4468019537063 0.961257278118376 -169.72726492253 
21.1                           0.962024521866871 -170.248043771956 0.0326769941164713 -80.5490408605147 0.03267699411647 -80.5490408605128 0.962699177460778 -171.642588108219 
21.15                          0.963364059781275 -172.149232666548 0.0306687395905134 -82.5938238267697 0.0306687395905121 -82.5938238267675 0.964048429943175 -173.502475251915 
21.2                           0.964621909211987 -173.998138934178 0.0288179882889124 -84.5842752958199 0.028817988288911 -84.5842752958174 0.965312281485019 -175.310124320894 
21.25                          0.965804111271235 -175.797617841571 0.0271102768756129 -86.5232947342703 0.0271102768756116 -86.5232947342675 0.966497267589809 -177.068494144177 
21.3                           0.966916141613155 -177.550322272342 0.0255326341699347 -88.4135755534871 0.0255326341699335 -88.413575553484 0.967609297836748 -178.780325673639 
21.35                          0.967962975838834 -179.258719807866 0.0240734137558546 -90.2576222784261 0.0240734137558534 -90.257622278423 0.968653728595575 179.551838875507 
21.4                           0.96894914584444 179.074891813516 0.0227221463626674 -92.0577661331795 0.0227221463626664 -92.0577661331762 0.96963542581864 177.92563878116  
21.45                          0.969878788554363 177.448370695634 0.021469409660469 -93.8161791978353 0.021469409660468 -93.8161791978318 0.970558819446115 176.338879266693 
21.5                           0.97075568822784 175.859718094449 0.0203067133752368 -95.5348872769847 0.020306713375236 -95.5348872769814 0.971427950699589 174.78951746931  
21.55                          0.971583313321562 174.307066906091 0.0192263978691968 -97.2157816067472 0.0192263978691961 -97.215781606744 0.97224651332574 173.275649763733 
21.6                           0.972364848723092 172.788671213847 0.0182215445510498 -98.8606295146836 0.0182215445510491 -98.8606295146806 0.973017889676317 171.795500298046 
21.65                          0.973103224033072 171.302896787294 0.0172858966774048 -100.471084135487 0.0172858966774043 -100.471084135484 0.97374518236645 170.347410614222 
21.7                           0.973801138462342 169.848212438043 0.016413789282267 -102.048693274873 0.0164137892822666 -102.04869327487 0.974431242134394 168.929830239956 
21.75                          0.9744610828183  168.423182146611 0.0156000871270029 -103.594907504613 0.0156000871270026 -103.594907504611 0.97507869242757 167.541308150992 
21.8                           0.975085358979388 167.026457884007 0.014840129700516 -105.11108756312 0.0148401297005158 -105.111087563119 0.975689951158407 166.180485014283 
21.85                          0.975676097194301 165.656773059696 0.0141296824201115 -106.598511128288 0.0141296824201114 -106.598511128287 0.976267250005913 164.846086132246 
21.9                           0.976235271491039 164.312936534865 0.0134648932894535 -108.058379022437 0.0134648932894536 -108.058379022438 0.976812651582619 163.536915017181 
21.95                          0.97676471343809 162.993827146324 0.0128422543627474 -109.491820903027 0.0128422543627475 -109.491820903028 0.977328064739527 162.251847532673 
22                             0.977266124464464 161.698388692127 0.0122585674453534 -110.899900487287 0.0122585674453536 -110.899900487289 0.977815258242318 160.989826545726 
22.05                          0.977741086915463 160.42562533511  0.0117109135318462 -112.283620354023 0.0117109135318465 -112.283620354026 0.978275873018988 159.749857039449 
22.1                           0.978191073996136 159.174597385077 0.011196625544344 -113.64392636142 0.0111966255443443 -113.643926361425 0.97871143315118 158.531001641531 
22.15                          0.978617458733316 157.944417424423 0.0107132639878612 -114.981711715778 0.0107132639878615 -114.981711715784 0.979123355757938 157.332376528505 
22.2                           0.979021522069432 156.734246745573 0.0102585951864981 -116.297820722578 0.0102585951864984 -116.297820722585 0.979512959900599 156.153147670059 
22.25                          0.979404460186227 155.543292071827 0.00983057180533794 -117.593052248178 0.00983057180533832 -117.593052248186 0.979881474620574 154.992527381387 
22.3                           0.979767391143733 154.370802536062 0.00942731539876259 -118.868162917622 0.00942731539876298 -118.868162917632 0.980230046207267 153.849771154898 
22.35                          0.980111360908996 153.216066894289 0.00904710075718606 -120.123870071549 0.00904710075718647 -120.123870071561 0.980559744781   152.724174745589 
22.4                           0.980437348839676 152.07841095333  0.00868834185154597 -121.360854502959 0.00868834185154635 -121.360854502971 0.98087157026518 151.615071486962 
22.45                          0.980746272679678 150.957195193909 0.00834957919878152 -122.579762992586 0.00834957919878188 -122.579762992599 0.981166457812824 150.521829816748 
22.5                           0.981038993117088 149.851812572289 0.00802946849243258 -123.781210659844 0.00802946849243289 -123.781210659858 0.981445282744659 149.443850993745 
22.55                          0.981316317948718 148.761686485167 0.00772677036078476 -124.965783144684 0.00772677036078509 -124.965783144698 0.981708865049225 148.380566988955 
22.6                           0.981579005890445 147.686268884033 0.00744034113101487 -126.134038634278 0.0074403411310151 -126.134038634294 0.981957973489492 147.331438535823 
22.65                          0.981827770068048 146.625038526469 0.0071691244918418 -127.28650974715 0.00716912449184198 -127.286509747166 0.982193329355386 146.295953325894 
22.7                           0.982063281219357 145.577499353059 0.00691214395951864 -128.423705286177 0.00691214395951878 -128.423705286192 0.982415609897136 145.273624337489 
22.75                          0.982286170635136 144.543178979604 0.00666849606283205 -129.546111870887 0.00666849606283214 -129.546111870901 0.982625451470483 144.263988286193 
22.8                           0.982497032863141 143.521627295299 0.00643734417229677 -130.654195458481 0.00643734417229683 -130.654195458493 0.982823452421342 143.266604187015 
22.85                          0.982696428197207 142.512415158359 0.00621791290710988 -131.748402762198 0.00621791290710991 -131.748402762208 0.983010175734562 142.281052018994 
22.9                           0.982884884970895 141.515133181355 0.0060094830608112 -132.829162574844 0.00600948306081117 -132.829162574851 0.983186151468756 141.30693148392  
22.95                          0.983062901673245 140.52939059922  0.00581138699310022 -133.896887004621 0.0058113869931002 -133.896887004625 0.983351878996896 140.343860851547 
23                             0.983230948902362 139.554814213465 0.00562300444100387 -134.951972629766 0.00562300444100386 -134.951972629766 0.983507829070293 139.391475884431 
