! Touchstone file exported from HFSS 3D Layout Design 2026.1.0
!        File:           D:/Work/SIM/ADS_AUTO_SIM/projects/RFSOC_RF/TX_Fillter.aedt
!        Generated:      02:20:51 AM Aug 31, 2026
!        Design:         TX_BAND1_MCFIL_R28_CNN020
!        Project:        TX_Fillter
!
# GHz S MA R 50.000000
! Terminal data exported
! Port[1] = Port1
! Port[2] = Port2
14                             0.973337215194657 -163.098311312258 0.00353721214759319 -177.949232357883 0.00353721214759318 -177.949232357883 0.975159761353179 -158.799114637624 
14.05                          0.972851222164379 -163.989276167464 0.00360387651378744 -178.380718376779 0.00360387651378744 -178.380718376779 0.974724399283278 -159.664396363867 
14.1                           0.972350207968384 -164.886251785835 0.00367357247441723 -178.791822212969 0.00367357247441721 -178.791822212969 0.97427618024155 -160.534981344812 
14.15                          0.971833440400896 -165.789417910498 0.00374653504806152 -179.182023838861 0.00374653504806151 -179.182023838861 0.973814492148834 -161.41101412326 
14.2                           0.971300139000421 -166.698963792824 0.00382302229073646 -179.550830982495 0.00382302229073645 -179.550830982495 0.973338682992322 -162.292646871282 
14.25                          0.970749471063549 -167.615088816253 0.0039033178389628 -179.897786170812 0.00390331783896276 -179.897786170812 0.972848057545373 -163.180039889134 
14.3                           0.970180547261138 -168.538003169653 0.00398773375395591 179.777525363925 0.00398773375395588 179.777525363925 0.972341873761086 -164.073362143394 
14.35                          0.969592416810173 -169.467928574901 0.00407661370412352 179.475466864662 0.00407661370412347 179.475466864663 0.971819338801347 -164.972791848014 
14.4                           0.968984062148273 -170.405099073959 0.00417033652785208 179.196340275949 0.00417033652785203 179.196340275949 0.971279604657844 -165.878517092402 
14.45                          0.968354393050497 -171.349761881243 0.0042693202240447 178.940375487363 0.00426932022404466 178.940375487363 0.970721763315569 -166.790736521105 
14.5                           0.967702240119645 -172.302178307796 0.00437402642415812 178.707718581378 0.00437402642415806 178.707718581378 0.970144841402348 -167.709660070187 
14.55                          0.967026347571466 -173.262624764508 0.00448496540672149 178.498419093741 0.00448496540672144 178.498419093741 0.96954779425992 -168.635509765962 
14.6                           0.966325365224785 -174.231393852476 0.00460270172368909 178.31241631979  0.00460270172368901 178.31241631979  0.968929499362706 -169.568520592444 
14.65                          0.965597839593308 -175.208795549571 0.00472786051769901 178.149524730399 0.00472786051769897 178.149524730399 0.968288748999508 -170.508941434577 
14.7                           0.964842203960376 -176.195158503371 0.00486113462066144 178.009418596324 0.0048611346206614 178.009418596324 0.967624242120645 -171.457036105196 
14.75                          0.964056767299854 -177.190831441856 0.00500329253741391 177.891615959082 0.00500329253741389 177.891615959081 0.966934575238125 -172.413084464616 
14.8                           0.96323970188505 -178.196184714692 0.00515518743387852 177.795462129408 0.0051551874338785 177.795462129408 0.966218232248928 -173.377383642851 
14.85                          0.962389029402596 -179.211611979522 0.00531776726774387 177.720112939355 0.00531776726774383 177.720112939355 0.965473573030922 -174.3502493757  
14.9                           0.961502605358718 179.762467950445 0.00549208622180062 177.664518019233 0.00549208622180059 177.664518019233 0.964698820636546 -175.332017467386 
14.95                          0.960578101530467 178.725609079178 0.00567931762644828 177.6274044134   0.00567931762644828 177.6274044134   0.963892046880704 -176.323045394015 
15                             0.959612986173106 177.67733600012  0.00588076858949502 177.607260886038 0.00588076858949502 177.607260886039 0.963051156085104 -177.323714064027 
15.05                          0.95860450164567 176.617141444475 0.00609789658932364 177.602323295978 0.00609789658932366 177.602323295978 0.962173866700663 -178.334429753875 
15.1                           0.957549639058011 175.544483578796 0.00633232833317257 177.610561434073 0.00633232833317258 177.610561434073 0.961257690481047 -179.355626239633 
15.15                          0.956445109472425 174.458783021537 0.00658588123733972 177.629667713532 0.00658588123733974 177.629667713533 0.960299908822325 179.61223285201  
15.2                           0.955287311108609 173.359419544068 0.00686058795257646 177.657048078747 0.0068605879525765 177.657048078747 0.959297545813864 178.568651446754 
15.25                          0.954072291899222 172.245728416893 0.00715872443823327 177.689815448218 0.00715872443823333 177.689815448218 0.958247337461462 177.513098149423 
15.3                           0.952795706620623 171.116996356295 0.00748284218580214 177.724785929599 0.00748284218580219 177.724785929599 0.957145696441947 176.445003060018 
15.35                          0.951452767674682 169.972457020363 0.00783580530997088 177.758477938708 0.0078358053099709 177.758477938708 0.955988671625003 175.363754239944 
15.4                           0.95003818841675 168.81128599614  0.00822083336754333 177.787114220414 0.00822083336754338 177.787114220414 0.954771901447681 174.268693783867 
15.45                          0.94854611770414 167.632595211382 0.00864155093697361 177.806626610384 0.00864155093697369 177.806626610384 0.953490560043399 173.159113446493 
15.5                           0.946970064069216 166.435426695022 0.0091020452004338 177.812663197717 0.00910204520043384 177.812663197717 0.952139294802125 172.034249766676 
15.55                          0.945302807589016 165.218745599816 0.00960693302448903 177.80059735608  0.00960693302448907 177.80059735608  0.950712153761428 170.893278623424 
15.6                           0.943536297113692 163.981432388599 0.0101614393447733 177.765537913157 0.0101614393447734 177.765537913158 0.949202500886092 169.735309149738 
15.65                          0.941661530009113 162.722274072277 0.0107714890372248 177.702339533353 0.0107714890372248 177.702339533353 0.9476029168702  168.559376920719 
15.7                           0.939668410939376 161.439954372956 0.0114438149192615 177.605612204815 0.0114438149192616 177.605612204815 0.94590508256872 167.364436322158 
15.75                          0.937545585430567 160.133042669846 0.0121860850884635 177.469728555345 0.0121860850884635 177.469728555345 0.944099641508114 166.149351995214 
15.8                           0.935280242976465 158.799981569221 0.0130070534983825 177.288827576476 0.0130070534983825 177.288827576476 0.942176037102627 164.912889242305 
15.85                          0.932857883217389 157.439072923658 0.0139167385214004 177.056813211316 0.0139167385214004 177.056813211316 0.940122319169478 163.653703269893 
15.9                           0.930262037177499 156.048462111689 0.0149266352944537 176.767346156092 0.0149266352944537 176.767346156092 0.93792491303512 162.370327137172 
15.95                          0.927473933597776 154.626120379654 0.0160499689304592 176.413827129586 0.0160499689304592 176.413827129586 0.935568342882485 161.061158278129 
16                             0.924472097942693 153.169825047403 0.0173019972610068 175.989369767051 0.0173019972610068 175.989369767051 0.933034898912688 159.72444347251  
16.05                          0.921231868551171 151.67713739593  0.0187003737183186 175.486761179854 0.0187003737183186 175.486761179854 0.930304235266644 158.358262165155 
16.1                           0.9177248104769  150.145378099776 0.0202655833388633 174.898408071002 0.0202655833388633 174.898408071002 0.927352882326195 156.96050808369  
16.15                          0.913918002613146 148.571600158755 0.0220214677538637 174.216266090171 0.0220214677538637 174.216266090171 0.924153652813038 155.528869197892 
16.2                           0.909773167481091 146.952559452061 0.0239958584944831 173.431749830811 0.023995858494483 173.431749830811 0.920674915817575 154.06080622591  
16.25                          0.90524560531384 145.284683330252 0.0262213420279847 172.5356205003   0.0262213420279847 172.5356205003   0.916879706288281 152.553530163478 
16.3                           0.900282884536331 143.564038152066 0.0287361846390374 171.517847823191 0.0287361846390374 171.517847823191 0.912724629371404 151.003979755573 
16.35                          0.89482322926096 141.786297483041 0.0315854504276856 170.367442172509 0.0315854504276856 170.367442172509 0.908158509160688 149.408800545771 
16.4                           0.888793531082251 139.946713992009 0.0348223509024808 169.072252296075 0.0348223509024808 169.072252296075 0.903120719962088 147.764328284165 
16.45                          0.882106897942435 138.040100214638 0.0385098690097161 167.618723392007 0.038509869009716 167.618723392007 0.897539125660416 146.06658129862  
16.5                           0.874659639061194 136.060826788325 0.0427227021896514 165.991609850909 0.0427227021896514 165.991609850909 0.891327540796746 144.311269328002 
16.55                          0.866327576217965 134.002852282257 0.0475495648809014 164.173637028284 0.0475495648809014 164.173637028284 0.884382619200427 142.493830896108 
16.6                           0.856961577044497 131.859807601783 0.0530958748458117 162.145107496544 0.0530958748458117 162.145107496544 0.876580080110295 140.609518535018 
16.65                          0.846382243123564 129.625172129542 0.0594868093452452 159.883450333125 0.0594868093452452 159.883450333125 0.867770212711233 138.653562535653 
16.7                           0.834373788114177 127.292601412391 0.0668706388692218 157.362718813002 0.0668706388692218 157.362718813002 0.8577726863905  136.62146166289  
16.75                          0.820677370326662 124.856502143779 0.0754220988530417 154.553055193658 0.0754220988530418 154.553055193658 0.846370887914988 134.509476692184 
16.8                           0.804984609177813 122.313006574913 0.0853452983518933 151.42016560382  0.0853452983518934 151.42016560382  0.833306400077181 132.315444098281 
16.85                          0.786932900643755 119.661585091523 0.096875223756377 147.924890186795 0.0968752237563772 147.924890186795 0.818274983446608 130.040087709806 
16.9                           0.766105746048703 116.90766365089  0.110276194242783 144.023022979587 0.110276194242783 144.023022979587 0.800926763279288 127.68908854939  
16.95                          0.742044031885596 114.066788204079 0.125834596611001 139.665643081283 0.125834596611001 139.665643081283 0.780875578870921 125.276270340281 
17                             0.714278479026027 111.17108178523  0.143841909613988 134.800369265634 0.143841909613988 134.800369265634 0.75772591668816 122.828332859604 
17.05                          0.68239936704789 108.278871419459 0.164562783353238 129.37412931148  0.164562783353238 129.37412931148  0.731130382359368 120.391503851914 
17.1                           0.646185671526737 105.488106715079 0.188182841423242 123.33817382199  0.188182841423242 123.33817382199  0.700894645732059 118.040005204531 
17.15                          0.605816549308081 102.952739656922 0.214734147859356 116.655988581459 0.214734147859356 116.655988581459 0.667145052749699 115.884778560977 
17.2                           0.562170656028087 100.896829705475 0.244006106892186 109.31416038738  0.244006106892185 109.31416038738  0.630555447189068 114.077635436034 
17.25                          0.517160144467055 99.6109633413955 0.275467620118227 101.33478970941  0.275467620118227 101.33478970941  0.592578163574292 112.800427703453 
17.3                           0.473923165931693 99.398830136878  0.308246718974679 92.7857720000624 0.308246718974678 92.7857720000624 0.555534623793028 112.223613187172 
17.35                          0.436535973115841 100.433966457796 0.341217441410875 83.7833140921588 0.341217441410874 83.7833140921588 0.522341826423726 112.424588297853 
17.4                           0.408893642806043 102.543284857438 0.37320672466219 74.4817021140654 0.37320672466219 74.4817021140654 0.495724851856504 113.290850025874 
17.45                          0.392942179781635 105.094965697228 0.403260592502899 65.0502084154578 0.403260592502899 65.0502084154578 0.477131842977382 114.48700286836  
17.5                           0.387455502601967 107.222817345879 0.430853262949261 55.644073145792  0.430853262949262 55.644073145792  0.46601895061103 115.557822101579 
17.55                          0.388574897491707 108.264582623306 0.455945481650638 46.3802645541775 0.455945481650639 46.3802645541775 0.460077359565742 116.116649155124 
17.6                           0.391621689655753 107.990343379157 0.478887477585692 37.3257830261625 0.478887477585692 37.3257830261625 0.456205321209621 115.97284588741  
17.65                          0.392627264726063 106.50735546251  0.500238821918087 28.4993412257668 0.500238821918087 28.4993412257667 0.451494269921494 115.131248870563 
17.7                           0.38888451544422 104.067616546587 0.520589087070643 19.8818927657088 0.520589087070643 19.8818927657088 0.443755780674126 113.721202437636 
17.75                          0.378833439855159 100.944561750167 0.540426957315074 11.4303212448064 0.540426957315074 11.4303212448064 0.431616317945789 111.93075425697  
17.8                           0.361752094172004 97.3941330719413 0.5600656754852  3.09034055124726 0.5600656754852  3.09034055124721 0.414412810232492 109.975301331566 
17.85                          0.337502270824044 93.6673789312076 0.57961277575287 -5.19307325422282 0.57961277575287 -5.19307325422283 0.392074425015911 108.097303784821 
17.9                           0.306401086653531 90.0543621253434 0.598970230797451 -13.4679150847741 0.598970230797451 -13.4679150847741 0.365077032805893 106.586484676796 
17.95                          0.269221906973809 86.9642981087111 0.61785717038922 -21.7697049210373 0.61785717038922 -21.7697049210373 0.334494513679226 105.81160174282  
18                             0.227337256384064 85.0812361202531 0.635853124840293 -30.1180744146022 0.635853124840293 -30.1180744146021 0.302142657323091 106.250683126435 
18.05                          0.183111352666657 85.7011812839936 0.652461319619377 -38.5153581920617 0.652461319619378 -38.5153581920616 0.270780030474544 108.480873513151 
18.1                           0.140947549765526 91.4352842743825 0.667188039010574 -46.9473353459613 0.667188039010575 -46.9473353459612 0.244220573846743 113.023941477613 
18.15                          0.10982714739871 106.597435020324 0.679627277114023 -55.3861838170962 0.679627277114025 -55.3861838170961 0.226926913784074 119.899129693507 
18.2                           0.103913932396716 130.542323229458 0.689533887477116 -63.7953536201824 0.689533887477118 -63.7953536201824 0.222470404908388 128.055180595421 
18.25                          0.126376180710037 149.377862268318 0.696867873988713 -72.1355855142713 0.696867873988716 -72.1355855142712 0.231374695457777 135.588170012287 
18.3                           0.16355396599601 157.540976909245 0.701799411613407 -80.3709585774563 0.701799411613409 -80.3709585774563 0.250703691251784 140.991313923565 
18.35                          0.204366829080019 159.084929777801 0.704676028179295 -88.4738545450098 0.704676028179296 -88.4738545450098 0.27601873040995 143.882232608998 
18.4                           0.243653745420256 157.228159627683 0.705964213378803 -96.4280970824421 0.705964213378805 -96.4280970824421 0.303342005928213 144.621723787969 
18.45                          0.279054537304103 153.560522003299 0.70618253343185 -104.230077520655 0.706182533431851 -104.230077520655 0.3298408511468  143.75659607452  
18.5                           0.309449332325701 148.854404330344 0.705841187670379 -111.88816649464 0.705841187670379 -111.88816649464 0.35373115584036 141.760777179107 
18.55                          0.334348264488619 143.500656361354 0.705396656282162 -119.420974010446 0.705396656282161 -119.420974010446 0.373992380100747 138.982328488385 
18.6                           0.353617859177155 137.700518157389 0.705223465140983 -126.855044976559 0.705223465140983 -126.855044976558 0.39011634888455 135.661093516198 
18.65                          0.367337317830632 131.553022467939 0.705600589768849 -134.222447980284 0.705600589768849 -134.222447980284 0.401928110279317 131.958119494173 
18.7                           0.375717797757496 125.097527991315 0.706708175077159 -141.558536331525 0.706708175077159 -141.558536331525 0.409468743995256 127.980338101364 
18.75                          0.379060089305692 118.335600394701 0.708630389646459 -148.900005157824 0.70863038964646 -148.900005157824 0.412924138758789 123.798174197276 
18.8                           0.377739437323495 111.242563121458 0.711361383110183 -156.283267954217 0.711361383110184 -156.283267954217 0.41258639311332 119.457150741287 
18.85                          0.372210948383621 103.773469487827 0.714812697366786 -163.743132210897 0.714812697366787 -163.743132210897 0.40883742312573 114.984793662726 
18.9                           0.363030878561217 95.8659869396115 0.718821635810929 -171.311754110575 0.718821635810931 -171.311754110575 0.40214622082258 110.393658564483 
18.95                          0.350889653450886 87.4419603703391 0.72316078456059 -179.017879800093 0.723160784560592 -179.017879800093 0.393072079923921 105.680792590714 
19                             0.336651935935319 78.4097082221872 0.72754898844091 173.113582925758 0.727548988440911 173.113582925758 0.382266474481263 100.823638733024 
19.05                          0.321396993889242 68.6703526861529 0.731663570746898 165.061593298698 0.731663570746899 165.061593298698 0.370467006876967 95.7724736196609 
19.1                           0.306448009301735 58.1335103772214 0.735152523080415 156.808544061633 0.735152523080415 156.808544061633 0.358479238290654 90.4401909097271 
19.15                          0.293370739296512 46.7489559571117 0.737644053990981 148.339361666258 0.737644053990979 148.339361666258 0.3471477055725  84.6918146699355 
19.2                           0.283912076208956 34.5566451938218 0.738749810853929 139.640258529689 0.738749810853926 139.640258529689 0.337326412634609 78.3384391576737 
19.25                          0.279849766799346 21.7404467678308 0.738058051172438 130.697439561624 0.738058051172433 130.697439561624 0.329868756453799 71.1425616946941 
19.3                           0.282759673366054 8.64393254917412 0.735114901575399 121.496287379868 0.735114901575394 121.496287379868 0.325659113727136 62.8425608630174 
19.35                          0.293779128201335 -4.29700949804869 0.729396345545469 112.021763256264 0.729396345545463 112.021763256265 0.325690970258363 53.2017253044716 
19.4                           0.313482776428201 -16.6924245924182 0.720281046674981 102.260881591335 0.720281046674976 102.260881591336 0.331151628934921 42.0797903501635 
19.45                          0.341904368596286 -28.3209047088607 0.707043808602292 92.2080062300586 0.707043808602288 92.208006230059  0.34341488134968 29.5096496829786 
19.5                           0.378601974014377 -39.1587801829739 0.688898117335435 81.8731654115257 0.688898117335432 81.8731654115261 0.363823678620164 15.7411831788336 
19.55                          0.422646724497043 -49.3197676573481 0.665115864004308 71.2923667179851 0.665115864004307 71.2923667179854 0.393237648245979 1.20983147148135 
19.6                           0.472538177452905 -58.962210992671 0.635230802566223 60.5370525668301 0.635230802566223 60.5370525668303 0.431516210215748 -13.5711722648522 
19.65                          0.526173432359475 -68.2138837335201 0.599282761638243 49.7181375217418 0.599282761638243 49.7181375217417 0.477238674837473 -28.1338338246573 
19.7                           0.5810068295697  -77.1353962499667 0.558000872819377 38.9801544983342 0.558000872819375 38.9801544983339 0.527865254086189 -42.1258699200569 
19.75                          0.634422304174024 -85.7208105767024 0.512808152001482 28.4843258066474 0.512808152001478 28.4843258066469 0.580288981022484 -55.3174763715637 
19.8                           0.684186674074002 -93.9219016310333 0.465600622670945 18.3849062781227 0.46560062267094 18.384906278122  0.631526160110267 -67.5774277704799 
19.85                          0.728785775931127 -101.67891020139 0.418379489049215 8.80710035811312 0.418379489049208 8.80710035811245 0.679260995315918 -78.8477773963786 
19.9                           0.767521365039978 -108.944445173861 0.372893604959921 -0.166110951586614 0.372893604959913 -0.166110951587204 0.722083701763977 -89.1252646780024 
19.95                          0.800388755431163 -115.695089495192 0.330419495126578 -8.49590469948771 0.33041949512657 -8.4959046994881 0.759436690487301 -98.4467375995638 
20                             0.827845565904857 -121.932253690171 0.291710117612594 -16.1809654490842 0.291710117612585 -16.1809654490844 0.791394192936777 -106.875964535742 
20.05                          0.850580922534042 -127.676921985612 0.257065389174325 -23.2469258939687 0.257065389174317 -23.2469258939686 0.818408181701196 -114.491786808329 
20.1                           0.869343773947638 -132.962596061043 0.226455158555242 -29.7358019302353 0.226455158555234 -29.7358019302349 0.84110056753041 -121.378557512227 
20.15                          0.884840642574545 -137.828990338188 0.199642527355122 -35.6974911395557 0.199642527355116 -35.6974911395551 0.86012567792559 -127.619391341211 
20.2                           0.897688153096069 -142.317422539478 0.176282319102953 -41.1838584946414 0.176282319102948 -41.1838584946406 0.87609445689978 -133.292048294982 
20.25                          0.908400204497697 -146.467898774935 0.155989246676593 -46.2450932118919 0.155989246676589 -46.245093211891 0.889541402052226 -138.466868068254 
20.3                           0.917393406461468 -150.317519660022 0.13838004138553 -50.927744789112 0.138380041385526 -50.927744789111 0.900916697461694 -143.206096345641 
20.35                          0.925000173731   -153.89978298439 0.123096603078578 -55.273870018152 0.123096603078576 -55.273870018151 0.910591137456347 -147.564050089708 
20.4                           0.931483605888116 -157.244435883058 0.10981669342154 -59.3208527325017 0.109816693421539 -59.3208527325007 0.918866316565428 -151.587725991404 
20.45                          0.937051362000649 -160.377632308467 0.0982571015489179 -63.1015958480526 0.0982571015489167 -63.1015958480517 0.925986033514614 -155.31759767594 
20.5                           0.941867481882444 -163.322239226802 0.0881726225730668 -66.6448953151666 0.0881726225730661 -66.6448953151658 0.93214698753892 -158.788452170918 
20.55                          0.946061980271045 -166.09819807633 0.0793529528561785 -69.9758827585771 0.0793529528561781 -69.9758827585765 0.937508024714018 -162.030185830078 
20.6                           0.949738420591852 -168.722889459694 0.0716187505756391 -73.116473636458 0.0716187505756389 -73.1164736364574 0.942197786773736 -165.068522742676 
20.65                          0.952979800278153 -171.211474594165 0.0648175591366303 -76.0857884998158 0.0648175591366302 -76.0857884998156 0.946320881607154 -167.92564330004 
20.7                           0.955853086110178 -173.577202020237 0.0588199536694142 -78.9005329834984 0.0588199536694142 -78.9005329834981 0.94996279056706 -170.620723777876 
20.75                          0.958412697094317 -175.831676407756 0.0535160730636962 -81.5753322719872 0.0535160730636962 -81.5753322719872 0.953193741623495 -173.170394154651 
20.8                           0.960703178555078 -177.98509064651 0.048812589126325 -84.1230211172583 0.048812589126325 -84.1230211172586 0.956071756303891 -175.589123878218 
20.85                          0.962761259438323 179.953575556974 0.0446301058308157 -86.5548930379332 0.0446301058308158 -86.5548930379336 0.958645045741077 -177.889545710253 
20.9                           0.96461744077936 177.976386608975 0.0409009534329743 -88.8809133165451 0.0409009534329743 -88.8809133165457 0.960953897841148 179.91727283078  
20.95                          0.966297227904814 176.076307454703 0.0375673311491379 -91.1099005586786 0.0375673311491379 -91.1099005586794 0.963032167980509 177.821601953103 
21                             0.96782209143457 174.2470817435   0.0345797502226158 -93.2496813036222 0.0345797502226159 -93.2496813036232 0.964908461028201 175.81485869253  
21.05                          0.969210221180907 172.483128387461 0.0318957319493072 -95.3072217179755 0.0318957319493072 -95.3072217179766 0.966607072761279 173.889446448549 
21.1                           0.970477121230006 170.779453614704 0.0294787200015903 -97.2887398904659 0.0294787200015902 -97.288739890467 0.968148743261616 172.038619789284 
21.15                          0.971636082638092 169.13157604759  0.027297171766054 -99.1998017448311 0.0272971717660538 -99.1998017448324 0.96955126288774 170.256370239996 
21.2                           0.972698561311109 167.535462723629 0.0253237986649073 -101.04540312932 0.0253237986649071 -101.045403129322 0.97082996218541 168.537329515888 
21.25                          0.973674482009732 165.987474314626 0.0235349302205572 -102.830040238008 0.023534930220557 -102.830040238009 0.971998110022449 166.876687282506 
21.3                           0.974572484458793 164.48431808792  0.0219099808196261 -104.557770172173 0.021909980819626 -104.557770172175 0.973067238810233 165.270121041671 
21.35                          0.975400123813761 163.02300739625  0.0204310017214524 -106.232263155904 0.0204310017214522 -106.232263155905 0.974047411516231 163.713736163923 
21.4                           0.976164034928823 161.600826685459 0.019082303877317 -107.856847673083 0.0190823038773169 -107.856847673084 0.974947441977631 162.204014435003 
21.45                          0.976870067746187 160.215301177502 0.0178501396441253 -109.434549586629 0.0178501396441251 -109.43454958663 0.975775077565254 160.737769767448 
21.5                           0.977523399510934 158.864170525623 0.0167224335600735 -110.968126129213 0.0167224335600734 -110.968126129215 0.976537151344735 159.312109960247 
21.55                          0.978128628281838 157.545365853804 0.0156885540673844 -112.460095512007 0.0156885540673843 -112.460095512008 0.977239709405902 157.92440357924  
21.6                           0.97868985126118 156.256989687907 0.0147391194793283 -113.91276277956 0.0147391194793281 -113.912762779561 0.977888117881247 156.572251186441 
21.65                          0.97921073073544 154.997298364828 0.0138658326483088 -115.328242440472 0.0138658326483088 -115.328242440472 0.978487153274487 155.253460274079 
21.7                           0.97969454985147 153.764686571268 0.0130613397436373 -116.70847832161 0.0130613397436372 -116.70847832161 0.979041079012926 153.966023364113 
21.75                          0.980144260010334 152.557673718043 0.0123191093292043 -118.055261025426 0.0123191093292042 -118.055261025426 0.979553710578969 152.708098820547 
21.8                           0.980562521314106 151.374891900875 0.0116333285736017 -119.370243312903 0.0116333285736016 -119.370243312903 0.980028471133331 151.477993993405 
21.85                          0.980951737227492 150.215075236295 0.0109988139537785 -120.654953687032 0.0109988139537785 -120.654953687032 0.980468439189796 150.274150372507 
21.9                           0.981314084399591 149.077050392625 0.0104109342488841 -121.910808411679 0.0104109342488842 -121.910808411679 0.980876389619163 149.095130478484 
21.95                          0.981651538418615 147.959728162408 0.00986554398050891 -123.139122167064 0.00986554398050897 -123.139122167063 0.981254829033265 147.939606259524 
22                             0.981965896134412 146.862095944706 0.00935892575292168 -124.341117514683 0.0093589257529218 -124.341117514682 0.981606026416953 146.806348796665 
22.05                          0.982258795072643 145.783211024342 0.00888774019335481 -125.517933320491 0.00888774019335494 -125.517933320491 0.981932039727604 145.694219149222 
22.1                           0.982531730374872 144.722194550895 0.00844898239706159 -126.670632264783 0.00844898239706172 -126.670632264783 0.982234739061056 144.602160196099 
22.15                          0.982786069625978 143.678226133535 0.00803994395221033 -127.800207549892 0.00803994395221049 -127.800207549892 0.982515826884262 143.529189349124 
22.2                           0.983023065871075 142.650538979152 0.00765817976175559 -128.907588902033 0.0076581797617558 -128.907588902032 0.98277685575411 142.474392031756 
22.25                          0.983243869075445 141.638415510807 0.00730147899819064 -129.993647950979 0.00730147899819087 -129.993647950978 0.983019243875252 141.436915831105 
22.3                           0.983449536241133 140.641183411779 0.0069678396265805 -131.059203060415 0.00696783962658071 -131.059203060414 0.983244288794791 140.415965243613 
22.35                          0.983641040360784 139.658212047499 0.00665544601481404 -132.105023672492 0.00665544601481427 -132.105023672491 0.983453179486055 139.410796945278 
22.4                           0.983819278362014 138.688909223705 0.00636264922030665 -133.131834222086 0.00636264922030686 -133.131834222085 0.983647007035722 138.420715526365 
22.45                          0.983985078172806 137.732718244327 0.00608794960166352 -134.140317669311 0.00608794960166374 -134.140317669311 0.983826774116848 137.445069638222 
22.5                           0.984139205019435 136.789115237087 0.00582998145391245 -135.131118692861 0.0058299814539127 -135.131118692861 0.983993403403813 136.483248506488 
22.55                          0.98428236705247 135.857606718669 0.00558749940834129 -136.104846581519 0.00558749940834152 -136.104846581518 0.984147745062886 135.534678770652 
22.6                           0.984415220382988 134.937727374645 0.00535936637398574 -137.062077856695 0.00535936637398596 -137.062077856695 0.984290583433282 134.598821614848 
22.65                          0.984538373599835 134.029038032261 0.00514454282843653 -138.003358654891 0.00514454282843673 -138.003358654891 0.984422642997704 133.675170159038 
22.7                           0.984652391829158 133.131123806709 0.00494207729173257 -138.929206895557 0.00494207729173273 -138.929206895557 0.984544593727869 132.763247083377 
22.75                          0.984757800389298 132.243592403711 0.00475109783939198 -139.840114256852 0.00475109783939214 -139.840114256853 0.984657055879054 131.862602461796 
22.8                           0.984855088087189 131.366072563169 0.00457080452969886 -140.736547979169 0.00457080452969899 -140.736547979169 0.984760604297922 130.972811783567 
22.85                          0.98494471019649 130.498212630317 0.00440046263670809 -141.618952514008 0.00440046263670822 -141.618952514008 0.984855772299541 130.093474144095 
22.9                           0.985027091152565 129.639679242283 0.00423939659446962 -142.487751033786 0.0042393965944697 -142.487751033786 0.984943055162354 129.224210588237 
22.95                          0.985102626995083 128.790156119283 0.00408698457005093 -143.343346816406 0.00408698457005098 -143.343346816406 0.985022913283681 128.364662591349 
23                             0.985171687585239 127.949342950791 0.00394265359335116 -144.186124516851 0.00394265359335116 -144.186124516851 0.985095775033073 127.514490664866 
