! Touchstone file exported from HFSS 3D Layout Design 2026.1.0
!        File:           D:/Work/SIM/ADS_AUTO_SIM/projects/RFSOC_RF/TX_Fillter.aedt
!        Generated:      09:15:47 PM Aug 30, 2026
!        Design:         TX_BAND1_MCFIL_ALUMINA_BB_14_23G
!        Project:        TX_Fillter
!
# GHz S MA R 50.000000
! Terminal data exported
! Port[1] = Port1
! Port[2] = Port2
14                             0.970326381650329 -173.850956678552 0.00429763322597543 173.163696198071 0.00429763322597543 173.163696198071 0.970048037163947 -172.725331922656 
14.05                          0.969800841265641 -174.759858420799 0.00437431411979059 172.552020170393 0.0043743141197906 172.552020170393 0.969508450800033 -173.637686927524 
14.1                           0.969260482767648 -175.675316492353 0.0044539675426976 171.951685534079 0.00445396754269762 171.951685534078 0.968953431361457 -174.556836376419 
14.15                          0.968704693735189 -176.597521954505 0.00453677922971292 171.362909733406 0.00453677922971295 171.362909733406 0.968382333085666 -175.482980834136 
14.2                           0.968132828592033 -177.526674112246 0.00462294993555011 170.785897633813 0.00462294993555011 170.785897633813 0.967794474841483 -176.416329626279 
14.25                          0.967544206382812 -178.46298095623 0.0047126968376767 170.220839065978 0.00471269683767669 170.220839065978 0.967189137732479 -177.357101315285 
14.3                           0.966938108370393 -179.406659633451 0.00480625508330198 169.667906094628 0.00480625508330199 169.667906094628 0.966565562506301 -178.305524207764 
14.35                          0.966313775437911 179.642063051159 0.00490387949598096 169.12724999251  0.00490387949598096 169.12724999251  0.965922946751587 -179.261836895617 
14.4                           0.965670405276899 178.682950099793 0.00500584645930788 168.598997900377 0.00500584645930785 168.598997900377 0.965260441862147 179.773711166396 
14.45                          0.965007149340877 177.715753750859 0.00511245599717575 168.083249154735 0.00511245599717576 168.083249154735 0.964577149745823 178.800859043727 
14.5                           0.964323109541533 176.740214869213 0.00522403407232608 167.580071266464 0.00522403407232607 167.580071266465 0.963872119252941 177.819333662552 
14.55                          0.963617334662003 175.756062294409 0.00534093512743685 167.08949553551  0.00534093512743685 167.08949553551  0.96314434229644 176.828849104248 
14.6                           0.962888816458888 174.763012143508 0.00546354489583837 166.61151228955  0.00546354489583839 166.61151228955  0.96239274963255 175.829105850006 
14.65                          0.962136485421376 173.760767064693 0.00559228351214706 166.146065738124 0.00559228351214704 166.146065738124 0.961616206267308 174.819789971406 
14.7                           0.961359206152098 172.749015437561 0.00572760895672317 165.693048438159 0.00572760895672316 165.693048438159 0.960813506450108 173.800572262341 
14.75                          0.96055577233021 171.72743051557  0.00587002087194972 165.252295372207 0.0058700208719497 165.252295372207 0.959983368210862 172.771107307264 
14.8                           0.959724901212371 170.695669505654 0.00602006479296891 164.823577647138 0.0060200647929689 164.823577647138 0.959124427392093 171.731032480201 
14.85                          0.95886522762193 169.65337257956  0.0061783368407871 164.406595828457 0.00617833684078706 164.406595828457 0.958235231121339 170.67996686842  
14.9                           0.957975297370454 168.600161810875 0.00634548893166962 164.000972933861 0.00634548893166962 164.000972933861 0.957314230662446 169.617510114032 
14.95                          0.957053560048721 167.535640031125 0.00652223456361292 163.606247119005 0.00652223456361292 163.606247119005 0.956359773576569 168.543241166085 
15                             0.956098361116257 166.459389597625 0.00670935524854577 163.221864098652 0.00670935524854577 163.221864098652 0.955370095114887 167.456716934972 
15.05                          0.955107933209368 165.370971065021 0.00690770766794127 162.847169357123 0.00690770766794126 162.847169357123 0.95434330875488 166.357470840059 
15.1                           0.954080386577038 164.269921751585 0.00711823163991579 162.481400213056 0.00711823163991577 162.481400213056 0.953277395780424 165.245011240511 
15.15                          0.953013698542011 163.155754190415 0.00734195899788337 162.12367781446  0.00734195899788335 162.12367781446  0.952170193792596 164.11881973819  
15.2                           0.951905701870459 162.027954454576 0.00758002349470271 161.772999150521 0.00758002349470271 161.772999150521 0.95101938402277 162.97834934028  
15.25                          0.950754071917577 160.885980344086 0.00783367186232414 161.428229175892 0.00783367186232414 161.428229175892 0.949822477301818 161.823022467921 
15.3                           0.949556312397928 159.729259421263 0.00810427617559874 161.088093150754 0.00810427617559876 161.088093150754 0.948576798518833 160.652228795638 
15.35                          0.948309739607877 158.557186879509 0.00839334769060443 160.751169304945 0.00839334769060443 160.751169304945 0.947279469379064 159.465322904565 
15.4                           0.94701146490257 157.369123228875 0.00870255235310214 160.415881936159 0.00870255235310214 160.415881936159 0.945927389243294 158.261621730583 
15.45                          0.945658375200953 156.164391779916 0.00903372820217836 160.080495049925 0.00903372820217835 160.080495049925 0.944517213798964 157.040401786278 
15.5                           0.944247111258614 154.94227590522  0.00938890492848704 159.743106641902 0.00938890492848705 159.743106641902 0.94304533127614 155.800896133164 
15.55                          0.942774043408851 153.7020160556   0.00977032588661702 159.401643710449 0.00977032588661703 159.401643710449 0.941507835878014 154.542291077884 
15.6                           0.941235244426327 152.44280650534  0.010180472907975 159.053858068864 0.010180472907975 159.053858068864 0.93990049804487 153.263722562939 
15.65                          0.9396264591137  151.163791797845 0.0106220943153396 158.69732300187  0.0106220943153397 158.69732300187  0.93821873111097 151.964272219025 
15.7                           0.937943070148169 149.864062859754 0.0110982366042562 158.329430779786 0.0110982366042562 158.329430779786 0.93645755384391 150.642963042101 
15.75                          0.936180059650298 148.54265274783  0.0116122803312683 157.947391006616 0.0116122803312684 157.947391006616 0.934611548273912 149.298754653852 
15.8                           0.934331965849402 147.1985319888   0.0121679808364479 157.54822973561  0.0121679808364479 157.54822973561  0.932674812123533 147.930538099278 
15.85                          0.932392834115795 145.830603467675 0.0127695145298973 157.128789238506 0.0127695145298973 157.128789238506 0.930640905033958 146.537130129511 
15.9                           0.930356161507051 144.437696814995 0.0134215315913114 156.685728263954 0.0134215315913114 156.685728263954 0.928502787648606 145.117266911785 
15.95                          0.928214833829435 143.018562237837 0.0141292160711192 156.215522567778 0.0141292160711192 156.215522567778 0.926252752454448 143.669597101534 
16                             0.925961054042205 141.571863733257 0.0148983545444221 155.714465444479 0.0148983545444221 155.714465444479 0.923882345090969 142.192674203975 
16.05                          0.923586260626263 140.096171616298 0.0157354146585666 155.178667937157 0.0157354146585666 155.178667937157 0.921382274610553 140.68494814415  
16.1                           0.921081034293057 138.58995428768  0.0166476351358821 154.604058353467 0.0166476351358821 154.604058353467 0.918742310904874 139.144755955339 
16.15                          0.918434991117054 137.051569159044 0.0176431290493934 153.986380669464 0.0176431290493934 153.986380669464 0.915951167191545 137.570311486089 
16.2                           0.915636659826365 135.479252646444 0.0187310024860725 153.321191362416 0.0187310024860725 153.321191362416 0.912996365073767 135.959694016031 
16.25                          0.912673340570609 133.87110913596  0.0199214910543703 152.603854178291 0.0199214910543703 152.603854178291 0.909864079231712 134.310835660528 
16.3                           0.909530941990335 132.225098819635 0.0212261170851393 151.829532309944 0.0212261170851392 151.829532309944 0.906538958264376 132.621507434569 
16.35                          0.906193792824645 130.539024296323 0.0226578708214114 150.993177437761 0.0226578708214114 150.993177437761 0.903003917559947 130.88930383814  
16.4                           0.902644423597403 128.810515831957 0.0242314193948104 150.089515065141 0.0242314193948104 150.089515065141 0.899239899314831 129.111625819849 
16.45                          0.898863313101845 127.037015179537 0.0259633479429551 149.113025566098 0.025963347942955 149.113025566098 0.895225593929403 127.285661975095 
16.5                           0.894828593443081 125.21575787384  0.027872437825278 148.057920350965 0.0278724378252779 148.057920350965 0.890937115966334 125.408367842589 
16.55                          0.890515706285842 123.343753944465 0.0299799875263059 146.918112548806 0.0299799875263058 146.918112548805 0.886347626652459 123.476443183263 
16.6                           0.885897001686644 121.417767040062 0.0323101824615341 145.687181603139 0.0323101824615341 145.687181603139 0.881426893533942 121.486307165414 
16.65                          0.880941269476202 119.434292036658 0.034890520462257 144.35833118416  0.0348905204622569 144.35833118416  0.876140776370036 119.43407144942  
16.7                           0.875613191638278 117.38953132831  0.0377523001139502 142.924339842494 0.0377523001139501 142.924339842494 0.870450626716346 117.315511279216 
16.75                          0.869872702592137 115.279370189941 0.0409311792011055 141.377503877728 0.0409311792011054 141.377503877728 0.864312586999952 115.126034867414 
16.8                           0.863674242894287 113.099351890286 0.0444678100248767 139.709571987809 0.0444678100248766 139.709571987809 0.857676773408301 112.860651637566 
16.85                          0.856965890929585 110.844653660596 0.0484085569335248 137.911671431    0.0484085569335247 137.911671431    0.850486325925098 110.513940305674 
16.9                           0.849688357169349 108.510065253964 0.0528062984751041 135.97422571293  0.0528062984751041 135.97422571293  0.842676308897923 108.080018408389 
16.95                          0.841773827371489 106.089972748319 0.0577213113113028 133.886864270155 0.0577213113113029 133.886864270155 0.8341724475151  105.552515810598 
17                             0.833144646029257 103.578351576648 0.0632222242048372 131.63832534915  0.0632222242048372 131.63832534915  0.824889690946558 102.924556082607 
17.05                          0.823711841553189 100.968774682263 0.0693870162772964 129.216354404697 0.0693870162772965 129.216354404697 0.814730603926097 100.188751614122 
17.1                           0.813373513339525 98.254444429561  0.076304011924865 126.607602042689 0.0763040119248651 126.607602042689 0.803583608683547 97.3372211896236 
17.15                          0.802013132895987 95.4282607649014 0.0840727920591385 123.797528049547 0.0840727920591387 123.797528049547 0.79132113354581 94.3616428451081 
17.2                           0.789497863609123 92.4829435208328 0.0928048936373294 120.770321692922 0.0928048936373295 120.770321692922 0.777797780695331 91.2533606374241 
17.25                          0.775677086333847 89.4112341782082 0.102624102059773 117.508853616791 0.102624102059773 117.508853616791 0.762848713863175 88.0035721000339 
17.3                           0.760381443503451 86.2062123761769 0.113666049440486 113.99468168056  0.113666049440486 113.99468168056  0.746288600585333 84.6036343808627 
17.35                          0.743422897737893 82.861775443216  0.126076713695593 110.208142309693 0.126076713695593 110.208142309693 0.727911638686976 81.045542183791  
17.4                           0.724596555611596 79.3733453189493 0.14000927280315 106.128570316539 0.140009272803151 106.128570316539 0.707493467214784 77.3226504103653 
17.45                          0.703685337611676 75.7388856786345 0.155618622929695 101.734702938953 0.155618622929696 101.734702938953 0.684796112689563 73.4307391623645 
17.5                           0.680468959798028 71.9603302963907 0.173052760646936 97.0053357832546 0.173052760646937 97.0053357832546 0.659577530172225 69.3695478804778 
17.55                          0.654739055456411 68.0455358769747 0.192440239649225 91.9203047205963 0.192440239649226 91.9203047205963 0.631607687650505 65.1449363915306 
17.6                           0.626322435873624 64.0108676758312 0.213873173709055 86.4618602937418 0.213873173709056 86.4618602937418 0.600693338937517 60.771858213154  
17.65                          0.595114163792975 59.8844855712566 0.23738594720566 80.6164676196083 0.237385947205661 80.6164676196082 0.566713330122587 56.2783467423579 
17.7                           0.561120850777221 55.7102937408035 0.262931081037929 74.3769908146786 0.26293108103793 74.3769908146786 0.529665058746268 51.7107056302923 
17.75                          0.524511923055263 51.5523105795868 0.290355611066813 67.745096689009  0.290355611066814 67.7450966890089 0.489720127188836 47.1400456897789 
17.8                           0.485672335557102 47.4988596298831 0.319383533385729 60.7335449574676 0.31938353338573 60.7335449574676 0.447283205985632 42.6702000554859 
17.85                          0.445244913309464 43.6654208947974 0.349611456268089 53.3678617865665 0.34961145626809 53.3678617865665 0.403043376155664 38.4468175732029 
17.9                           0.404145874787471 40.194151599344  0.380524178905794 45.6868013321499 0.380524178905795 45.6868013321499 0.358003612379017 34.6668729754934 
17.95                          0.363535734819864 37.2469537523561 0.411533256324994 37.7410875381172 0.411533256324995 37.7410875381172 0.31347394929386 31.5862876116355 
18                             0.324731865340684 34.9877465193869 0.442034820080298 29.5902569951488 0.442034820080299 29.5902569951488 0.271017715034794 29.5191783408802 
18.05                          0.289058833976926 33.5494243158749 0.47147536058864 21.2979381454719 0.471475360588641 21.2979381454719 0.23234310197801 28.8125729822142 
18.1                           0.257647549306023 32.984958187929  0.49940976096773 12.9264091063633 0.499409760967731 12.9264091063634 0.19912368244759 29.76484561661   
18.15                          0.231215841822733 33.2146098152306 0.525537587495384 4.53153139551166 0.525537587495385 4.53153139551168 0.172710493084489 32.4541425375398 
18.2                           0.209892872209986 34.0001704605653 0.549711046945952 -3.84097669834165 0.549711046945953 -3.84097669834164 0.153718883636067 36.5186525011839 
18.25                          0.193170861250192 34.9817855589048 0.571917280655351 -12.1574141656552 0.571917280655352 -12.1574141656552 0.141643834399303 41.1057901804226 
18.3                           0.180037019134228 35.7776347046452 0.592244304876537 -20.3961475394855 0.592244304876537 -20.3961475394855 0.134873183643363 45.2011944654571 
18.35                          0.169243526614594 36.0928413285606 0.610841733444642 -28.546272590613 0.610841733444643 -28.546272590613 0.131253746409003 48.1093386381478 
18.4                           0.159591691175609 35.776492208591  0.627885198534059 -36.6054895840817 0.627885198534059 -36.6054895840817 0.128803724367348 49.6368662374444 
18.45                          0.150121521223682 34.8146827787826 0.643549408943966 -44.577750946852 0.643549408943966 -44.577750946852 0.126108017692437 49.9491631330367 
18.5                           0.140179831960342 33.2910057637623 0.657991100595477 -52.471083032414 0.657991100595477 -52.471083032414 0.122357486317402 49.364651914118  
18.55                          0.129402386687177 31.3487131737109 0.671340723894705 -60.2958049628579 0.671340723894705 -60.2958049628579 0.117223494867016 48.2333456167124 
18.6                           0.117658045080331 29.1714867019319 0.683700627476222 -68.0632217286821 0.683700627476221 -68.063221728682 0.110713402202959 46.8976457561048 
18.65                          0.104988546476234 26.9878016793646 0.695147344713968 -75.7847729543352 0.695147344713967 -75.7847729543352 0.103061389653367 45.6972614077786 
18.7                           0.0915620240909614 25.1042610757573 0.70573592564522 -83.4715678899087 0.705735925645219 -83.4715678899086 0.0946627690400462 44.9912032676824 
18.75                          0.0776523370708278 23.9862782085586 0.715504764011698 -91.1342182916944 0.715504764011697 -91.1342182916943 0.0860467649442103 45.1788234655603 
18.8                           0.063664834978184 24.4369786519485 0.724479871281645 -98.7828813265612 0.724479871281645 -98.7828813265612 0.0778794161601844 46.6941704890884 
18.85                          0.0502670818679061 27.9883499520119 0.732677971345609 -106.427435214198 0.732677971345608 -106.427435214198 0.0709771202299516 49.9195523259222 
18.9                           0.0387852036735563 37.5629847206145 0.740108109261596 -114.077725059467 0.740108109261596 -114.077725059467 0.0662775328993185 54.9428450818766 
18.95                          0.0319956916515179 56.6093156805823 0.746771686357054 -121.743831599217 0.746771686357054 -121.743831599217 0.0646765036933365 61.2027247578592 
19                             0.0333847339480942 80.3436000714363 0.752660962780225 -129.436329110022 0.752660962780224 -129.436329110022 0.0667202235562515 67.4225363507203 
19.05                          0.0425124362874072 96.2491730098433 0.757756123280181 -137.166508911593 0.757756123280181 -137.166508911593 0.072398383939404 72.2113076577889 
19.1                           0.0560800227535944 102.752654502642 0.762021004806057 -144.946550559167 0.762021004806057 -144.946550559167 0.08129442093365 74.7895510866899 
19.15                          0.0720790444495218 103.565345046925 0.76539756580822 -152.789623046527 0.76539756580822 -152.789623046527 0.0929283819991057 75.0877908318997 
19.2                           0.0898056001945388 101.165351146512 0.767799177450542 -160.709892579276 0.767799177450541 -160.709892579276 0.106985088317087 73.4114863556512 
19.25                          0.109150775559114 96.802771089667  0.769102888980723 -168.722401682745 0.769102888980722 -168.722401682745 0.123368979428682 70.1491132468134 
19.3                           0.13027336441682 91.1194775952366 0.769141028884401 -176.842767443157 0.7691410288844  -176.842767443157 0.142170759054926 65.6449810000663 
19.35                          0.153463774865987 84.4716553661106 0.767692924930493 174.913372947547 0.767692924930491 174.913372947547 0.163610132669993 60.1704942199061 
19.4                           0.179071928877602 77.076475956527  0.76447822710673 166.531258101376 0.764478227106729 166.531258101376 0.187976369877571 53.9312168660246 
19.45                          0.207452027241771 69.0805429924525 0.759154314494422 157.998332977957 0.75915431449442 157.998332977957 0.215568842510863 47.0817287047473 
19.5                           0.238907027781789 60.5935234651038 0.751321441205549 149.306083620134 0.751321441205548 149.306083620134 0.246635151204875 39.7396232591615 
19.55                          0.273627841881679 51.7057108328618 0.740540243914985 140.452373594371 0.740540243914984 140.452373594371 0.281305941300025 31.9971820634658 
19.6                           0.311629633857751 42.4980109999769 0.726366226088981 131.444140376244 0.726366226088981 131.444140376244 0.319529571536626 23.9311160561215 
19.65                          0.352694051276364 33.0482648987168 0.708403744898681 122.300101818997 0.708403744898682 122.300101818997 0.361015211028276 15.6107626506694 
19.7                           0.396331709618206 23.4354860052682 0.686376880339377 113.052885560434 0.686376880339378 113.052885560434 0.405198167292961 7.10464896646969 
19.75                          0.441781486788734 13.7422998766964 0.6602065655239  103.749827659129 0.660206565523901 103.749827659129 0.451243430605136 -1.51507740263475 
19.8                           0.488058907295658 4.05529078565622 0.630075083060275 94.4517352614238 0.630075083060277 94.4517352614238 0.498099056193265 -10.1709396172443 
19.85                          0.534053600878179 -5.53699560379806 0.596455454098228 85.2292827472067 0.59645545409823 85.2292827472067 0.544598520899365 -18.7814082804558 
19.9                           0.578658745859166 -14.948122136885 0.560089138768215 76.1573717403765 0.560089138768218 76.1573717403764 0.589593962141999 -27.2647643539571 
19.95                          0.620901758677031 -24.0989596643897 0.521911002677375 67.3084835479521 0.521911002677378 67.3084835479519 0.632088671486688 -35.5444344668282 
20                             0.66004368013279 -32.9226658104135 0.482939017651558 58.7464362010589 0.482939017651561 58.7464362010587 0.671335890508726 -43.5542915906282 
20.05                          0.695626621888803 -41.3682063524834 0.44415774106831 50.5218100393036 0.444157741068312 50.5218100393033 0.706883561757206 -51.242566766811 
20.1                           0.727467569996923 -49.4017501463115 0.40642340363129 42.6697107943444 0.406423403631292 42.669710794344  0.738564178334482 -58.5736278310301 
20.15                          0.755612685985327 -57.0059731890283 0.370406751048891 35.2098176618931 0.370406751048892 35.2098176618927 0.766444891313412 -65.5276210582336 
20.2                           0.780272764330766 -64.177825511985 0.336575301337987 28.1481370117858 0.336575301337988 28.1481370117854 0.790759343209737 -72.0985142518066 
20.25                          0.80175809332395 -70.9255049960048 0.305206272678663 21.4796884352931 0.305206272678664 21.4796884352928 0.811839890132825 -78.2912847710094 
20.3                           0.820424036798195 -77.2652980967373 0.276417548156891 15.1914338957128 0.276417548156891 15.1914338957124 0.830061580289486 -84.1189191565872 
20.35                          0.836631617062399 -83.2187299638712 0.250205258472904 9.26498069343711 0.250205258472905 9.26498069343674 0.845801993832697 -89.599676205973 
20.4                           0.85072254024407 -88.8102402185493 0.226480118002278 3.67881913736562 0.226480118002279 3.67881913736533 0.859416128981139 -94.7548393269612 
20.45                          0.863005767986871 -94.0654311049102 0.205098342725133 -1.58997009753831 0.205098342725133 -1.58997009753862 0.871223196800885 -99.6070134760564 
20.5                           0.873752207800809 -99.0098354060014 0.185885747191899 -6.56450024637079 0.185885747191899 -6.56450024637101 0.881501712124686 -104.178921266956 
20.55                          0.883194515088254 -103.668108724755 0.168655272665667 -11.2672691210718 0.168655272665667 -11.267269121072 0.890489751408151 -108.49260861278 
20.6                           0.891529747651592 -108.063543731867 0.153218969773475 -15.7196609128623 0.153218969773475 -15.7196609128625 0.898388047573712 -112.568961972538 
20.65                          0.898923346924527 -112.217815198421 0.139395670084857 -19.9416728146798 0.139395670084857 -19.9416728146798 0.905364361383505 -116.427449396276 
20.7                           0.905513504137429 -116.150882469836 0.127015499258948 -23.9517963350997 0.127015499258949 -23.9517963350997 0.911558175302292 -120.086014520221 
20.75                          0.911415382597616 -119.880994154894 0.115922184678046 -27.767000130615 0.115922184678047 -27.767000130615 0.917085181292532 -123.561070090229 
20.8                           0.916724935654811 -123.424755392949 0.105973889551234 -31.4027759752857 0.105973889551234 -31.4027759752857 0.922041308425475 -126.867552654151 
20.85                          0.921522222156915 -126.797230328164 0.0970431079945218 -34.8732212173311 0.097043107994522 -34.873221217331 0.92650620065674 -130.019011934844 
20.9                           0.925874212065918 -130.012061536386 0.0890159965536252 -38.1911398374121 0.0890159965536253 -38.1911398374119 0.930546146148681 -133.027717222082 
20.95                          0.929837120843536 -133.081594659769 0.0817913973418004 -41.3681505076029 0.0817913973418006 -41.3681505076028 0.934216504650714 -135.904769421004 
21                             0.933458330482588 -136.017001010335 0.0752797207676045 -44.4147944164436 0.0752797207676047 -44.4147944164434 0.937563697538507 -138.660211751161 
21.05                          0.936777959452   -138.828393941967 0.0694017945870208 -47.3406385811229 0.069401794587021 -47.3406385811226 0.940626828284531 -141.303135023719 
21.1                           0.939830140585078 -141.524936788265 0.0640877440981906 -50.1543723206777 0.0640877440981908 -50.1543723206775 0.94343899678149 -143.84177535039 
21.15                          0.942644059313521 -144.114941442537 0.0592759402686764 -52.8638958220027 0.0592759402686765 -52.8638958220025 0.946028363363953 -146.28360336832 
21.2                           0.945244796989734 -146.605957448087 0.0549120342835509 -55.4764005166004 0.054912034283551 -55.4764005166002 0.948419009935887 -148.635404825851 
21.25                          0.947654016567371 -149.004851935101 0.0509480853754034 -57.9984414576258 0.0509480853754036 -57.9984414576256 0.950631637518144 -150.903352823058 
21.3                           0.94989052118633 -151.317880997399 0.0473417816696303 -60.4360021524175 0.0473417816696304 -60.4360021524172 0.952684132318867 -153.093072247003 
21.35                          0.951970710431139 -153.550753224286 0.0440557496325363 -62.7945524391224 0.0440557496325364 -62.7945524391222 0.954592026274553 -155.209697058507 
21.4                           0.953908954207488 -155.708686140829 0.0410569455041719 -65.0791000465344 0.0410569455041719 -65.0791000465343 0.956368872894784 -157.257921123991 
21.45                          0.955717900228149 -157.796456297643 0.0383161211271947 -67.2942364765461 0.0383161211271948 -67.294236476546 0.958026555068108 -159.242043274808 
21.5                           0.957408727899311 -159.818443710619 0.0358073563759193 -69.4441778199133 0.0358073563759194 -69.444177819913 0.959575538117546 -161.16600723856 
21.55                          0.958991358829283 -161.778671295892 0.0335076506350065 -71.5328010719953 0.0335076506350065 -71.5328010719951 0.961025078697153 -163.033437035305 
21.6                           0.960474632130068 -163.680839884517 0.0313965662726642 -73.56367646437  0.0313965662726642 -73.56367646437  0.962383397972962 -164.847668374766 
21.65                          0.961866451049471 -165.528359340043 0.0294559176695888 -75.5400962759484 0.0294559176695888 -75.5400962759483 0.963657825825987 -166.611776533499 
21.7                           0.963173906173877 -167.324376243503 0.0276695000217019 -77.4651005365209 0.0276695000217019 -77.4651005365209 0.964854921462612 -168.328601136458 
21.75                          0.964403379411313 -169.07179855594 0.0260228527835778 -79.3414999882694 0.0260228527835778 -79.3414999882694 0.965980574746243 -170.000768216901 
21.8                           0.965560632145621 -170.773317619132 0.0245030532327912 -81.1718966274235 0.0245030532327912 -81.1718966274236 0.967040091714522 -171.630709882824 
21.85                          0.966650880301147 -172.431427810898 0.0230985361990592 -82.958702109262 0.0230985361990591 -82.9587021092622 0.968038267072277 -173.220681877251 
21.9                           0.967678858538403 -174.04844413204 0.0217989365102741 -84.7041542649409 0.0217989365102741 -84.7041542649409 0.96897944591443 -174.77277928349 
21.95                          0.968648875386637 -175.62651796739 0.0205949511596563 -86.4103319479827 0.0205949511596563 -86.4103319479828 0.969867576506201 -176.288950594728 
22                             0.969564860787543 -177.167651233047 0.0194782185966749 -88.0791684013171 0.0194782185966748 -88.0791684013172 0.97070625560706 -177.771010339459 
22.05                          0.97043040725795 -178.673709095392 0.0184412128930048 -89.7124633121813 0.0184412128930048 -89.7124633121815 0.971498767551981 -179.220650430079 
22.1                           0.971248805664917 179.853568575673 0.0174771508383019 -91.3118937015904 0.0174771508383019 -91.3118937015905 0.972248118084454 179.360549619157 
22.15                          0.972023076433441 178.41255687694  0.0165799102838233 -92.8790237771263 0.0165799102838232 -92.8790237771265 0.972957063759154 177.971113476914 
22.2                           0.972755996866637 177.001736540756 0.0157439582796584 -94.4153138621395 0.0157439582796583 -94.4153138621398 0.97362813758967 176.609659670295 
22.25                          0.973450125144061 175.619685492964 0.014964287747969 -95.9221285008215 0.0149642877479689 -95.9221285008217 0.974263671501009 175.274894052894 
22.3                           0.974107821470741 174.265071203602 0.0142363616042167 -97.4007438267239 0.0142363616042167 -97.4007438267242 0.974865816052622 173.965602979187 
22.35                          0.974731266773142 172.936643745588 0.0135560633845025 -98.852354271941 0.0135560633845024 -98.8523542719413 0.975436557820905 172.680647109457 
22.4                           0.975322479275656 171.633229486674 0.0129196535630308 -100.278078685133 0.0129196535630307 -100.278078685134 0.975977734767301 171.418955778506 
22.45                          0.975883329239403 170.353725348683 0.0123237308521757 -101.678965918682 0.0123237308521756 -101.678965918682 0.976491049866405 170.179521869312 
22.5                           0.976415552102378 169.097093575739 0.0117651978710669 -103.055999938354 0.0117651978710668 -103.055999938355 0.976978083225877 168.961397139617 
22.55                          0.976920760224342 167.862356959847 0.0112412306491758 -104.410104502834 0.0112412306491757 -104.410104502834 0.977440302894658 167.763687955475 
22.6                           0.977400453410223 166.648594478045 0.0107492515008566 -105.742147455163 0.0107492515008566 -105.742147455163 0.977879074526662 166.585551390982 
22.65                          0.97785602836093 165.454937300469 0.0102869048667749 -107.052944663509 0.0102869048667749 -107.052944663509 0.978295670042685 165.426191658023 
22.7                           0.978288787179646 164.280565133175 0.00985203576995871 -108.343263644572 0.00985203576995868 -108.343263644572 0.978691275412786 164.284856833881 
22.75                          0.978699945044084 163.124702863507 0.0094426705790088 -109.613826899378 0.00944267057900878 -109.613826899378 0.97906699766426 163.160835858064 
22.8                           0.979090637140332 161.986617479275 0.00905699980977327 -110.865314987998 0.00905699980977327 -110.865314987998 0.979423871205832 162.053455772836 
22.85                          0.97946192494129 160.865615236073 0.00869336273038599 -112.09836936699 0.00869336273038596 -112.09836936699 0.979762863546479 160.962079184636 
22.9                           0.979814801901977 159.761039049782 0.00835023356370647 -113.313595010833 0.00835023356370643 -113.313595010833 0.980084880476921 159.886101925988 
22.95                          0.980150198634829 158.67226609366  0.00802620910650024 -114.511562836474 0.00802620910650024 -114.511562836474 0.980390770773001 158.824950899641 
23                             0.980468987620225 157.598705581583 0.00771999760669348 -115.692811948164 0.00771999760669348 -115.692811948164 0.980681330472632 157.778082088539 
