! Touchstone file exported from HFSS 3D Layout Design 2026.1.0
!        File:           D:/Work/SIM/ADS_AUTO_SIM/projects/RFSOC_RF/TX_Fillter.aedt
!        Generated:      02:19:10 AM Aug 31, 2026
!        Design:         TX_BAND1_MCFIL_R28_CNN033
!        Project:        TX_Fillter
!
# GHz S MA R 50.000000
! Terminal data exported
! Port[1] = Port1
! Port[2] = Port2
14                             0.973768992853792 -162.904484577882 0.00361811722830418 -178.141761878939 0.00361811722830419 -178.141761878939 0.973904771559098 -162.653998657133 
14.05                          0.973303888137242 -163.783513034167 0.00368665619820372 -178.558744567059 0.00368665619820373 -178.558744567059 0.973446620738268 -163.523424019833 
14.1                           0.972824744090229 -164.668199111765 0.00375835625646053 -178.95566513568 0.00375835625646051 -178.95566513568 0.972974657278503 -164.398327131186 
14.15                          0.972330887613189 -165.558706954819 0.00383346193961345 -179.33206979547 0.00383346193961347 -179.332069795471 0.972488215831018 -165.27886869667 
14.2                           0.971821601808061 -166.455209259984 0.00391224145102696 -179.687537441353 0.00391224145102696 -179.687537441353 0.971986587591945 -166.165217871381 
14.25                          0.971296122395514 -167.357887829764 0.00399498923055047 179.978313259762 0.00399498923055048 179.978313259763 0.971469016741177 -167.057552809114 
14.3                           0.970753633777461 -168.266934169233 0.0040820288229893 179.665815989656 0.00408202882298932 179.665815989656 0.97093469652845 -167.956061254628 
14.35                          0.970193264703461 -169.182550130215 0.00417371608169335 179.375248074132 0.00417371608169334 179.375248074133 0.97038276496552 -168.860941183172 
14.4                           0.96961408349399 -170.104948607469 0.0042704427482202 179.106820929521 0.00427044274822023 179.106820929522 0.969812300077679 -169.772401491796 
14.45                          0.969015092767136 -171.034354291914 0.00437264045435002 178.860669650421 0.00437264045435002 178.860669650422 0.969222314661517 -170.690662747485 
14.5                           0.968395223607803 -171.97100448651 0.00448078519883882 178.636841745772 0.00448078519883882 178.636841745772 0.968611750488397 -171.615957997703 
14.55                          0.96775332910989 -172.915149991064 0.00459540235834418 178.43528505124  0.00459540235834419 178.43528505124  0.967979471884556 -172.548533649608 
14.6                           0.967088177211876 -173.867056062931 0.00471707230011683 178.255834870615 0.00471707230011682 178.255834870616 0.967324258608802 -173.488650424884 
14.65                          0.966398442734566 -174.827003461439 0.00484643667354856 178.098200427537 0.00484643667354856 178.098200427537 0.966644797937207 -174.43658439801 
14.7                           0.965682698516166 -175.795289584777 0.0049842054687669 177.961950740962 0.00498420546876689 177.961950740963 0.96593967585068 -175.392628126665 
14.75                          0.964939405523896 -176.772229709153 0.0051311649434993 177.846500072735 0.00513116494349929 177.846500072736 0.965207367205539 -176.357091884066 
14.8                           0.964166901802719 -177.758158341252 0.00528818653480128 177.751093132388 0.00528818653480129 177.75109313239  0.96444622474871 -177.330305004215 
14.85                          0.96336339009978 -178.753430696365 0.00545623689044197 177.674790261447 0.005456236890442 177.674790261448 0.963654466817398 -178.312617352408 
14.9                           0.962526923977323 -179.758424316157 0.00563638917636889 177.616452854978 0.0056363891763689 177.616452854978 0.96283016353752 -179.304400934922 
14.95                          0.961655392196241 179.226459158189 0.00582983584245769 177.574729309676 0.0058298358424577 177.574729309676 0.961971221304873 179.693948336455 
15                             0.960746501116221 178.200792039669 0.00603790305957451 177.548041812412 0.00603790305957451 177.548041812413 0.961075365297171 178.682008707307 
15.05                          0.959797754815317 177.164118455888 0.00626206707790262 177.534574297824 0.00626206707790263 177.534574297825 0.960140119722475 177.659330450868 
15.1                           0.958806432580513 176.115951993419 0.00650397280079856 177.53226190491  0.00650397280079856 177.53226190491  0.95916278545875 176.625433523012 
15.15                          0.957769563359357 175.055773100268 0.00676545492169596 177.538782247339 0.00676545492169597 177.538782247339 0.958140414678604 175.579804976209 
15.2                           0.956683896689166 173.983026217085 0.00704856203564106 177.55154877763  0.00704856203564108 177.55154877763  0.957069781980465 174.521896103264 
15.25                          0.95554586953165 172.897116603765 0.00735558421418256 177.56770646903  0.0073555842141826 177.56770646903  0.955947351459956 173.451119277646 
15.3                           0.954351568333847 171.797406823469 0.00768908462529378 177.58412995987  0.00768908462529379 177.58412995987  0.954769239049567 172.36684445267  
15.35                          0.953096685506713 170.683212840857 0.00805193589210434 177.59742420331  0.00805193589210436 177.59742420331  0.953531169326929 171.268395276581 
15.4                           0.951776469355273 169.553799685294 0.00844736201953313 177.6039275424   0.00844736201953316 177.603927542401 0.952228425836634 170.155044774635 
15.45                          0.950385666302298 168.408376622945 0.00887898688142442 177.599716989347 0.00887898688142443 177.599716989347 0.950855793781356 169.026010542523 
15.5                           0.948918454012638 167.246091773884 0.00935089045863657 177.580615333519 0.00935089045863656 177.580615333519 0.949407493706529 167.880449387763 
15.55                          0.947368363736983 166.066026101591 0.00986767425830282 177.542199540723 0.00986767425830283 177.542199540723 0.947877104518876 166.717451347063 
15.6                           0.945728189838654 164.867186692293 0.0104345376355817 177.479809743193 0.0104345376355817 177.479809743192 0.946257473829389 165.536032997926 
15.65                          0.943989884027842 163.64849923076  0.0110573670933264 177.388557961933 0.0110573670933264 177.388557961933 0.944540613179236 164.335129972052 
15.7                           0.942144431282992 162.408799567191 0.0117428410667558 177.263335556329 0.0117428410667559 177.263335556329 0.942717575171467 163.11358856642  
15.75                          0.940181703760982 161.146824257178 0.0124985532274474 177.098818264226 0.0124985532274474 177.098818264226 0.940778308864996 161.870156335513 
15.8                           0.93809028815115 159.861199943698 0.0133331579861646 176.889467581005 0.0133331579861646 176.889467581005 0.938711488955924 160.603471535523 
15.85                          0.935857280867842 158.550431437583 0.0142565426647755 176.629527127151 0.0142565426647755 176.629527127151 0.936504313230609 159.312051279273 
15.9                           0.9334680441445  157.212888342355 0.0152800317776452 176.313012566395 0.0152800317776451 176.313012566395 0.934142261468901 157.994278250556 
15.95                          0.930905914415866 155.84679006298  0.0164166300534201 175.933693552725 0.0164166300534201 175.933693552725 0.931608807333284 156.648385820923 
16                             0.92815185226069 154.450189039966 0.0176813122881128 175.485066093825 0.0176813122881128 175.485066093825 0.92888507270977 155.27244141449  
16.05                          0.925184020508127 153.02095206628  0.019091369907044 174.960313607281 0.019091369907044 174.960313607281 0.925949411355698 153.864327983278 
16.1                           0.921977273741083 151.55673958472  0.0206668262908966 174.352254798733 0.0206668262908966 174.352254798733 0.922776905417304 152.421723496566 
16.15                          0.918502538181605 150.054982942876 0.0224309355577612 173.653276291911 0.0224309355577611 173.653276291911 0.91933875423471 150.942078428103 
16.2                           0.914726055607019 148.512859726115 0.0244107826516968 172.855247673251 0.0244107826516968 172.855247673251 0.915601529653051 149.422591368908 
16.25                          0.910608458287329 146.927267534302 0.0266380063100328 171.94941626539  0.0266380063100328 171.94941626539  0.911526265583572 147.860183138612 
16.3                           0.906103633720828 145.294796975537 0.0291496707527784 170.926278507067 0.0291496707527783 170.926278507066 0.907067341589998 146.251470174518 
16.35                          0.901157328002466 143.611705315264 0.0319893166293963 169.775424296135 0.0319893166293963 169.775424296135 0.902171110660239 144.592738638701 
16.4                           0.895705424998755 141.87389329218  0.0352082265194391 168.485350073396 0.035208226519439 168.485350073396 0.896774210098067 142.879921747643 
16.45                          0.889671825569186 140.076889331652 0.0388669443504196 167.043235852349 0.0388669443504196 167.043235852349 0.890801482111361 141.108584530354 
16.5                           0.882965838229974 138.215848130668 0.0430370899657901 165.43468096677  0.04303708996579 165.434680966771 0.88416341858139 139.273922929907 
16.55                          0.875478983091288 136.285574954315 0.047803506949966 163.643393266807 0.0478035069499659 163.643393266807 0.876753035894964 137.370788465253 
16.6                           0.867081111310126 134.280593918601 0.0532667686777216 161.650827303091 0.0532667686777215 161.650827303091 0.868442087317947 135.393756487226 
16.65                          0.857615765925728 132.195289524187 0.0595460356644656 159.435769501949 0.0595460356644656 159.435769501949 0.859076545376967 133.337266837108 
16.7                           0.846894781922922 130.024168053706 0.0667821918639188 156.973873830441 0.0667821918639188 156.973873830441 0.848471360043202 131.195882671702 
16.75                          0.834692289887137 127.762312638142 0.0751410643701399 154.237162269797 0.0751410643701398 154.237162269797 0.836404665841873 128.964739694691 
16.8                           0.820738630700688 125.406147882769 0.084816312093601 151.193524243969 0.084816312093601 151.193524243969 0.822611953146552 126.640298805792 
16.85                          0.804715348013193 122.954693617792 0.0960311989725169 147.806283614389 0.0960311989725169 147.806283614389 0.806781372823586 124.221576441293 
16.9                           0.786253623911763 120.41157983026  0.109037874856451 144.033958860393 0.109037874856451 144.033958860393 0.788552526758222 121.71211493539  
16.95                          0.76494058140931 117.788219140686 0.124111904969991 139.830431047184 0.124111904969991 139.830431047184 0.767523118729232 119.123071423059 
17                             0.740341157206546 115.108673831718 0.141538619255006 135.145862129762 0.141538619255006 135.145862129762 0.743271041888562 116.477929844757 
17.05                          0.712047888913166 112.416840958273 0.161586629124428 129.928866241428 0.161586629124428 129.928866241428 0.715403962856655 113.819401913648 
17.1                           0.679776111789058 109.786403303445 0.184463353748652 124.130583360525 0.184463353748652 124.130583360525 0.683653318549813 111.218867652898 
17.15                          0.643524187783867 107.333049532881 0.210249331936581 117.71131262397  0.210249331936582 117.71131262397  0.648031267373702 108.787714772829 
17.2                           0.603808555041714 105.225724208156 0.238815218732479 110.649987631621 0.238815218732479 110.649987631621 0.609058596392486 106.687192681127 
17.25                          0.561945317518236 103.687584477472 0.269740009706443 102.955699052142 0.269740009706444 102.955699052142 0.568033014183897 105.127555715194 
17.3                           0.520266201281683 102.967433184471 0.302268602323004 94.6785712883208 0.302268602323005 94.6785712883208 0.527224754212152 104.338326197119 
17.35                          0.482037532786466 103.255678685844 0.335357636113731 85.9152285467254 0.335357636113732 85.9152285467254 0.489774603222087 104.48690968235  
17.4                           0.450800646219355 104.541275932632 0.367838044104697 76.8036356563524 0.367838044104698 76.8036356563523 0.459035556458459 105.546530081062 
17.45                          0.429104399710226 106.488231000947 0.398662329449825 67.5052267023132 0.398662329449825 67.5052267023132 0.437360386973917 107.189659927702 
17.5                           0.417247289500354 108.487502883538 0.42713911427261 58.1784587156895 0.427139114272609 58.1784587156895 0.42494104602882 108.844208147021 
17.55                          0.413035992021257 109.92183221259  0.453049113656138 48.9530653831939 0.453049113656138 48.9530653831939 0.419618852577454 109.93562075929  
17.6                           0.412812836006024 110.4269660284   0.476603758021952 39.9139102099137 0.476603758021952 39.9139102099138 0.417858851919109 110.120017745546 
17.65                          0.41286154735906 109.945569404224 0.498292900280781 31.0978019981117 0.498292900280781 31.0978019981118 0.416060618887111 109.332681189687 
17.7                           0.410282594853829 108.622314473384 0.518704027399413 22.500642384058  0.518704027399413 22.5006423840581 0.411378747229843 107.694823300222 
17.75                          0.403203209662316 106.685959361617 0.538374415405836 14.0896394600813 0.538374415405835 14.0896394600814 0.401925251313535 105.406566480088 
17.8                           0.390635424115787 104.38607256053  0.557697526986668 5.81608319894673 0.557697526986668 5.81608319894684 0.386637193627886 102.688023642457 
17.85                          0.372270913322208 101.981009958539 0.576877620586216 -2.37372949215441 0.576877620586216 -2.37372949215431 0.365077478338926 99.7679912810878 
17.9                           0.348350159719345 99.7578972318752 0.595918519622166 -10.5300909159103 0.595918519622166 -10.5300909159102 0.337299620629645 96.9056634338041 
17.95                          0.319645760337414 98.0729151361581 0.614635974310004 -18.6938097371589 0.614635974310004 -18.6938097371588 0.303816621955559 94.4406771645286 
18                             0.287566244287146 97.4067959600554 0.632689235584268 -26.8921196996328 0.632689235584269 -26.8921196996328 0.265689075084662 92.8838913785593 
18.05                          0.254383847182618 98.4207200772529 0.649631155385209 -35.1364051035537 0.649631155385209 -35.1364051035536 0.224779138751142 93.0830947694708 
18.1                           0.223559522591941 101.93767551416  0.66497536296028 -43.4218034647436 0.66497536296028 -43.4218034647436 0.184318638553782 96.5009629648738 
18.15                          0.199915974554001 108.609559541749 0.678274270272195 -51.7288096032217 0.678274270272194 -51.7288096032217 0.150045078001633 105.386814338342 
18.2                           0.188766603702378 117.97873719988  0.689195420087385 -60.0268201303175 0.689195420087385 -60.0268201303174 0.131162987797614 121.153588875853 
18.25                          0.19307811734891 127.751970123698 0.697580049654859 -68.279173848097 0.697580049654859 -68.2791738480969 0.135709877095721 139.284695735511 
18.3                           0.210999728604389 135.232783299726 0.703470088681605 -76.448843565543 0.703470088681605 -76.4488435655429 0.16064169649804 152.07527077009  
18.35                          0.23746430250292 139.359959895015 0.707098291632224 -84.5037414751285 0.707098291632224 -84.5037414751285 0.195956425446143 158.129123403269 
18.4                           0.267444289915138 140.52913190988  0.708847056471232 -92.420738246717 0.708847056471232 -92.420738246717 0.234101014192607 159.658201012501 
18.45                          0.297344544921392 139.532039699413 0.709189439159827 -100.18790723727 0.709189439159827 -100.18790723727 0.270999416567394 158.559915156024 
18.5                           0.324925689078101 137.04127479258  0.708627766863108 -107.804995174039 0.708627766863108 -107.804995174039 0.304571290386353 155.945383913221 
18.55                          0.348898690222674 133.523906538905 0.707641655351969 -115.282492074448 0.707641655351968 -115.282492074448 0.333782235604632 152.431713688027 
18.6                           0.368589363713518 129.281678729202 0.706651181569852 -122.63983238424 0.706651181569852 -122.63983238424 0.358176770375809 148.366473460166 
18.65                          0.383713008139719 124.50238440248  0.705995506116546 -129.903229342314 0.705995506116546 -129.903229342314 0.377637276849091 143.949184669944 
18.7                           0.394230677700141 119.298240644884 0.705923951833433 -137.103509654542 0.705923951833432 -137.103509654542 0.392248410115259 139.294862334984 
18.75                          0.40026079292336 113.731297386992 0.706595476561222 -144.274159347373 0.706595476561222 -144.274159347374 0.402217700989803 134.468155281596 
18.8                           0.402028837854029 107.829687897497 0.708082899832307 -151.449665836667 0.708082899832306 -151.449665836667 0.407830477608367 129.502274052196 
18.85                          0.399843994809469 101.597917941607 0.710379330059687 -158.664164039111 0.710379330059686 -158.664164039111 0.409427532630331 124.40954808436  
18.9                           0.394095076697688 95.0233566236395 0.713405399539359 -165.950362740692 0.713405399539357 -165.950362740692 0.407398114838039 119.186930836684 
18.95                          0.385260051548624 88.0803719792372 0.717016824854907 -173.338729224756 0.717016824854906 -173.338729224756 0.402182685207334 113.818042788946 
19                             0.373924375929685 80.7332017026266 0.721012323663602 179.143069096393 0.721012323663601 179.143069096393 0.394280827894974 108.272469558722 
19.05                          0.360803525273415 72.9386340765599 0.725141980032062 171.470442167655 0.725141980032062 171.470442167655 0.38426041002998 102.502638425213 
19.1                           0.346764650583948 64.6498733134638 0.729115761514194 163.621835329824 0.729115761514195 163.621835329825 0.372765111939024 96.4385892649959 
19.15                          0.332841232355892 55.8234702771412 0.732611134151974 155.578340280425 0.732611134151976 155.578340280425 0.360519409389385 89.9814089482615 
19.2                           0.320232964034483 46.43146931471   0.735277813292091 147.322981736745 0.735277813292094 147.322981736745 0.348333383788858 82.9971780511695 
19.25                          0.310281297660974 36.4798116473553 0.736737026097603 138.839801295844 0.736737026097606 138.839801295844 0.3371138457934  75.3151300676062 
19.3                           0.304410902850369 26.029811954979  0.736572822473564 130.113005868045 0.736572822473568 130.113005868045 0.327890495357807 66.736199042411  
19.35                          0.304032435743551 15.2119188254154 0.73431464152655 121.12662476529  0.734314641526554 121.12662476529  0.32186013769391 57.0601529431582 
19.4                           0.310414954393629 4.21555007893512 0.729414174665195 111.865288891358 0.729414174665198 111.865288891358 0.320430123750961 46.1378432423587 
19.45                          0.324550083610702 -6.75304463153212 0.721225898519923 102.316835520183 0.721225898519926 102.316835520183 0.325202992613522 33.9436658046021 
19.5                           0.347027851708794 -17.5287384005393 0.709008821758848 92.4773282887842 0.709008821758849 92.4773282887841 0.337813584579011 20.6387556968259 
19.55                          0.377923294395111 -28.026443440708 0.691973970429721 82.3585806638001 0.691973970429721 82.3585806638001 0.359567727771265 6.57450370511314 
19.6                           0.416684520761322 -38.2373315601993 0.669400873862464 71.9972084594082 0.669400873862463 71.9972084594083 0.390968781665704 -7.79083824162812 
19.65                          0.462046482717689 -48.1901745132641 0.64082659004228 61.4626826408924 0.640826590042279 61.4626826408927 0.4313553752079  -22.0185588570138 
19.7                           0.512045462589356 -57.9058185044464 0.606267786572668 50.860483088471  0.606267786572667 50.8604830884715 0.478855519377622 -35.7765976817795 
19.75                          0.56421271813916 -67.3690858907581 0.566386783155543 40.326613289786  0.566386783155544 40.3266132897868 0.530700100155863 -48.8527374407573 
19.8                           0.615947596981487 -76.5261890401489 0.522499477274522 30.0125249809429 0.522499477274525 30.0125249809439 0.583778514541583 -61.124274327899 
19.85                          0.664956049500983 -85.3012756946333 0.476382558665126 20.0641071340562 0.476382558665131 20.0641071340572 0.635236409482284 -72.5257781758499 
19.9                           0.709586424630366 -93.6193338070793 0.4299438365161  10.6017537490284 0.429943836516107 10.6017537490294 0.682917666651501 -83.0312551907102 
19.95                          0.74895227572735 -101.42434076813 0.384890635303242 1.70790369537596 0.38489063530325 1.70790369537682 0.725540983210584 -92.6466833868442 
20                             0.782849703727294 -108.687634540099 0.34251227999737 -6.57560940165388 0.342512279997379 -6.57560940165322 0.762629816624272 -101.404963988812 
20.05                          0.811559963584393 -115.407358161973 0.303613195915101 -14.2423438014666 0.303613195915109 -14.2423438014662 0.794301288134496 -109.359496268108 
20.1                           0.835636234179883 -121.60269784679 0.268562277748195 -21.3120994408452 0.268562277748202 -21.312099440845 0.821027420210615 -116.576586231576 
20.15                          0.855734268465683 -127.306592631006 0.237398737497728 -27.8213362293854 0.237398737497734 -27.8213362293855 0.843439087140894 -123.128250402106 
20.2                           0.872503598378609 -132.559207955927 0.209945545862385 -33.8151798213131 0.20994554586239 -33.8151798213133 0.862195012914345 -129.086570482727 
20.25                          0.886530607023018 -137.403073505363 0.185904247899896 -39.3416620997786 0.1859042478999  -39.341662099779 0.877908794724902 -134.519937345971 
20.3                           0.898316852777355 -141.87991589122 0.164923335128568 -44.4480313756523 0.164923335128572 -44.4480313756528 0.89111677788381 -139.49096070897 
20.35                          0.908277618477897 -146.028846065574 0.146642368268764 -49.1786543942589 0.146642368268767 -49.1786543942594 0.902270397854529 -144.05560518822 
20.4                           0.916750194196333 -149.88549251105 0.130717601184427 -53.5740093736536 0.13071760118443 -53.5740093736542 0.911741129685727 -148.263118370576 
20.45                          0.924005638806367 -153.481733472309 0.116834972415625 -57.6703643177245 0.116834972415626 -57.6703643177252 0.919830710557165 -152.156411114633 
20.5                           0.930260753728062 -156.845776421356 0.104715149515863 -61.4998518361724 0.104715149515864 -61.4998518361728 0.926782618056655 -155.772657315563 
20.55                          0.935688813619285 -160.002418246125 0.0941139354927249 -65.0907512990455 0.0941139354927256 -65.0907512990459 0.932792867267109 -159.143968304459 
20.6                           0.94042858109077 -162.973383415941 0.0848201993615975 -68.4678619683139 0.0848201993615978 -68.4678619683144 0.938019362823601 -162.298059412157 
20.65                          0.944591609523272 -165.777680591216 0.0766526621926803 -71.6528995953109 0.0766526621926806 -71.6528995953112 0.942589643572157 -165.258866596886 
20.7                           0.948268035818786 -168.431945620262 0.069456315089423 -74.6648799056512 0.0694563150894232 -74.6648799056513 0.94660713198009 -168.047095423996 
20.75                          0.951531121062828 -170.950755497863 0.0630988942940208 -77.5204711186156 0.0630988942940208 -77.5204711186156 0.950156101886788 -170.680698489517 
20.8                           0.954440788384745 -173.346907478386 0.0574676255552921 -80.2343085137217 0.0574676255552921 -80.2343085137216 0.953305595132776 -173.175284594759 
20.85                          0.957046373670292 -175.631662811907 0.0524663257292556 -82.819270060486 0.0524663257292557 -82.8192700604857 0.956112497808572 -175.544466294621 
20.9                           0.959388765446093 -177.814957252207 0.0480128804941838 -85.2867152182976 0.0480128804941838 -85.2867152182971 0.958623954507429 -177.800153559929 
20.95                          0.961502073573134 -179.905581666258 0.0440370810609996 -87.6466904135142 0.0440370810609995 -87.6466904135136 0.960879265401682 -179.952801245989 
21                             0.963414935295103 178.08866357728  0.0404787860500138 -89.9081051546284 0.0404787860500139 -89.9081051546277 0.962911380900551 177.988382551207 
21.05                          0.965151542120176 176.160836852563 0.0372863688557312 -92.0788826965876 0.0372863688557312 -92.0788826965867 0.964748083540498 176.015261003948 
21.1                           0.966732451374893 174.304742864463 0.0344154107966446 -94.1660888695913 0.0344154107966447 -94.1660888695905 0.966412926582672 174.120620555619 
21.15                          0.968175231138599 172.514836669312 0.0318276032057836 -96.176042291528 0.0318276032057836 -96.1760422915272 0.967925982939015 172.298045872801 
21.2                           0.96949497572461 170.786141608745 0.0294898256887452 -98.1144087658882 0.0294898256887453 -98.1144087658873 0.969304445758368 170.541813940378 
21.25                          0.970704720114797 169.114179004913 0.0273733721436385 -99.9862822690792 0.0273733721436387 -99.9862822690782 0.970563112548605 168.846804131587 
21.3                           0.971815775121005 167.494907795403 0.0254533003290254 -101.796254571062 0.0254533003290255 -101.796254571062 0.971714777465151 167.208421625594 
21.35                          0.972838000023578 165.924672573728 0.0237078845623653 -103.548475217477 0.0237078845623654 -103.548475217476 0.972770550851556 165.62253199738  
21.4                           0.973780025627782 164.400158747292 0.0221181544547174 -105.246703329722 0.0221181544547175 -105.246703329721 0.973740120873103 164.085405179813 
21.45                          0.974649437782364 162.918353732783 0.0206675054346768 -106.894352448595 0.020667505434677 -106.894352448595 0.974631968829614 162.593667307468 
21.5                           0.975452929194759 161.476513283598 0.0193413692199595 -108.494529452397 0.0193413692199597 -108.494529452397 0.975453547231443 161.144259206561 
21.55                          0.976196425685048 160.072132189854 0.0181269344084584 -110.050068417058 0.0181269344084585 -110.050068417057 0.976211427792915 159.734400504902 
21.6                           0.976885191719009 158.702918713209 0.0170129090355902 -111.563560149155 0.0170129090355903 -111.563560149154 0.976911425003755 158.361558507961 
21.65                          0.977523919054722 157.36677221997  0.0159893183327522 -113.037378008475 0.0159893183327523 -113.037378008475 0.977558699778255 157.023421128724 
21.7                           0.97811680155622 156.061763560305 0.0150473320691916 -114.473700541341 0.0150473320691916 -114.47370054134 0.978157846775977 155.717873275663 
21.75                          0.978667598618387 154.786117811562 0.014179116807074 -115.874531366165 0.0141791168070741 -115.874531366165 0.978712968277756 154.442976199308 
21.8                           0.979179689169571 153.538199062292 0.0133777091816101 -117.241716685955 0.01337770918161 -117.241716685955 0.979227736941703 153.196949377416 
21.85                          0.979656117841997 152.316496962459 0.0126369069637931 -118.576960746547 0.0126369069637931 -118.576960746547 0.97970544932184 151.978154584601 
21.9                           0.980099634601986 151.11961480624  0.0119511751968213 -119.881839512391 0.0119511751968213 -119.881839512391 0.980149071680801 150.785081846948 
21.95                          0.980512728894873 149.946258948141 0.0113155651385732 -121.157812792206 0.0113155651385732 -121.157812792206 0.98056127934784 149.616337027701 
22                             0.980897659169871 148.795229382001 0.0107256441080525 -122.406235013503 0.0107256441080524 -122.406235013504 0.980944490648837 148.470630828088 
22.05                          0.981256478497817 147.665411336706 0.0101774346369787 -123.628364816848 0.0101774346369786 -123.628364816849 0.981300896254224 147.346769019173 
22.1                           0.981591056871837 146.555767762985 0.0096673615797477 -124.825373616883 0.00966736157974758 -124.825373616884 0.981632484644693 146.243643747309 
22.15                          0.981903100681244 145.46533260301  0.00919220604484067 -125.9983532569  0.00919220604484057 -125.9983532569  0.981941064275933 145.160225778235 
22.2                           0.982194169767899 144.393204749221 0.00874906518584827 -127.148322866549 0.00874906518584816 -127.148322866549 0.982228282927016 144.095557563806 
22.25                          0.982465692407821 143.338542611375 0.00833531703663123 -128.276235017588 0.00833531703663109 -128.276235017588 0.982495644637962 143.048747031384 
22.3                           0.982718978506381 142.300559221463 0.00794858969774168 -129.382981260011 0.00794858969774154 -129.382981260012 0.982744524577053 142.018962009519 
22.35                          0.982955231250431 141.278517815299 0.00758673428414087 -130.469397110201 0.0075867342841407 -130.469397110202 0.982976182124894 141.005425215113 
22.4                           0.983175557423514 140.271727837384 0.00724780113081473 -131.536266553472 0.00724780113081458 -131.536266553473 0.983191772417935 140.00740973713  
22.45                          0.983380976559387 139.279541322407 0.0069300188258559 -132.584326115493 0.0069300188258557 -132.584326115494 0.983392356557274 139.024234960331 
22.5                           0.983572429083279 138.301349612492 0.00663177570221645 -133.614268550212 0.00663177570221628 -133.614268550213 0.983578910657974 138.055262879754 
22.55                          0.983750783568725 137.336580374327 0.00635160347150468 -134.62674618603 0.00635160347150452 -134.62674618603 0.983752333888393 137.099894762852 
22.6                           0.983916843219665 136.384694884601 0.00608816272744658 -135.622373966854 0.00608816272744643 -135.622373966854 0.983913455627538 136.157568121552 
22.65                          0.984071351672212 135.445185555957 0.00584023008424043 -136.601732220261 0.00584023008424031 -136.601732220262 0.984063041850334 135.2277539611   
22.7                           0.984214998197584 134.51757367887  0.00560668674705799 -137.565369181143 0.00560668674705788 -137.565369181144 0.984201800835409 134.309954276552 
22.75                          0.984348422376688 133.601407357733 0.00538650833927256 -138.513803295878 0.00538650833927247 -138.513803295879 0.984330388277022 133.403699771231 
22.8                           0.984472218307561 132.696259621886 0.00517875583435879 -139.447525329194 0.00517875583435869 -139.447525329194 0.984449411871798 132.50854777445  
22.85                          0.984586938398871 131.80172669447  0.00498256746042024 -140.367000293298 0.00498256746042017 -140.367000293298 0.984559435441555 131.624080338457 
22.9                           0.984693096795904 130.917426403904 0.00479715146247896 -141.272669216704 0.00479715146247893 -141.272669216705 0.984660982645504 130.749902496785 
22.95                          0.984791172479583 130.042996724404 0.00462177962242667 -142.164950768186 0.00462177962242667 -142.164950768185 0.984754540328274 129.885640668236 
23                             0.984881612074072 129.178094433464 0.00445578144925911 -143.044242749623 0.0044557814492591 -143.044242749623 0.98484056154433 129.030941192424 
