! Touchstone file exported from HFSS 3D Layout Design 2026.1.0
!        File:           D:/Work/SIM/ADS_AUTO_SIM/projects/RFSOC_RF/TX_Fillter.aedt
!        Generated:      09:42:35 PM Aug 30, 2026
!        Design:         TX_BAND1_MCFIL_R1_CNN001
!        Project:        TX_Fillter
!
# GHz S MA R 50.000000
! Terminal data exported
! Port[1] = Port1
! Port[2] = Port2
14                             0.96684930140501 178.180803619937 0.00562035354860619 137.286701266286 0.00562035354860619 137.286701266286 0.967302718100526 77.2731131386059 
14.05                          0.966241035530381 177.198402490518 0.00571476059292166 136.730836680364 0.00571476059292166 136.730836680364 0.967039094528379 76.3594902921088 
14.1                           0.965615054967851 176.208329671038 0.00581322931348667 136.184858137641 0.0058132293134867 136.18485813764  0.966771748140373 75.4461675997781 
14.15                          0.964970603875279 175.210355242418 0.0059160104335985 135.648653019522 0.00591601043359851 135.648653019522 0.966500552636268 74.5331016151825 
14.2                           0.964306883841604 174.204239065768 0.00602337279741931 135.122081229389 0.00602337279741933 135.122081229388 0.966225372370934 73.6202475945602 
14.25                          0.963623050905573 173.189730215347 0.006135604846977 134.604973213375 0.00613560484697704 134.604973213375 0.965946061768617 72.7075594337647 
14.3                           0.962918212323327 172.166566373037 0.00625301623213998 134.097127919445 0.00625301623214001 134.097127919445 0.965662464684469 71.7949896002653 
14.35                          0.962191423059986 171.134473181176 0.0063759395669098 133.59831070204  0.00637593956690983 133.59831070204  0.965374413707841 70.8824890597855 
14.4                           0.961441681977541 170.093163550326 0.00650473234690612 133.108251180806 0.00650473234690615 133.108251180806 0.965081729401133 69.9700071971201 
14.45                          0.960667927688171 169.04233691819  0.00663977904464789 132.626641063098 0.00663977904464792 132.626641063098 0.964784219467273 69.0574917306296 
14.5                           0.959869034038451 167.981678455529 0.00678149340119832 132.153131941082 0.00678149340119836 132.153131941082 0.964481677838038 68.1448886198556 
14.55                          0.959043805185845 166.910858214526 0.0069303209349665 131.687333075339 0.00693032093496652 131.687333075338 0.964173883674468 67.2321419656499 
14.6                           0.958190970224178 165.829530214573 0.00708674169099077 131.228809177778 0.0070867416909908 131.228809177778 0.963860600269499 66.3191939021452 
14.65                          0.957309177309513 164.737331459936 0.00725127325691035 130.77707820743  0.0072512732569104 130.77707820743  0.963541573841696 65.4059844798258 
14.7                           0.956396987231795 163.633880883197 0.00742447407511588 130.33160919316  0.00742447407511591 130.33160919316  0.963216532207504 64.4924515388821 
14.75                          0.955452866370761 162.518778207714 0.00760694708431924 129.891820097597 0.00760694708431927 129.891820097597 0.962885183317779 63.5785305719429 
14.8                           0.954475178966702 161.391602721615 0.00779934372806796 129.457075736358 0.00779934372806799 129.457075736358 0.962547213642441 62.664154575189  
14.85                          0.953462178627686 160.251911955039 0.00800236837263261 129.026685766121 0.00800236837263264 129.026685766121 0.962202286384889 61.7492538867387 
14.9                           0.952411998984471 159.099240251434 0.00821678318231513 128.599902753973 0.00821678318231514 128.599902753973 0.961850039505278 60.8337560110807 
14.95                          0.951322643392437 157.933097222665 0.00844341350667101 128.17592033888  0.00844341350667104 128.17592033888  0.961490083528803 59.9175854281956 
15                             0.950191973566187 156.752966076554 0.00868315384154391 127.75387149384  0.00868315384154393 127.75387149384  0.961121999111735 59.000663385855  
15.05                          0.949017697016611 155.55830180416  0.00893697443432562 127.332826894418 0.00893697443432562 127.332826894418 0.960745334333979 58.0829076734267 
15.1                           0.947797353141918 154.34852921261  0.00920592861366329 126.911793395701 0.0092059286136633 126.911793395701 0.960359601682325 57.1642323753194 
15.15                          0.946528297802923 153.123040787631 0.00949116093514254 126.489712615379 0.00949116093514254 126.489712615379 0.959964274683165 56.2445476020015 
15.2                           0.945207686188208 151.881194368016 0.00979391624753301 126.065459615504 0.00979391624753303 126.065459615504 0.959558784137156 55.3237591962877 
15.25                          0.943832453746117 150.62231061209  0.0101155497992787 125.637841669559 0.0101155497992787 125.637841669559 0.959142513900954 54.4017684123321 
15.3                           0.942399294926972 149.345670233763 0.0104575385223961 125.205597094763 0.0104575385223961 125.205597094763 0.958714796152453 53.4784715644751 
15.35                          0.940904639439801 148.050510982967 0.0108214936512091 124.767394122023 0.0108214936512091 124.767394122023 0.958274906065777 52.5537596427678 
15.4                           0.939344625681864 146.736024342013 0.0112091748568856 124.321829767722 0.0112091748568856 124.321829767722 0.957822055810233 51.6275178916407 
15.45                          0.937715070945291 145.401351905736 0.0116225061061123 123.867428662484 0.0116225061061123 123.867428662484 0.957355387773185 50.6996253477843 
15.5                           0.936011437941545 144.045581409076 0.0120635934841276 123.402641782348 0.0120635934841276 123.402641782348 0.956873966889914 49.7699543328721 
15.55                          0.93422879710924 142.667742360875 0.0125347452595244 122.925845017317 0.0125347452595244 122.925845017317 0.95637677194344 48.8383698962716 
15.6                           0.932361784081917 141.266801237072 0.013038494511698 122.435337501074 0.013038494511698 122.435337501074 0.955862685673344 47.9047292023675 
15.65                          0.930404551586714 139.841656180082 0.0135776246926732 121.929339613721 0.0135776246926733 121.929339613721 0.955330483503984 46.968880856547  
15.7                           0.928350714919144 138.391131143702 0.014155198554655 121.40599055666  0.014155198554655 121.40599055666  0.954778820668238 46.0306641632929 
15.75                          0.926193289989186 136.913969414324 0.0147745909446183 120.863345385047 0.0147745909446183 120.863345385047 0.954206217461691 45.089908309189  
15.8                           0.923924622754342 135.408826429374 0.015439526049495 120.299371368485 0.0154395260494951 120.299371368485 0.953611042312569 44.1464314629861 
15.85                          0.921536308639998 133.87426180241  0.0161541197723059 119.711943534497 0.016154119772306 119.711943534497 0.952991492292837 43.2000397842292 
15.9                           0.919019100288374 132.308730451127 0.0169229280336249 119.098839231532 0.0169229280336249 119.098839231532 0.952345570623349 42.2505263313361 
15.95                          0.916362801665046 130.710572709174 0.0177510019272439 118.457731528367 0.0177510019272439 118.457731528367 0.951671060637932 41.2976698595161 
16                             0.913556146174391 129.078003285012 0.0186439508175969 117.786181244174 0.0186439508175969 117.786181244175 0.95096549556429 40.341233498585  
16.05                          0.910586655977714 127.409098910579 0.0196080146538115 117.08162737766  0.0196080146538116 117.08162737766  0.9502261233491  39.3809633007186 
16.1                           0.907440479151876 125.70178449899  0.0206501469963178 116.341375673534 0.0206501469963179 116.341375673534 0.949449865595297 38.416586648641  
16.15                          0.904102200649497 123.953817603425 0.0217781105126431 115.562585029306 0.0217781105126431 115.562585029306 0.948633269484423 37.4478105159526 
16.2                           0.900554622196135 122.162770938392 0.0230005870060239 114.7422514037   0.023000587006024 114.7422514037   0.947772451317778 36.4743195736095 
16.25                          0.89677850525098 120.326012689449 0.0243273044010992 113.877188838502 0.0243273044010992 113.877188838502 0.946863030016547 35.4957741405346 
16.3                           0.892752269922906 118.440684297949 0.0257691835330037 112.96400714683  0.0257691835330037 112.96400714683  0.945900048560529 34.511807982707  
16.35                          0.888451641221634 116.503675363674 0.0273385080773726 111.99908575081  0.0273385080773726 111.99908575081  0.944877880902242 33.5220259749758 
16.4                           0.883849232171091 114.51159526089  0.0290491215258607 110.978543068586 0.0290491215258607 110.978543068586 0.943790121349635 32.5260016548173 
16.45                          0.878914051043758 112.4607410139   0.0309166557589079 109.89820075243  0.0309166557589079 109.89820075243  0.942629452744956 31.5232747195944 
16.5                           0.873610917202143 110.347060929515 0.0329587964934638 108.753541964663 0.0329587964934638 108.753541964663 0.941387488954893 30.5133485518074 
16.55                          0.867899766655729 108.166113441143 0.035195591677156 107.539662744606 0.035195591677156 107.539662744606 0.940054586201586 29.4956879050125 
16.6                           0.861734824348977 105.913020591448 0.0376498097336429 106.251215367428 0.0376498097336429 106.251215367428 0.938619616579453 28.4697169532224 
16.65                          0.855063615279522 103.582415582573 0.0403473553793623 104.88234242593  0.0403473553793624 104.88234242593  0.937069695698715 27.4348180082922 
16.7                           0.847825780717436 101.16838387924  0.0433177514245095 103.426600183871 0.0433177514245094 103.426600183871 0.935389854768322 26.3903313568535 
16.75                          0.839951659027409 98.6643975002888 0.0465946953586862 101.876869565041 0.0465946953586861 101.876869565041 0.933562645607287 25.3355568805679 
16.8                           0.831360582986529 96.0632424422073 0.0502166992990109 100.225252976702 0.050216699299011 100.225252976702 0.931567665148829 24.2697584291248 
16.85                          0.821958837396259 93.3569397467571 0.0542278205463468 98.4629550561223 0.0542278205463468 98.4629550561224 0.929380984191573 23.1921723547423 
16.9                           0.811637213034766 90.5366617187622 0.058678486752583 96.5801454381739 0.0586784867525829 96.5801454381739 0.926974463888272 22.1020222466155 
16.95                          0.800268087253014 87.5926464849133 0.0636264132833228 94.5658018758665 0.0636264132833228 94.5658018758666 0.92431494355206 20.9985428025633 
17                             0.787701960912237 84.5141168882475 0.0691375987993977 92.4075326760796 0.0691375987993977 92.4075326760796 0.921363286247945 19.8810170499511 
17.05                          0.773763391493813 81.2892143302227 0.0752873653747385 90.0913787135974 0.0752873653747385 90.0913787135975 0.918073276828593 18.7488329185567 
17.1                           0.758246292790401 77.9049657371073 0.0821613771337463 87.6015976866498 0.0821613771337463 87.6015976866498 0.91439038479626 17.601567645253  
17.15                          0.740908638947107 74.3473142094521 0.0898565199363772 84.9204374316245 0.0898565199363772 84.9204374316245 0.910250438567   16.4391118367366 
17.2                           0.721466741484797 70.6012642361094 0.0984814450862096 82.0279119954534 0.0984814450862096 82.0279119954534 0.905578319403267 15.2618493652752 
17.25                          0.699589504566909 66.6512259330808 0.108156460880583 78.9016051528296 0.108156460880583 78.9016051528296 0.900286889219252 14.0709145574555 
17.3                           0.674893470131159 62.4816988904853 0.119012284328093 75.516542987213  0.119012284328093 75.516542987213  0.894276540432624 12.8685537644043 
17.35                          0.646940131447922 58.0785317316794 0.131186932092899 71.8452021885649 0.131186932092899 71.8452021885649 0.887436027970409 11.658622601644  
17.4                           0.615238037759372 53.4311606306903 0.144819739806885 67.8577557643601 0.144819739806885 67.8577557643601 0.879645641977225 10.4472487757361 
17.45                          0.579253757945919 48.5365348070442 0.160041195413792 63.5227030473447 0.160041195413792 63.5227030473447 0.87078430837432 9.24367504478965 
17.5                           0.538437899849139 43.4060265202456 0.176957077796189 58.8080813280453 0.176957077796189 58.8080813280453 0.860742786513067 8.06125231542571 
17.55                          0.492275060944026 38.0778576952172 0.195625567840893 53.6834964675794 0.195625567840893 53.6834964675793 0.849445505247473 6.91845577883714 
17.6                           0.440369708083587 32.6404309591248 0.21602699540331 48.1232049624081 0.21602699540331 48.1232049624081 0.836883133502309 5.83962025850544 
17.65                          0.382584212109491 27.2793649900946 0.238028294759808 42.1103706197927 0.238028294759808 42.1103706197926 0.823155648881143 4.85482532494956 
17.7                           0.31925661017443 22.3829047113831 0.261348477724988 35.6423286343959 0.261348477724988 35.6423286343959 0.808520134131167 3.99806876766823 
17.75                          0.251577311951985 18.8147081088993 0.285536954824032 28.7361686040318 0.285536954824032 28.7361686040317 0.793428361688227 3.30276886361488 
17.8                           0.182472172420185 18.7539575148325 0.309980773432235 21.4332685766282 0.309980773432234 21.4332685766282 0.778529267950929 2.79415207156059 
17.85                          0.119845255497725 28.5873663817307 0.333954994316245 13.8008789251754 0.333954994316244 13.8008789251754 0.764609098911937 2.47962454505376 
17.9                           0.0889042020133414 61.0804274528692 0.356718092686961 5.92898259114544 0.356718092686961 5.92898259114548 0.752458766481023 2.34053618629075 
17.95                          0.117712830817861 93.0892116023207 0.377633198568116 -2.07815234923191 0.377633198568116 -2.07815234923188 0.74269614661401 2.33020723191752 
18                             0.174881464584081 102.097808024791 0.396277721596167 -10.1143056411046 0.396277721596166 -10.1143056411046 0.735609972325005 2.38141594948152 
18.05                          0.234981320645954 100.918179190902 0.412503332052135 -18.0843380380952 0.412503332052135 -18.0843380380952 0.731095800931239 2.4215354273298  
18.1                           0.290325813681288 95.8552817614606 0.42642918941016 -25.9144013748372 0.426429189410161 -25.9144013748372 0.728709543043529 2.38876914275627 
18.15                          0.338248720988046 89.0605777422042 0.438380206262736 -33.557133457394 0.438380206262736 -33.557133457394 0.727802566690825 2.24271931515787 
18.2                           0.37783253216867 81.3821924668649 0.44880015515684 -40.991714904834 0.44880015515684 -40.991714904834 0.727671993192619 1.9667257504376  
18.25                          0.408998159911261 73.1915469241548 0.458169009059781 -48.2202406775999 0.458169009059781 -48.2202406775999 0.727674062874618 1.5639679568774  
18.3                           0.432105779432407 64.6518833120564 0.466941580470652 -55.2623645282435 0.466941580470652 -55.2623645282435 0.727283049901236 1.05110014854304 
18.35                          0.447724384007592 55.8218465814606 0.475511063680798 -62.1498252296561 0.475511063680798 -62.1498252296561 0.726105063174793 0.452375606029392 
18.4                           0.456491473667032 46.7011773410699 0.484192738518308 -68.9217870924238 0.484192738518308 -68.9217870924238 0.723865783779688 -0.204414940018  
18.45                          0.459033816148458 37.2524125460122 0.493220376015148 -75.6213238014866 0.493220376015148 -75.6213238014866 0.720389024691139 -0.890080325109412 
18.5                           0.455931444622358 27.4109288418575 0.5027485990869  -82.2929937502307 0.5027485990869  -82.2929937502307 0.715576933083795 -1.5746712202019 
18.55                          0.447712470652608 17.0882907356879 0.512856379327644 -88.9812788770079 0.512856379327644 -88.9812788770079 0.709397374379433 -2.22715406616291 
18.6                           0.434871371146346 6.17092572166876 0.523548734306698 -95.7296122902213 0.523548734306698 -95.7296122902213 0.701880851518269 -2.81457032046263 
18.65                          0.417908680964498 -5.485213431765  0.534755114727819 -102.57973358923 0.534755114727819 -102.57973358923 0.693127842479709 -3.30106482737775 
18.7                           0.397395573879798 -18.0639257590628 0.546323992296243 -109.571140891346 0.546323992296243 -109.571140891346 0.683326816201777 -3.64718332184946 
18.75                          0.374072765820034 -31.8015390947797 0.558014018287919 -116.740434671736 0.558014018287919 -116.740434671736 0.672782485847603 -3.80997688042689 
18.8                           0.348998513098237 -46.9999871096618 0.569483103683605 -124.12036707111 0.569483103683606 -124.12036707111 0.66195209009199 -3.74471120124723 
18.85                          0.323758945265952 -64.0278522754398 0.580278123848158 -131.738430473837 0.580278123848158 -131.738430473837 0.651483549477462 -3.4092870213296 
18.9                           0.300722980304057 -83.2743963826405 0.589829790200767 -139.614861239108 0.589829790200767 -139.614861239108 0.642242310132371 -2.77258195910021 
18.95                          0.283209522028751 -104.987326195175 0.597459352801844 -147.760028254617 0.597459352801844 -147.760028254617 0.635304095971599 -1.82726537071648 
19                             0.275200397212541 -128.947194407183 0.602405395471768 -156.171352853987 0.602405395471768 -156.171352853987 0.631883188738252 -0.605437489359816 
19.05                          0.280160224980797 -154.17750675665 0.60387844792651 -164.830178434464 0.60387844792651 -164.830178434465 0.633171077352985 0.808498255558103 
19.1                           0.299345520748603 -179.189879791558 0.601146356344055 -173.699330872739 0.601146356344054 -173.69933087274 0.640091571304428 2.27696753527217 
19.15                          0.331141274309247 157.243936390422 0.593643081673423 177.277648957431 0.593643081673422 177.277648957431 0.653034729991443 3.62812554790312 
19.2                           0.372069632345548 135.631471911013 0.581079794018258 168.174669288031 0.581079794018256 168.174669288031 0.671679334852013 4.69243961751503 
19.25                          0.418254857041937 115.931457297221 0.563526438754309 159.078225199297 0.563526438754308 159.078225199297 0.695000640126242 5.34218185182803 
19.3                           0.466306985376115 97.8968767142873 0.541433193236739 150.079998102017 0.541433193236737 150.079998102017 0.721475689466337 5.51563636094327 
19.35                          0.513626679648173 81.274616767943  0.515578395159354 141.268347335781 0.515578395159353 141.268347335781 0.749401170205788 5.21783752669466 
19.4                           0.558427347812442 65.8667733761597 0.48695582716705 132.720584280565 0.486955827167049 132.720584280565 0.777200234431926 4.5033287655123  
19.45                          0.599643347344209 51.5303157788277 0.456635137195903 124.497616259433 0.456635137195903 124.497616259433 0.80362835470574 3.4526856062611  
19.5                           0.636788919359415 38.1608716111559 0.425633466462407 116.641665742251 0.425633466462407 116.641665742252 0.827852716155541 2.15222031319865 
19.55                          0.669800814933606 25.677612013089  0.394824540287698 109.176805711849 0.394824540287697 109.176805711849 0.849430215568261 0.680811775058252 
19.6                           0.698889738817914 14.0130819538561 0.364893265179545 102.111434635382 0.364893265179545 102.111434635382 0.868228813012888 -0.896375999125199 
19.65                          0.724417656480666 3.10741496854645 0.336329279952759 95.4416706993552 0.33632927995276 95.4416706993553 0.884332376935397 -2.52930726970249 
19.7                           0.74680787421224 -7.09454382741555 0.309446220742639 89.1548403707932 0.30944622074264 89.1548403707933 0.897954361713281 -4.18176692490657 
19.75                          0.766486410960654 -16.6444727737142 0.284413497482193 83.2325571662899 0.284413497482194 83.2325571662899 0.909371244281551 -5.82892144713193 
19.8                           0.783848561485663 -25.5910021560275 0.261290819946   77.6531765873828 0.261290819946   77.6531765873829 0.918877033696948 -7.45469804102679 
19.85                          0.799243327568131 -33.9798101829469 0.240059751631896 72.3936086661866 0.240059751631897 72.3936086661866 0.926755471092994 -9.04944484821366 
19.9                           0.812969201968372 -41.853623341591 0.220649778256316 67.4305713014173 0.220649778256317 67.4305713014172 0.93326518809838 -10.6080347443855 
19.95                          0.825276375895931 -49.2522230922276 0.202958410900852 62.741402832513  0.202958410900852 62.7414028325129 0.938633462620874 -12.1284181575086 
20                             0.836372040932869 -56.2124924555899 0.186865895319048 58.304550115599  0.186865895319048 58.3045501155989 0.943055197720794 -13.6105632377527 
20.05                          0.846426742848017 -62.7685054128411 0.172245502249415 54.0998298416861 0.172245502249415 54.0998298416859 0.946694774516267 -15.0557033414741 
20.1                           0.855580653382235 -68.9516506822383 0.15897041729215 50.1085383192235 0.15897041729215 50.1085383192233 0.949689266513451 -16.4658161576463 
20.15                          0.863949210836829 -74.7907789266088 0.146918127676315 46.313464340169  0.146918127676315 46.3134643401688 0.952152106573274 -17.8432715434225 
20.2                           0.87162792739488 -80.3123634564946 0.135973029054099 42.698843146692  0.135973029054099 42.6988431466918 0.954176700507095 -19.1905992240374 
20.25                          0.878696350009999 -85.5406665517548 0.126027803924907 39.2502770819739 0.126027803924907 39.2502770819736 0.955839734242564 -20.510340021349 
20.3                           0.885221252831184 -90.4979056052802 0.11698397698422 35.9546396315885 0.116983976984219 35.9546396315883 0.957204071912833 -21.8049543317012 
20.35                          0.891259173809683 -95.2044150480394 0.108751937055886 32.799973436137  0.108751937055886 32.7999734361368 0.958321226453149 -23.0767692216074 
20.4                           0.896858412613978 -99.6788013825246 0.101250628044767 29.7753887375274 0.101250628044767 29.7753887375272 0.959233427745599 -24.3279511287122 
20.45                          0.902060596987851 -103.938089673334 0.0944070475832501 26.8709660127924 0.0944070475832499 26.8709660127922 0.959975332754187 -25.5604951905188 
20.5                           0.906901909108965 -107.997860587007 0.0881556464655507 24.0776648044098 0.0881556464655506 24.0776648044096 0.960575427970425 -26.776225075141 
20.55                          0.911414047026184 -111.872377603396 0.0824376899407683 21.3872396564305 0.082437689940768 21.3872396564303 0.961057173243687 -27.9767991803389 
20.6                           0.915624981101721 -115.574704391352 0.0772006197619093 18.7921633911522 0.0772006197619091 18.7921633911521 0.961439931456191 -29.1637204457842 
20.65                          0.919559552423589 -119.116812593881 0.0723974407406676 16.2855575624339 0.0723974407406673 16.2855575624338 0.961739722638303 -30.3383479701913 
20.7                           0.923239949538378 -122.509680433593 0.0679861453553633 13.8611296996241 0.0679861453553631 13.861129699624  0.961969835139414 -31.5019092701562 
20.75                          0.926686091401742 -125.763382651627 0.06392918319972 11.5131168450521 0.0639291831997198 11.5131168450521 0.962141320930285 -32.655512453788 
20.8                           0.92991593784184 -128.887172349861 0.060192977674415 9.23623484547105 0.0601929776744149 9.23623484547105 0.962263397245465 -33.8001578744676 
20.85                          0.932945743742782 -131.889555330094 0.0567474895595649 7.02563285628612 0.0567474895595647 7.02563285628612 0.962343772633389 -34.9367490236005 
20.9                           0.935790269270401 -134.778357524823 0.0535658254396058 4.87685253932947 0.0535658254396057 4.87685253932954 0.962388912031965 -36.0661025474317 
20.95                          0.938462955515614 -137.560786099392 0.0506238880185221 2.78579146929583 0.0506238880185219 2.7857914692959  0.962404252653719 -37.1889573535498 
21                             0.940976072704268 -140.24348478015 0.0479000649124184 0.748670303913802 0.0479000649124182 0.748670303913863 0.962394380159335 -38.3059828225317 
21.05                          0.943340846444248 -142.832583931598 0.0453749523664445 -1.23799668565472 0.0453749523664445 -1.23799668565462 0.962363172735551 -39.417786169491 
21.1                           0.945567566216892 -145.333745870434 0.0430311103974704 -3.17742808724706 0.0430311103974702 -3.17742808724695 0.962313919194557 -40.5249190160958 
21.15                          0.947665679367471 -147.752205867707 0.0408528460341588 -5.0725991478644 0.0408528460341588 -5.07259914786423 0.96224941600968 -41.6278832406432 
21.2                           0.949643873130764 -150.092809253698 0.0388260215599118 -6.92626319126877 0.0388260215599117 -6.92626319126862 0.962172047239166 -42.7271361752585 
21.25                          0.951510146683671 -152.360045004412 0.0369378849272912 -8.74097091070645 0.0369378849272912 -8.74097091070628 0.962083850519318 -43.8230952173648 
21.3                           0.953271874803438 -154.558076154472 0.0351769197829998 -10.5190877656355 0.0351769197829998 -10.5190877656353 0.961986571691584 -44.9161419186904 
21.35                          0.954935864394335 -156.690767349132 0.0335327128066797 -12.2628096855749 0.0335327128066797 -12.2628096855747 0.961881710134666 -46.0066256101921 
21.4                           0.956508404903168 -158.76170981824 0.0319958363166643 -13.9741772612642 0.0319958363166643 -13.974177261264 0.961770556477195 -47.0948666159724 
21.45                          0.957995313456456 -160.774244027418 0.0305577443270844 -15.6550885829781 0.0305577443270845 -15.655088582978 0.96165422404938 -48.1811591039457 
21.5                           0.959401975405989 -162.731480236462 0.0292106804515224 -17.3073108678396 0.0292106804515224 -17.3073108678395 0.961533675177134 -49.2657736158914 
21.55                          0.960733380854599 -164.636317171936 0.0279475962384243 -18.9324910020482 0.0279475962384243 -18.9324910020481 0.961409743217238 -50.3489593147479 
21.6                           0.961994157642917 -166.491459000001 0.0267620786933622 -20.532165109881 0.0267620786933623 -20.5321651098809 0.961283151066767 -51.4309459826194 
21.65                          0.963188601204963 -168.299430766645 0.0256482858941811 -22.1077672489003 0.0256482858941811 -22.1077672489002 0.961154526746545 -52.5119457990003 
21.7                           0.964320701641455 -170.06259245539 0.024600889738566 -23.6606373198303 0.024600889738566 -23.6606373198303 0.961024416550374 -53.5921549251725 
21.75                          0.965394168311553 -171.783151797213 0.0236150249812183 -25.192028269878 0.0236150249812184 -25.192028269878 0.960893296164141 -54.6717549175778 
21.8                           0.966412452204079 -173.463175953628 0.0226862438212484 -26.7031126597046 0.0226862438212485 -26.7031126597046 0.96076158008773 -55.7509139901756 
21.85                          0.967378766316149 -175.104602181476 0.0218104753911171 -28.194988656684 0.0218104753911171 -28.1949886566841 0.960629629634628 -56.8297881433432 
21.9                           0.968296104239381 -176.709247576909 0.0209839895779474 -29.6686855103796 0.0209839895779474 -29.6686855103797 0.96049775973678 -57.9085221747166 
21.95                          0.969167257130258 -178.278817986087 0.0202033646775883 -31.1251685602376 0.0202033646775883 -31.1251685602378 0.960366244743467 -58.987250585486 
22                             0.969994829221127 -179.814916161244 0.0194654584426659 -32.5653438202342 0.0194654584426659 -32.5653438202344 0.96023532337123 -60.0660983940017 
22.05                          0.970781252010933 178.680950767211 0.0187673821390605 -33.9900621805479 0.0187673821390605 -33.9900621805481 0.960105202935719 -61.1451818671095 
22.1                           0.971528797259798 177.207364438992 0.0181064772717743 -35.4001232621826 0.0181064772717743 -35.4001232621828 0.959976062974817 -62.2246091783674 
22.15                          0.972239588898457 175.762988975438 0.0174802946818274 -36.7962789567883 0.0174802946818274 -36.7962789567887 0.959848058354648 -63.3044810011988 
22.2                           0.972915613952059 174.346565202734 0.0168865757514089 -38.1792366806477 0.0168865757514088 -38.1792366806481 0.959721321935326 -64.384891044074 
22.25                          0.973558732567778 172.956905340467 0.0163232354856388 -39.5496623688788 0.0163232354856387 -39.5496623688793 0.959595966861147 -65.4659265339704 
22.3                           0.974170687226718 171.592888113686 0.0157883472665591 -40.9081832333085 0.015788347266559 -40.908183233309 0.959472088529749 -66.5476686536325 
22.35                          0.974753111212682 170.253454250743 0.0152801290988485 -42.2553903051446 0.0152801290988485 -42.2553903051451 0.959349766286367 -67.6301929375037 
22.4                           0.975307536403342 168.937602332847 0.0147969311876905 -43.5918407815078 0.0147969311876905 -43.5918407815082 0.959229064882181 -68.7135696306475 
22.45                          0.975835400443034 167.644384964554 0.0143372247075866 -44.9180601930308 0.0143372247075866 -44.9180601930312 0.959110035729952 -69.7978640144788 
22.5                           0.976338053350801 166.372905237344 0.0138995916370326 -46.2345444080706 0.0138995916370325 -46.2345444080711 0.958992717985119 -70.8831367026954 
22.55                          0.976816763612257 165.122313461123 0.0134827155481427 -47.5417614876011 0.0134827155481426 -47.5417614876017 0.958877139476415 -71.9694439104235 
22.6                           0.977272723799326 163.891804140802 0.0130853732527689 -48.8401534035138 0.0130853732527688 -48.8401534035142 0.958763317506555 -73.056837699255 
22.65                          0.977707055757857 162.680613177299 0.0127064272176341 -50.1301376318669 0.012706427217634 -50.1301376318674 0.958651259540595 -74.1453662005661 
22.7                           0.978120815399424 161.488015274194 0.0123448186706629 -51.4121086315427 0.0123448186706628 -51.4121086315431 0.95854096379708 -75.2350738192435 
22.75                          0.978514997130372 160.313321532988 0.0119995613292222 -52.6864392178108 0.0119995613292222 -52.6864392178112 0.958432419754981 -76.3260014197245 
22.8                           0.978890537948136 159.15587722152  0.0116697356885108 -53.9534818394237 0.0116697356885108 -53.9534818394241 0.958325608587645 -77.4181864960499 
22.85                          0.979248321232228 158.015059701423 0.0113544838149883 -55.2135697670902 0.0113544838149882 -55.2135697670905 0.95822050353343 -78.5116633274578 
22.9                           0.979589180254808 156.890276501841 0.0110530045956221 -56.4670182004611 0.011053004595622 -56.4670182004612 0.958117070211454 -79.6064631208839 
22.95                          0.979913901433588 155.780963527718 0.0107645493989395 -57.7141253001283 0.0107645493989395 -57.7141253001284 0.958015266889747 -80.702614141601 
23                             0.980223227347813 154.686583392014 0.0104884181084926 -58.9551731505617 0.0104884181084926 -58.9551731505617 0.957915044712136 -81.8001418331024 
