! Touchstone file exported from HFSS 3D Layout Design 2026.1.0
!        File:           D:/Work/SIM/ADS_AUTO_SIM/projects/RFSOC_RF/TX_Fillter.aedt
!        Generated:      03:44:56 AM Aug 31, 2026
!        Design:         TX_BAND1_MCFIL_R40_CNN018
!        Project:        TX_Fillter
!
# GHz S MA R 50.000000
! Terminal data exported
! Port[1] = Port1
! Port[2] = Port2
14                             0.973473829502568 -163.056669179465 0.00366512967689996 -176.48679977177 0.00366512967689996 -176.48679977177 0.974282067516322 -161.337171659931 
14.05                          0.972985943086821 -163.934528872683 0.00373916526947072 -176.839938335585 0.00373916526947071 -176.839938335586 0.973807293736692 -162.194396379339 
14.1                           0.972482627936919 -164.818452343982 0.003816875454553 -177.171745906485 0.00381687545455301 -177.171745906485 0.973317218318604 -163.057444475833 
14.15                          0.971963116246593 -165.708628269902 0.00389855777585435 -177.481828077112 0.00389855777585433 -177.481828077112 0.972811061023887 -163.926501230451 
14.2                           0.971426588600898 -166.605255323825 0.00398453952800615 -177.769839769215 0.00398453952800616 -177.769839769216 0.972287987820952 -164.80176195787 
14.25                          0.970872169615129 -167.508542838611 0.00407518107405685 -178.035494377953 0.00407518107405686 -178.035494377953 0.97174710622228 -165.683432689368 
14.3                           0.970298923127369 -168.418711522732 0.00417087955803437 -178.27857381874 0.00417087955803437 -178.27857381874 0.971187460132988 -166.571730912641 
14.35                          0.969705846890759 -169.335994235071 0.00427207306198159 -178.498939487724 0.00427207306198161 -178.498939487724 0.970608024150059 -167.466886374134 
14.4                           0.969091866703986 -170.26063682416 0.00437924526350438 -178.696544128523 0.00437924526350439 -178.696544128523 0.970007697243217 -168.369141950261 
14.45                          0.968455829909803 -171.192899038271 0.0044929306575439 -178.871444575347 0.00449293065754393 -178.871444575347 0.969385295738411 -169.278754594591 
14.5                           0.967796498181199 -172.13305551353 0.00461372041498912 -179.023815315758 0.00461372041498914 -179.023815315758 0.968739545513203 -170.195996368943 
14.55                          0.967112539503029 -173.081396848066 0.00474226896112918 -179.153962785299 0.00474226896112917 -179.153962785299 0.968069073299753 -171.12115556732 
14.6                           0.966402519243097 -174.038230771154 0.00487930136911097 -179.262340271408 0.00487930136911097 -179.262340271408 0.967372396975142 -172.054537942683 
14.65                          0.965664890190527 -175.003883417408 0.00502562167788505 -179.349563266093 0.00502562167788508 -179.349563266093 0.96664791470008 -172.996468047837 
14.7                           0.964897981420295 -175.978700717298 0.00518212226104566 -179.416425067011 0.0051821222610457 -179.416425067011 0.965893892745051 -173.947290703138 
14.75                          0.964099985820462 -176.963049916668 0.00534979439305733 -179.463912386485 0.00534979439305735 -179.463912386484 0.965108451816967 -174.907372605345 
14.8                           0.96326894609236 -177.957321239538 0.00552974018328573 -179.493220689839 0.00552974018328576 -179.493220689838 0.964289551668744 -175.877104093846 
14.85                          0.962402739002771 -178.961929710267 0.0057231860768429 -179.505768950867 0.00572318607684292 -179.505768950867 0.96343497373774 -176.856901092599 
14.9                           0.961499057630248 -179.977317153245 0.00593149815551772 -179.5032134865  0.00593149815551776 -179.503213486499 0.962542301515707 -177.847207248629 
14.95                          0.960555391303698 178.996045609351 0.00615619951320952 -179.4874605183  0.00615619951320952 -179.4874605183  0.961608898301167 -178.848496290719 
15                             0.959569002878849 177.957656338503 0.0063989900297881 -179.460677108981 0.00639899002978813 -179.460677108981 0.960631881923269 -179.86127463523 
15.05                          0.958536902935387 176.906978711674 0.00666176892695177 -179.425300141192 0.0066617689269518 -179.425300141192 0.959608095951835 179.113915730299 
15.1                           0.957455820401996 175.843439378629 0.00694666056160457 -179.384043046601 0.00694666056160457 -179.384043046601 0.958534076818821 178.076494050781 
15.15                          0.956322169025575 174.766424705846 0.00725604399914989 -179.33990005804 0.00725604399914989 -179.33990005804 0.957406016168228 177.025837254467 
15.2                           0.955132008990856 173.67527717099  0.00759258701408712 -179.29614784737 0.00759258701408716 -179.29614784737 0.956219717620346 175.961276005386 
15.25                          0.953881002863175 172.569291363649 0.00795928529229863 -179.256344526493 0.00795928529229862 -179.256344526493 0.954970546976571 174.882090305003 
15.3                           0.952564364864646 171.447709542549 0.00835950776320417 -179.224326126478 0.00835950776320415 -179.224326126479 0.953653374696224 173.787504583184 
15.35                          0.951176802295497 170.309716692649 0.00879704917642531 -179.204200826482 0.00879704917642529 -179.204200826481 0.952262509237946 172.676682209766 
15.4                           0.949712447668952 169.154435017886 0.00927619126402411 -179.200341374531 0.0092761912640241 -179.200341374531 0.950791619564648 171.548719348073 
15.45                          0.94816477982866 167.980917796738 0.00980177410480466 -179.217376319951 0.00980177410480466 -179.217376319951 0.949233644748525 170.402638060267 
15.5                           0.946526531947984 166.788142518252 0.0103792796428574 -179.260180854905 0.0103792796428573 -179.260180854905 0.94758068816371 169.237378561526 
15.55                          0.944789583852494 165.575003205853 0.0110149297225415 -179.33386823352 0.0110149297225415 -179.33386823352 0.945823893195933 168.051790505533 
15.6                           0.942944835537465 164.340301825121 0.0117158015039991 -179.44378289523 0.0117158015039991 -179.44378289523 0.943953296702089 166.844623167728 
15.65                          0.940982058041793 163.082738660403 0.0124899637389694 -179.595496560724 0.0124899637389694 -179.595496560724 0.941957655580464 165.614514375384 
15.7                           0.93888971695055 161.800901534038 0.0133466381433882 -179.794808692936 0.0133466381433882 -179.794808692936 0.939824240716494 164.359978015355 
15.75                          0.936654762682242 160.493253732458 0.0142963910347579 179.952247175585 0.0142963910347579 179.952247175585 0.937538591187525 163.079389932165 
15.8                           0.934262380312088 159.15812049739  0.0153513615500934 179.6393896479   0.0153513615500934 179.6393896479   0.935084219863435 161.770972012834 
15.85                          0.931695689910759 157.793673940777 0.0165255341748696 179.260066498943 0.0165255341748696 179.260066498943 0.932442259325997 160.432774243226 
15.9                           0.928935386139867 156.397916254187 0.0178350650552544 178.807420726627 0.0178350650552544 178.807420726628 0.929591034217738 159.062654518839 
15.95                          0.925959303016821 154.968661114919 0.019298673705487 178.274243656495 0.019298673705487 178.274243656495 0.92650554255465 157.658256008768 
16                             0.922741886189417 153.503513254614 0.0209381143384321 177.652912944644 0.0209381143384321 177.652912944644 0.923156823988081 156.216981918115 
16.05                          0.91925355056143 151.999846271308 0.0227787442221525 176.935313061827 0.0227787442221525 176.935313061827 0.919511187222829 154.735967592289 
16.1                           0.915459895474634 150.454778963653 0.0248502102718948 176.112735493626 0.0248502102718948 176.112735493626 0.915529261485221 153.212050090131 
16.15                          0.911320742660208 148.865150794867 0.0271872795646846 175.175755443132 0.0271872795646847 175.175755443132 0.911164827742516 151.641735675227 
16.2                           0.906788953634737 147.227497630593 0.0298308445713786 174.114081267698 0.0298308445713787 174.114081267698 0.906363373957196 150.021166222563 
16.25                          0.901808973067669 145.538029759649 0.0328291394286153 172.916372230662 0.0328291394286154 172.916372230662 0.901060304758455 148.346086449071 
16.3                           0.896315033133245 143.792615590341 0.0362392089845672 171.570019444309 0.0362392089845672 171.570019444309 0.895178719552719 146.61181537437  
16.35                          0.890228941905911 141.986776618511 0.0401286765060685 170.060884220044 0.0401286765060686 170.060884220044 0.888626654980539 144.813227860922 
16.4                           0.88345736877344 140.115702762327 0.0445778565981617 168.37298762576  0.0445778565981617 168.37298762576  0.881293669925212 142.944756050398 
16.45                          0.875888536639806 138.174302701334 0.0496822529078198 166.488145257184 0.04968225290782 166.488145257184 0.87304663911421 141.000426941382 
16.5                           0.867388244505196 136.157312612676 0.0555554581048393 164.385542747467 0.0555554581048393 164.385542747467 0.863724625612528 138.973962752079 
16.55                          0.857795194438647 134.059500465628 0.0623324234559873 162.041251580016 0.0623324234559873 162.041251580016 0.853132744966542 136.858987501169 
16.6                           0.846915720603501 131.876024513552 0.0701729650564607 159.427693412945 0.0701729650564607 159.427693412945 0.841035056247927 134.649410256521 
16.65                          0.834518281010951 129.603037651567 0.0792651876852234 156.51307782524  0.0792651876852235 156.51307782524  0.82714679536417 132.340098688052 
16.7                           0.820328589983587 127.23867882744  0.0898281802196197 153.260868662592 0.0898281802196197 153.260868662592 0.811126842425011 129.928024738642 
16.75                          0.804027229514626 124.784663591883 0.102112791273283 149.629386221659 0.102112791273283 149.629386221659 0.792572423744295 127.41416942223  
16.8                           0.785253262053796 122.248778674416 0.1163984405648  145.571737313456 0.1163984405648  145.571737313456 0.771020062842689 124.806629371103 
16.85                          0.763620119435426 119.648683982319 0.13298270608438 141.036393987655 0.13298270608438 141.036393987655 0.745960225768405 122.125579775129 
16.9                           0.738754069909181 117.017466271822 0.152158965737699 135.968916830731 0.152158965737699 135.968916830731 0.716878452731586 119.410987443821 
16.95                          0.710370304505769 114.411195684386 0.174176248830391 130.315511288059 0.174176248830391 130.315511288058 0.683342916273808 116.734093832723 
17                             0.678404301167491 111.917904385324 0.199176204603389 124.029211074746 0.199176204603389 124.029211074746 0.645164980220485 114.213269303657 
17.05                          0.6432089211258  109.665180772945 0.227107606322833 117.079264438001 0.227107606322832 117.079264438001 0.602657733108611 112.032776741206 
17.1                           0.605796027401863 107.819028400222 0.257632511076627 109.463380776555 0.257632511076627 109.463380776555 0.556990097733922 110.456935070235 
17.15                          0.56802934273625 106.560159726679 0.290060009473864 101.220573676598 0.290060009473864 101.220573676598 0.510552549526479 109.818651380925 
17.2                           0.532573954960658 106.021559883521 0.323362144613894 92.4397868524252 0.323362144613894 92.4397868524252 0.467092693052164 110.44096442809  
17.25                          0.502371473119441 106.189591338698 0.356316636301637 83.2580634258132 0.356316636301637 83.2580634258133 0.431200983468281 112.449732341977 
17.3                           0.479621894117493 106.822953809442 0.38776264403353 73.8443242803293 0.38776264403353 73.8443242803293 0.406816946343365 115.53205732063  
17.35                          0.464748613375919 107.48450348112  0.41687423274377 64.3714803190121 0.41687423274377 64.3714803190121 0.395246494272146 118.894502503845 
17.4                           0.456110329429946 107.709333625078 0.443324228697637 54.9865921063031 0.443324228697637 54.986592106303  0.394274587303914 121.625727179488 
17.45                          0.450708604900889 107.185538811931 0.467272053214186 45.7901194195144 0.467272053214186 45.7901194195144 0.399350689256268 123.164851080017 
17.5                           0.445298732045966 105.81461049374  0.489211735322684 36.8297285521176 0.489211735322684 36.8297285521175 0.405679500473551 123.426450807208 
17.55                          0.437182188436899 103.657950369206 0.509772592127993 28.1066895265642 0.509772592127992 28.1066895265641 0.409569427391659 122.622954844285 
17.6                           0.424473438257109 100.855927004564 0.529549609323161 19.5889512887131 0.52954960932316 19.5889512887131 0.408723157422583 121.065944866744 
17.65                          0.406032174591453 97.5753383218949 0.548993895435545 11.2253883859449 0.548993895435544 11.2253883859449 0.401992135034836 119.06668983875  
17.7                           0.381298381223365 93.9940234862703 0.568358479030247 2.95811973679727 0.568358479030246 2.95811973679725 0.389052128750515 116.916465996476 
17.75                          0.350164413478928 90.3147410162285 0.587683008448658 -5.26802728390865 0.587683008448657 -5.26802728390865 0.370188929955067 114.905770759254 
17.8                           0.312930242009028 86.8060106307356 0.606804232764682 -13.4987046093751 0.606804232764681 -13.4987046093751 0.346228519666953 113.35854452782  
17.85                          0.270353545206986 83.8852686739964 0.625386605543846 -21.7654320512653 0.625386605543845 -21.7654320512653 0.318593478155587 112.668844958909 
17.9                           0.223826819195336 82.2979373388504 0.642972379937428 -30.0829389423011 0.642972379937427 -30.082938942301 0.289451267395434 113.321733045416 
17.95                          0.175835511732066 83.5412101236148 0.659050556395016 -38.4484959225682 0.659050556395015 -38.4484959225682 0.261880984357843 115.84763659904  
18                             0.131274319863992 90.829795303363  0.673139161968564 -46.8433924753261 0.673139161968563 -46.8433924753261 0.239845559559927 120.60146564805  
18.05                          0.100863639141343 109.544279478017 0.684868201702183 -55.236549378042 0.684868201702182 -55.2365493780419 0.227499374590323 127.295761243514 
18.1                           0.100656223134184 136.657939616724 0.694045740386958 -63.5898414139803 0.694045740386958 -63.5898414139802 0.227496194062431 134.653899749214 
18.15                          0.129275608854231 154.685236064182 0.700691147856595 -71.8642401701513 0.700691147856595 -71.8642401701512 0.239358908449698 140.948286124211 
18.2                           0.169814094481337 161.37257526997  0.705028342701768 -80.0256316136463 0.705028342701768 -80.0256316136462 0.259835969215835 145.084058963571 
18.25                          0.212049532607232 162.057981448112 0.707444006291777 -88.0492822825262 0.707444006291778 -88.0492822825262 0.284831558293679 146.923416715646 
18.3                           0.251712286077592 159.816983709101 0.708425132301229 -95.9223736596668 0.70842513230123 -95.9223736596668 0.310875010231505 146.851247953638 
18.35                          0.286922687587835 156.052197234826 0.708492939619711 -103.644578255801 0.708492939619711 -103.644578255801 0.335531234053234 145.350137627464 
18.4                           0.316831357571872 151.430858738568 0.708146457216702 -111.227079692434 0.708146457216703 -111.227079692434 0.357267939274163 142.823381780659 
18.45                          0.341114819623347 146.290152107318 0.707822378822206 -118.69062661911 0.707822378822206 -118.69062661911 0.375207116324843 139.564009534068 
18.5                           0.359747458631147 140.805713117408 0.707871641979145 -126.063179321031 0.707871641979145 -126.063179321031 0.38891147529549 135.771974335243 
18.55                          0.372879778656663 135.067165142062 0.708549477401557 -133.377555564243 0.708549477401557 -133.377555564243 0.398231485985098 131.578721209927 
18.6                           0.38076968573678 129.114917017654 0.710014489319931 -140.669306065231 0.710014489319931 -140.669306065231 0.403205062538674 127.067584509668 
18.65                          0.383746720210803 122.959300514341 0.712332830591798 -147.974909818864 0.712332830591798 -147.974909818864 0.403997295255732 122.2883826019   
18.7                           0.382199379713164 116.590839756477 0.715484781777743 -155.330296035484 0.715484781777743 -155.330296035484 0.400869372129598 117.267044828254 
18.75                          0.376579255412881 109.985574257704 0.719372354777907 -162.769668613694 0.719372354777907 -162.769668613694 0.394168123043964 112.01130411645  
18.8                           0.367417159227795 103.107283792673 0.72382754441206 -170.324616391192 0.72382754441206 -170.324616391192 0.384329308570106 106.513140197966 
18.85                          0.355347034493335 95.9075770436879 0.728621366474385 -178.023520555068 0.728621366474385 -178.023520555068 0.371888842070858 100.748281937973 
18.9                           0.341133674236482 88.3245823635211 0.733473769186675 174.108698482675 0.733473769186675 174.108698482675 0.357496915735404 94.6728671684687 
18.95                          0.325700375991815 80.2813580141946 0.738063883130693 166.050437815785 0.738063883130693 166.050437815785 0.34193106983415 88.2175077637062 
19                             0.310152671300317 71.6862815737075 0.742039001722262 157.782836871736 0.742039001722263 157.782836871736 0.326106277990898 81.2798455935865 
19.05                          0.295793594416449 62.4396523743497 0.745019481020388 149.288809685082 0.745019481020388 149.288809685082 0.311083433677271 73.7186934361355 
19.1                           0.284122971180311 52.4526846648969 0.746595988672489 140.551861692911 0.74659598867249 140.551861692911 0.298081003209306 65.3563813078594 
19.15                          0.276806028804486 41.6836176155443 0.746316018428119 131.555063635898 0.74631601842812 131.555063635898 0.28849344782063 56.0001040878819 
19.2                           0.275587390255906 30.1847052561878 0.743659231907338 122.280782497241 0.743659231907339 122.280782497241 0.283905651675587 45.4934645210072 
19.25                          0.282127924534913 18.1324302178116 0.738006816457734 112.711972862791 0.738006816457735 112.711972862791 0.286059525559785 33.7963672423437 
19.3                           0.297770780578509 5.80251665165682 0.728618964223439 102.835906921274 0.728618964223441 102.835906921274 0.296696707766508 21.0584550754526 
19.35                          0.323287248761701 -6.51503105720511 0.714645468604721 92.650984272363  0.714645468604722 92.650984272363  0.317227647496537 7.62220383654011 
19.4                           0.35866478963298 -18.605385619652 0.695202114068675 82.1764517322918 0.695202114068677 82.1764517322918 0.348295249336755 -6.07547179025471 
19.45                          0.402971931236918 -30.3587322212767 0.669538730814839 71.4632803232969 0.66953873081484 71.4632803232969 0.389416896582128 -19.6408070946776 
19.5                           0.454331772838212 -41.7354783428271 0.637289464395106 60.6023674185556 0.637289464395107 60.6023674185556 0.438873444620049 -32.8003389914279 
19.55                          0.510069768220781 -52.7113515893543 0.598731821110524 49.7249043877179 0.598731821110524 49.7249043877179 0.493906469393958 -45.3912357278011 
19.6                           0.567085806946055 -63.2429031201947 0.55492531530828 38.9911284561957 0.55492531530828 38.9911284561957 0.551189675325884 -57.3143182077381 
19.65                          0.622387271134383 -73.2643557592259 0.507618053562176 28.5685459499388 0.507618053562175 28.5685459499388 0.607450934962332 -68.4995529993548 
19.7                           0.673595149991461 -82.7047730662254 0.45892359675712 18.6065590345956 0.45892359675712 18.6065590345956 0.660040263419028 -78.8967043066309 
19.75                          0.719230112313952 -91.5087226688242 0.410903554572985 9.21664866036943 0.410903554572985 9.21664866036949 0.707252165701785 -88.4797495759743 
19.8                           0.758713989503581 -99.6490122638214 0.365230310901152 0.463900226804271 0.365230310901152 0.46390022680433 0.748342068755838 -97.2513846887881 
19.85                          0.792167074260184 -107.128734145858 0.323028301648794 -7.63031142414512 0.323028301648794 -7.63031142414499 0.783322533983867 -105.241581860836 
19.9                           0.82013720262555 -113.975749099669 0.284884169761082 -15.0787748945343 0.284884169761082 -15.0787748945342 0.812681866380226 -112.501010357349 
19.95                          0.843363067515493 -120.234232628182 0.250955858764731 -21.9169265744001 0.250955858764731 -21.9169265744   0.837133854776273 -119.092621217915 
20                             0.862612742034099 -125.956646382132 0.221109805903356 -28.1926381653697 0.221109805903357 -28.1926381653696 0.857443806171292 -125.084085510536 
20.05                          0.87859440752728 -131.197649898097 0.195042830799568 -33.9586292085881 0.195042830799568 -33.958629208588 0.874329675655176 -130.542284721655 
20.1                           0.891918783397622 -136.010162500226 0.172372556902146 -39.267525228171 0.172372556902147 -39.2675252281709 0.888417965435225 -135.529927388367 
20.15                          0.903092162373421 -140.443181114201 0.152696574190998 -44.1690153361704 0.152696574190999 -44.1690153361703 0.900232726482027 -140.103848504344 
20.2                           0.912524630535026 -144.540819687048 0.13562707948826 -48.7084636036584 0.13562707948826 -48.7084636036584 0.910201509366431 -144.314447256041 
20.25                          0.920544095349379 -148.342107056749 0.120808631813939 -52.9264332568858 0.120808631813939 -52.9264332568858 0.918668257873019 -148.205805902831 
20.3                           0.927411172702579 -151.88120826721 0.107925297369708 -56.8587358860109 0.107925297369709 -56.8587358860108 0.925907739448283 -151.816166169773 
20.35                          0.93333269849622 -155.187851643317 0.0967016390871044 -60.5367527204143 0.0967016390871047 -60.5367527204144 0.932138977357014 -155.178557526868 
20.4                           0.938473103454376 -158.287831037633 0.0869004467034541 -63.9878740672227 0.0869004467034544 -63.9878740672226 0.937536738176639 -158.321457639689 
20.45                          0.942963603061517 -161.203510636691 0.0783189722429492 -67.2359689740643 0.0783189722429493 -67.2359689740644 0.942240918745763 -161.269421502   
20.5                           0.946909450340909 -163.954295653067 0.0707846859465201 -70.3018384034013 0.0707846859465203 -70.3018384034013 0.946364020774272 -164.043649947012 
20.55                          0.950395585456192 -166.557053282876 0.0641510991026152 -73.2036297415664 0.0641510991026152 -73.2036297415665 0.949997016423231 -166.662487747542 
20.6                           0.953491007666039 -169.026479970864 0.0582939204453471 -75.957204415509 0.0582939204453471 -75.957204415509 0.953213916236546 -169.141851905042 
20.65                          0.956252150752294 -171.375417041938 0.053107652708169 -78.5764579079236 0.053107652708169 -78.5764579079237 0.95607531548124 -171.495595726474 
20.7                           0.958725490519279 -173.615119516306 0.0485026487634293 -81.0735952042335 0.0485026487634292 -81.0735952042336 0.95863114715925 -173.735816247819 
20.75                          0.960949564152093 -175.755483881243 0.0444026026124521 -83.4593663062462 0.0444026026124521 -83.4593663062464 0.960922823399635 -175.873112899153 
20.8                           0.962956540146332 -177.805240604878 0.0407424308725693 -85.7432668822382 0.0407424308725693 -85.7432668822382 0.962984906762309 -177.916804840452 
20.85                          0.964773444677984 -179.77211673739 0.0374664942794325 -87.9337089593212 0.0374664942794325 -87.9337089593212 0.964846420325151 -179.8751135894  
20.9                           0.966423124768388 178.337026675216 0.0345271096125902 -90.0381661231942 0.0345271096125902 -90.0381661231944 0.966531879747879 178.244683340622 
20.95                          0.967925009108977 176.516078296066 0.03188330666309 -92.0632971497724 0.0318833066630899 -92.0632971497724 0.968062110702578 176.436122948396 
21                             0.969295712662835 174.759577873934 0.0294997903453389 -94.0150514456146 0.0294997903453388 -94.0150514456145 0.969454899957235 174.693447343933 
21.05                          0.970549520055241 173.062632399872 0.0273460737244378 -95.8987591646848 0.0273460737244377 -95.8987591646849 0.970725516948148 173.011511069586 
21.1                           0.971698774418097 171.42084463334  0.0253957530475909 -97.7192084164347 0.0253957530475908 -97.7192084164349 0.97188713401849 171.385702355453 
21.15                          0.972754192076596 169.830251994854 0.0236259006040149 -99.48071158904  0.0236259006040149 -99.4807115890399 0.972951166954383 169.811876007164 
21.2                           0.973725118738023 168.287274163452 0.0220165553277524 -101.187162479247 0.0220165553277522 -101.187162479248 0.973927552494334 168.286296026521 
21.25                          0.974619739269989 166.788668000684 0.0205502945221106 -102.842085640939 0.0205502945221105 -102.84208564094 0.974824975727026 166.80558639669  
21.3                           0.975445250446252 165.331488657095 0.0192118729821153 -104.448679131331 0.0192118729821152 -104.44867913133 0.975651057428558 165.366688735582 
21.35                          0.976208003975082 163.913055910305 0.0179879181952102 -106.009851639885 0.0179879181952101 -106.009851639885 0.976412509201032 163.966825743828 
21.4                           0.976913625546786 162.530924942773 0.0168666722841103 -107.528254824297 0.0168666722841102 -107.528254824297 0.977115262593598 162.603469556398 
21.45                          0.977567114423638 161.182860898368 0.0158377729873556 -109.006311544706 0.0158377729873555 -109.006311544706 0.977764577090789 161.274314256557 
21.5                           0.97817292715803 159.866816664741 0.0148920673127981 -110.446240577002 0.014892067312798 -110.446240577002 0.978365130848418 159.977251933771 
21.55                          0.978735048296706 158.580913417623 0.0140214525984337 -111.850078294623 0.0140214525984336 -111.850078294623 0.97892109727511 158.710351768258 
21.6                           0.979257050360771 157.323423536822 0.0132187406168907 -113.219697732372 0.0132187406168906 -113.219697732372 0.979436209945434 157.471841708162 
21.65                          0.979742144945414 156.09275556474  0.0124775411003948 -114.556825382677 0.0124775411003947 -114.556825382677 0.979913817849288 156.260092374178 
21.7                           0.980193226431766 154.887440928922 0.0117921616716916 -115.863056022222 0.0117921616716915 -115.863056022222 0.980356932601832 155.07360288345  
21.75                          0.980612909524809 153.70612219239  0.0111575216673933 -117.139865823   0.0111575216673933 -117.139865822999 0.980768268936282 153.91098833191  
21.8                           0.981003561609321 152.547542630727 0.0105690777532738 -118.388623965217 0.0105690777532737 -118.388623965218 0.981150279560956 152.770968713647 
21.85                          0.981367330738353 151.41053696444  0.0100227595722193 -119.610602938689 0.0100227595722193 -119.610602938689 0.981505185268851 151.652359088846 
21.9                           0.981706169925921 150.294023099838 0.00951491394791779 -120.806987693517 0.00951491394791774 -120.806987693517 0.981835001032545 150.55406083938  
21.95                          0.982021858300246 149.196994752568 0.00904225640156069 -121.97888377904 0.00904225640156063 -121.97888377904 0.98214155869148 149.475053874331 
22                             0.982316019580296 148.118514845513 0.00860182893348297 -123.127324591571 0.00860182893348291 -123.127324591571 0.982426526736534 148.414389667193 
22.05                          0.982590138262063 147.05770958767  0.00819096318379865 -124.253277835771 0.00819096318379861 -124.253277835771 0.982691427613471 147.371185023006 
22.1                           0.982845573838543 146.013763153263 0.00780724822144867 -125.357651291159 0.00780724822144863 -125.357651291159 0.982937652898604 146.344616487613 
22.15                          0.983083573326081 144.985912891098 0.00744850232432539 -126.441297963839 0.00744850232432531 -126.441297963839 0.983166476643899 145.333915323065 
22.2                           0.983305282327326 143.97344500334  0.00711274820810708 -127.505020693721 0.00711274820810701 -127.505020693721 0.983379067142402 144.338362983321 
22.25                          0.983511754825965 142.97569064075  0.00679819124124752 -128.549576279052 0.00679819124124745 -128.549576279053 0.983576497326487 143.357287032949 
22.3                           0.9837039618792  141.992022368141 0.00650320025079213 -129.575679172788 0.00650320025079206 -129.575679172788 0.983759753979485 142.390057458954 
22.35                          0.983882799349551 141.021850959589 0.00622629058043745 -130.584004798937 0.00622629058043744 -130.584004798936 0.983929745914628 141.436083332143 
22.4                           0.984049094797168 140.064622487939 0.00596610911025667 -131.57519253152 0.00596610911025663 -131.57519253152 0.984087311252878 140.494809779886 
22.45                          0.984203613636659 139.119815677421 0.00572142098820783 -132.549848373883 0.0057214209882078 -132.549848373883 0.984233223912527 139.565715236831 
22.5                           0.984347064647993 138.186939491945 0.00549109785811553 -133.508547371877 0.00549109785811551 -133.508547371877 0.984368199407575 138.648308944147 
22.55                          0.984480104918758 137.265530934846 0.00527410739824555 -134.451835790613 0.00527410739824551 -134.451835790613 0.98449290003859 137.742128671421 
22.6                           0.984603344284714 136.35515303869  0.00506950400969593 -135.380233081223 0.00506950400969587 -135.380233081223 0.984607939548381 136.846738638331 
22.65                          0.984717349326693 135.455393026169 0.00487642051528441 -136.294233661065 0.00487642051528436 -136.294233661065 0.9847138873052  135.961727615905 
22.7                           0.984822646974381 134.56586062528  0.00469406074798455 -137.194308528208 0.00469406074798453 -137.194308528208 0.984811272067945 135.086707189448 
22.75                          0.984919727761029 133.686186523818 0.004521692923728 -138.080906728695 0.00452169292372796 -138.080906728695 0.984900585380828 134.221310167265 
22.8                           0.985009048767635 132.816020949895 0.00435864370693935 -138.954456693   0.00435864370693933 -138.954456693   0.984982284638928 133.365189121045 
22.85                          0.985091036290313 131.955032366582 0.00420429288884016 -139.815367456236 0.00420429288884014 -139.815367456235 0.985056795860864 132.518015045339 
22.9                           0.985166088260501 131.102906270093 0.00405806860862397 -140.664029775008 0.00405806860862395 -140.664029775008 0.985124516200377 131.679476124894 
22.95                          0.985234576444063 130.259344082003 0.00391944305630425 -141.500817152344 0.00391944305630425 -141.500817152344 0.985185816224716 130.849276599846 
23                             0.985296848442272 129.424062126997 0.00378792860356782 -142.32608678078 0.00378792860356783 -142.32608678078 0.985241041984429 130.027135719771 
