! Touchstone file exported from HFSS 3D Layout Design 2026.1.0
!        File:           D:/Work/SIM/ADS_AUTO_SIM/projects/RFSOC_RF/TX_Fillter.aedt
!        Generated:      05:55:28 AM Aug 31, 2026
!        Design:         TX_BAND1_MCFIL_R57_CNN047
!        Project:        TX_Fillter
!
# GHz S MA R 50.000000
! Terminal data exported
! Port[1] = Port1
! Port[2] = Port2
14                             0.972626606887024 -165.417051064449 0.00375820510752616 -176.623969415253 0.0037582051075262 -176.623969415253 0.973821164949664 -161.421283492103 
14.05                          0.972122346128717 -166.312527525538 0.00383410500189508 -177.003275003843 0.00383410500189507 -177.003275003844 0.973345910469596 -162.291675380693 
14.1                           0.971602200527182 -167.214205170023 0.0039136993979913 -177.362239938691 0.0039136993979913 -177.362239938692 0.972855957889925 -163.167807325292 
14.15                          0.971065383649576 -168.122277701391 0.0039972817607526 -177.700509788713 0.00399728176075259 -177.700509788713 0.97235058569092 -164.049850812778 
14.2                           0.970511056569041 -169.036949134688 0.00408517431425909 -178.017777912873 0.00408517431425905 -178.017777912873 0.971829024175091 -164.937986408471 
14.25                          0.969938323473229 -169.958434478384 0.00417773117762024 -178.31379386028 0.00417773117762018 -178.31379386028 0.971290451416424 -165.832404357225 
14.3                           0.969346226829128 -170.886960471021 0.00427534186561701 -178.588372560019 0.00427534186561695 -178.588372560019 0.970733988797172 -166.73330523296 
14.35                          0.96873374205143 -171.822766377886 0.00437843519863526 -178.841404306041 0.0043784351986352 -178.84140430604 0.970158696082684 -167.640900641355 
14.4                           0.968099771614382 -172.766104853589 0.0044874836722747 -179.072865526202 0.00448748367227463 -179.072865526201 0.969563565977883 -168.555413980897 
14.45                          0.96744313853872 -173.717242877063 0.00460300834375691 -179.282830304892 0.00460300834375687 -179.282830304891 0.96894751810102 -169.477081268139 
14.5                           0.966762579175549 -174.676462766267 0.00472558430005631 -179.471482605597 0.00472558430005625 -179.471482605596 0.968309392301164 -170.406152033644 
14.55                          0.966056735197767 -175.644063280718 0.00485584678174596 -179.639129113241 0.00485584678174589 -179.639129113241 0.96764794123508 -171.342890295911 
14.6                           0.965324144696514 -176.620360820943 0.00499449804713883 -179.786212586682 0.00499449804713878 -179.786212586681 0.966961822106714 -172.287575621396 
14.65                          0.964563232264771 -177.605690735039 0.00514231507372193 -179.913325579837 0.00514231507372189 -179.913325579836 0.966249587457823 -173.240504279777 
14.7                           0.963772297932383 -178.600408743751 0.00530015820850317 179.97877564334  0.0053001582085031 179.978775643341 0.96550967488121 -174.201990504696 
14.75                          0.962949504795727 -179.60489249691 0.005468980896177 179.889157208115 0.00546898089617697 179.889157208115 0.964740395507876 -175.172367871518 
14.8                           0.962092865160575 179.380456724349 0.00564984063451851 179.816693982114 0.00564984063451846 179.816693982114 0.963939921095775 -176.15199080508 
14.85                          0.961200224987595 178.355212143319 0.00584391133081259 179.7600564496   0.00584391133081258 179.760056449601 0.963106269519823 -177.141236232075 
14.9                           0.960269246395527 177.31891944306  0.00605249726222803 179.717698395316 0.006052497262228 179.717698395317 0.962237288429793 -178.140505394637 
14.95                          0.959297387936308 176.271094520625 0.00627704887783398 179.687845698233 0.00627704887783396 179.687845698234 0.96133063680337 -179.150225843807 
15                             0.958281882307956 175.211221016709 0.00651918072161686 179.668486535252 0.00651918072161685 179.668486535253 0.960383764074874 179.829146365878 
15.05                          0.957219711113223 174.138747594164 0.00678069180580361 179.657363279696 0.0067806918058036 179.657363279696 0.959393886464243 178.797124256631 
15.1                           0.956107576202989 173.053084935245 0.00706358882375527 179.651966346641 0.00706358882375528 179.651966346642 0.958357960063956 177.753187255176 
15.15                          0.954941867060475 171.953602423351 0.00737011266372395 179.649530185095 0.00737011266372395 179.649530185095 0.95727265016107 176.696778236935 
15.2                           0.953718623582688 170.839624470375 0.00770276877137026 179.647031544559 0.00770276877137024 179.647031544559 0.956134296174611 175.627300251279 
15.25                          0.952433493495199 169.710426445395 0.00806436201315142 179.641190050911 0.00806436201315141 179.641190050911 0.954938871471229 174.544112887517 
15.3                           0.951081683490644 168.565230154305 0.00845803681820527 179.628471015139 0.0084580368182053 179.628471015139 0.953681937179723 173.446528235703 
15.35                          0.949657903004366 167.403198813025 0.00888732352769378 179.605090271155 0.00888732352769379 179.605090271155 0.952358588951749 172.333806389824 
15.4                           0.948156299324871 166.223431448929 0.00935619206328308 179.567020699716 0.00935619206328309 179.567020699716 0.950963395404392 171.205150433646 
15.45                          0.946570382472893 165.024956656114 0.00986911424736668 179.50999994955  0.00986911424736672 179.50999994955  0.949490326720787 170.059700841081 
15.5                           0.944892937959081 163.806725619961 0.010431136375247 179.429538719718 0.0104311363752469 179.429538719718 0.947932671565864 168.896529213576 
15.55                          0.94311592513166 162.56760431507  0.0110479639642538 179.32092882476  0.0110479639642538 179.32092882476  0.946282940080403 167.71463126646  
15.6                           0.941230358332858 161.306364768051 0.0117260609996974 179.17925013134  0.0117260609996974 179.179250131339 0.944532750228777 166.51291896453  
15.65                          0.939226167472539 160.021675263068 0.0124727664787114 178.999375335532 0.0124727664787114 178.999375335532 0.942672694169614 165.290211694585 
15.7                           0.937092033868545 158.712089353595 0.0132964316403469 178.7759714454   0.0132964316403468 178.7759714454   0.940692180562967 164.045226349223 
15.75                          0.934815196256986 157.376033529289 0.0142065819882213 178.503496743293 0.0142065819882213 178.503496743293 0.93857924778263 162.776566182803 
15.8                           0.93238122069263 156.011793373176 0.0152141090905766 178.176191922844 0.0152141090905766 178.176191922844 0.936320341817263 161.482708287928 
15.85                          0.929773726576857 154.617498033378 0.016331498218069 177.788064020511 0.016331498218069 177.788064020511 0.933900051154118 160.161989530856 
15.9                           0.926974059189307 153.191102828284 0.0175730991953855 177.332861681613 0.0175730991953854 177.332861681613 0.931300789062269 158.812590779894 
15.95                          0.923960896759872 151.730369809285 0.018955449449571 176.804040204596 0.0189554494495709 176.804040204596 0.928502411324282 157.432519266584 
16                             0.920709777177037 150.232846128561 0.0204976601931259 176.194714681573 0.0204976601931258 176.194714681573 0.925481754476245 156.019588942877 
16.05                          0.917192525736746 148.695840113224 0.0222218790447411 175.497599383856 0.0222218790447411 175.497599383856 0.92221207584585 154.571398750228 
16.1                           0.913376560715972 147.116395050491 0.024153845223699 174.704931314372 0.024153845223699 174.704931314372 0.918662371934312 153.085308817296 
16.15                          0.909224047808154 145.491260871875 0.0263235567982876 173.808375552623 0.0263235567982876 173.808375552623 0.914796545748714 151.558414780871 
16.2                           0.904690867381693 143.8168642351   0.0287660733255132 172.798909644806 0.0287660733255131 172.798909644806 0.910572386320723 149.987520726072 
16.25                          0.899725349955905 142.089278015653 0.0315224815022019 171.66668384357  0.0315224815022019 171.66668384357  0.905940314632753 148.369111739218 
16.3                           0.894266725202393 140.304192053466 0.0346410558978502 170.400853496558 0.0346410558978502 170.400853496558 0.900841839408653 146.699327874817 
16.35                          0.888243218462213 138.456888340636 0.0381786508809293 168.989379368268 0.0381786508809292 168.989379368268 0.895207653888451 144.973942637699 
16.4                           0.881569717180441 136.542225977408 0.0422023623370337 167.418791255135 0.0422023623370337 167.418791255135 0.888955291588281 143.188351158496 
16.45                          0.874144920094953 134.554644630807 0.0467914965679418 165.673910108886 0.0467914965679418 165.673910108886 0.881986247197155 141.337576547611 
16.5                           0.865847879321602 132.488200636064 0.0520398750102624 163.737524361762 0.0520398750102624 163.737524361762 0.874182462673211 139.416308162985 
16.55                          0.856533859240709 130.336658435548 0.0580584804224707 161.590017851888 0.0580584804224707 161.590017851888 0.865402087360024 137.418993840847 
16.6                           0.846029484489976 128.093673540441 0.064978401607268 159.20895070798  0.0649784016072681 159.20895070798  0.855474462051573 135.340021258606 
16.65                          0.834127265762459 125.753124353864 0.0729539408922115 156.568602484395 0.0729539408922115 156.568602484395 0.844194382900323 133.174044186178 
16.7                           0.820579835775235 123.30968303632  0.0821655819508178 153.639501507515 0.0821655819508179 153.639501507515 0.831315930268311 130.916541369638 
16.75                          0.805094700175603 120.759765711147 0.0928222310082228 150.387990078833 0.0928222310082228 150.387990078833 0.81654660098823 128.564744650009 
16.8                           0.787331174006518 118.103076505545 0.105161682368744 146.775918052292 0.105161682368744 146.775918052292 0.79954332563982 126.119145354841 
16.85                          0.766902679070416 115.345063897588 0.119447553909311 142.760625238711 0.119447553909311 142.760625238711 0.779913435519912 123.585889757327 
16.9                           0.743390030288289 112.500738408467 0.135959956680503 138.295473583064 0.135959956680503 138.295473583064 0.757226089800161 120.980502926217 
16.95                          0.716374978370974 109.60042475139  0.154976006951674 133.331323500883 0.154976006951674 133.331323500884 0.731043352122159 118.333504922095 
17                             0.685507833833676 106.698025960333 0.17673540996799 127.819492469642 0.17673540996799 127.819492469642 0.700984814453428 115.698498247629 
17.05                          0.650626652812826 103.881962881555 0.201386881488232 121.716812560452 0.201386881488232 121.716812560452 0.666843700887594 113.162931732999 
17.1                           0.611942919095019 101.287451670443 0.228915228163079 114.993251196645 0.228915228163079 114.993251196645 0.628770631086031 110.860363022493 
17.15                          0.570288887491714 99.1049729410264 0.25905904703404 107.641913880742 0.25905904703404 107.641913880742 0.587522901275029 108.979519109195 
17.2                           0.527368803534806 97.5722539350785 0.291245642773452 99.6898791278106 0.291245642773452 99.6898791278107 0.544726462905567 107.758463930639 
17.25                          0.485861931134553 96.9270713991791 0.324585931450568 91.2064067446635 0.324585931450568 91.2064067446635 0.503006022511804 107.442677688642 
17.3                           0.449128036125052 97.2983383155277 0.35797024088938 82.3036989919038 0.35797024088938 82.3036989919038 0.465740257531784 108.18476241157  
17.35                          0.420310704755268 98.555484421985  0.390268294200425 73.1264294098078 0.390268294200425 73.1264294098078 0.43622743393062 109.89983344307  
17.4                           0.401032193090402 100.232023419742 0.420572469256383 63.8306492598509 0.420572469256384 63.8306492598509 0.416405740826538 112.179109085848 
17.45                          0.390491404495995 101.664908153279 0.448381162016982 54.5583821743935 0.448381162016983 54.5583821743934 0.40587700989192 114.401835129256 
17.5                           0.385762572666166 102.290523660792 0.473644725837211 45.4168705014957 0.473644725837211 45.4168705014956 0.402060631624451 116.014616518112 
17.55                          0.38305567158623 101.84129719777  0.496674075765025 36.4687118613558 0.496674075765026 36.4687118613557 0.401367244851419 116.742312478246 
17.6                           0.378932486996491 100.325828547382 0.517976123984453 27.7334253728532 0.517976123984453 27.733425372853  0.400444455516586 116.593110351557 
17.65                          0.370878127564378 97.9043729991447 0.538089454042416 19.1966540476067 0.538089454042416 19.1966540476066 0.396832210860087 115.746745827455 
17.7                           0.357328075814412 94.7860660782255 0.557463089629122 10.8222292639667 0.557463089629122 10.8222292639665 0.389062064273136 114.452520030683 
17.75                          0.337473675686793 91.1838856804917 0.576387051789961 2.56368539365565 0.57638705178996 2.56368539365554 0.376509904993572 112.980604169501 
17.8                           0.311062696493213 87.3150256770609 0.59496527275783 -5.62633700533087 0.59496527275783 -5.62633700533098 0.359232477101063 111.615612678091 
17.85                          0.278276769537334 83.4342700607551 0.613118598892684 -13.7890973898067 0.613118598892683 -13.7890973898068 0.337883244425666 110.671762265452 
17.9                           0.239700265352507 79.9091500258884 0.630609765725482 -21.9549557851559 0.630609765725481 -21.954955785156 0.313722455374044 110.511838499451 
17.95                          0.196393429808486 77.3927612347926 0.647086522024763 -30.1405292957979 0.647086522024762 -30.1405292957979 0.288694030902605 111.547155902163 
18                             0.15017704839079 77.2974065253373 0.662140199298562 -38.3477170185687 0.662140199298562 -38.3477170185688 0.265490577134204 114.174479132366 
18.05                          0.104709110386541 83.3277724066286 0.675374515112091 -46.5645983278041 0.675374515112091 -46.5645983278042 0.247419140375338 118.583631398979 
18.1                           0.0701854793152843 105.513706041465 0.686474951293744 -54.7681238227113 0.686474951293744 -54.7681238227114 0.237757073459833 124.44017298088  
18.15                          0.0704244311527075 145.010289397485 0.6952657355474  -62.9282575306811 0.6952657355474  -62.9282575306812 0.23850768874553 130.727779887597 
18.2                           0.104493309591443 166.511541271097 0.701742238389174 -71.0129112982356 0.701742238389174 -71.0129112982357 0.249338691827547 136.154877254624 
18.25                          0.14848539068481 172.036958862325 0.706072352537219 -78.9928115421555 0.706072352537219 -78.9928115421556 0.267821262936331 139.853878839492 
18.3                           0.192711342186954 171.410698287791 0.708568988493429 -86.845481013138 0.708568988493429 -86.8454810131381 0.29071395198515 141.630787624243 
18.35                          0.233952881197519 168.209081458113 0.709643243507006 -94.5578010268063 0.709643243507005 -94.5578010268064 0.315072161023392 141.721234003239 
18.4                           0.27081865021953 163.764804042261 0.709750963431484 -102.127016707947 0.709750963431484 -102.127016707947 0.338682355970516 140.490532438256 
18.45                          0.302641615971848 158.653212154879 0.709343846861577 -109.560397061697 0.709343846861576 -109.560397061697 0.360056530445475 138.276392264215 
18.5                           0.32914011137464 153.14853071507  0.708831803983744 -116.873958360565 0.708831803983744 -116.873958360565 0.378279494239091 135.342521447868 
18.55                          0.35026744569758 147.385921984028 0.708558495729756 -124.090690686596 0.708558495729757 -124.090690686596 0.392847834893498 131.880060874272 
18.6                           0.366125624575375 141.428118013444 0.708788547086164 -131.238645887412 0.708788547086164 -131.238645887412 0.403541602820774 128.022447246507 
18.65                          0.376911377315492 135.296186056243 0.709703330036891 -138.349119921107 0.709703330036892 -138.349119921107 0.410333305838672 123.860809635607 
18.7                           0.382884362299698 128.984901786161 0.7114020825019  -145.455045897565 0.711402082501902 -145.455045897564 0.413328862133754 119.45637420749  
18.75                          0.384352888596039 122.470648875184 0.713905828699347 -152.589631827174 0.713905828699349 -152.589631827174 0.412733643116263 114.849527472103 
18.8                           0.381674036886691 115.715211352957 0.717162540257   -159.785234073438 0.717162540257003 -159.785234073438 0.408837327739774 110.065976244163 
18.85                          0.375265675996258 108.667013610928 0.721052872652415 -167.072447453129 0.721052872652417 -167.072447453129 0.402012094155689 105.12043557958  
18.9                           0.365628231274361 101.260644190272 0.725396439448278 -174.479405296163 0.72539643944828 -174.479405296163 0.392719166915988 100.018047218646 
18.95                          0.353374262540266 93.4153736900219 0.729958851939557 177.968694149983 0.729958851939559 177.968694149983 0.381518849456148 94.7534888654295 
19                             0.339263862246496 85.0338032705387 0.734459608429334 170.249797348566 0.734459608429335 170.249797348566 0.36907909280711 89.3076049804824 
19.05                          0.324243220043257 76.0029564169421 0.738580374291132 162.344897804793 0.738580374291132 162.344897804793 0.356177827674325 83.6415432309643 
19.1                           0.309481366604725 66.2022584027784 0.74197236150669 154.237611721051 0.74197236150669 154.237611721051 0.343695403774685 77.6890798475231 
19.15                          0.296393987602034 55.525411977729  0.744260665200953 145.913472982224 0.744260665200953 145.913472982225 0.332596246707436 71.3493387478375 
19.2                           0.286631186263219 43.9231102917979 0.745043004771219 137.359105044104 0.745043004771219 137.359105044104 0.323903289445872 64.484411646269  
19.25                          0.281991943518056 31.4634443895731 0.743880958015639 128.561577356028 0.743880958015638 128.561577356028 0.318672883269929 56.9284770977528 
19.3                           0.284231920887315 18.3808059828662 0.740284104170871 119.508417132949 0.740284104170872 119.508417132949 0.317976668597295 48.5144770951268 
19.35                          0.294783195084311 5.05987288385638 0.733691951954555 110.188874301046 0.733691951954556 110.188874301046 0.322884227945328 39.1182894383104 
19.4                           0.314487718254544 -8.0717168876465 0.723464985131834 100.597045066386 0.723464985131837 100.597045066387 0.334417554553643 28.7084310193913 
19.45                          0.343459970495853 -20.6843048189928 0.708903120512976 90.737220931657  0.708903120512979 90.7372209316574 0.353433893378104 17.3782570823695 
19.5                           0.38108896701106 -32.6220773305346 0.68931329695054 80.6311926479496 0.689313296950544 80.6311926479498 0.380416277909809 5.33969056092396 
19.55                          0.426096377017943 -43.879683209976 0.664140592685939 70.3261309116591 0.664140592685941 70.3261309116592 0.415217379160684 -7.12161956891318 
19.6                           0.476605464159361 -54.5258802691276 0.633151894809281 59.900334358834  0.633151894809282 59.900334358834  0.456869987294018 -19.7051474773925 
19.65                          0.530267960905475 -64.6330061755693 0.596620108578298 49.4633769472739 0.596620108578297 49.4633769472738 0.503586236740919 -32.139709331319 
19.7                           0.584512345613352 -74.2397810203188 0.555423446050639 39.1481256891145 0.555423446050636 39.1481256891144 0.552997504370309 -44.2029236113517 
19.75                          0.636897843942011 -83.3466284126807 0.510985481322631 29.0951562657809 0.510985481322625 29.0951562657809 0.60257357949342 -55.7242346389792 
19.8                           0.685464355939426 -91.9303468400443 0.465051037291574 19.4338715111159 0.465051037291567 19.4338715111161 0.650069758228037 -66.5828214815114 
19.85                          0.728948815757565 -99.9638038012108 0.419379234059568 10.2664673090849 0.41937923405956 10.2664673090854 0.693843278637503 -76.7049101674884 
19.9                           0.76680893887337 -107.430903419126 0.375471432554011 1.65931826049759 0.375471432554004 1.65931826049831 0.73296020450794 -86.0596156138794 
19.95                          0.799091095737006 -114.333312436613 0.334415327751993 -6.35733608743276 0.334415327751986 -6.35733608743165 0.767118580683903 -94.6520233601212 
20                             0.826229420854574 -120.6901561041  0.296856878024028 -13.7836778020023 0.296856878024022 -13.783677802001 0.796474012994341 -102.514082746691 
20.05                          0.848854046471692 -126.53380548627 0.263061487212458 -20.6419372884447 0.263061487212454 -20.6419372884431 0.821452170989345 -109.695085485209 
20.1                           0.867648625510374 -131.904594164482 0.23301357184619 -26.9680865745799 0.233013571846187 -26.9680865745782 0.842597614895152 -116.253356874785 
20.15                          0.883263501232612 -136.846156982055 0.206516565831552 -32.8050642036166 0.20651656583155 -32.8050642036148 0.860473161404384 -122.249976329644 
20.2                           0.89627328544371 -141.402028571555 0.183274357693259 -38.1979372578613 0.183274357693258 -38.1979372578595 0.875603494239517 -127.744590200881 
20.25                          0.907163439506284 -145.613503095983 0.162949363104308 -43.1908070597528 0.162949363104308 -43.190807059751 0.888449934346942 -132.79296076486 
20.3                           0.916332937561949 -149.518491653952 0.145199836489086 -47.8250461442156 0.145199836489086 -47.8250461442139 0.899404078192202 -137.445772688636 
20.35                          0.92410428560179 -153.151068199706 0.129701494740704 -52.1384496524089 0.129701494740704 -52.1384496524074 0.908791362669328 -141.748261582316 
20.4                           0.930735802045751 -156.54144357506 0.116158432959018 -56.1649654088444 0.116158432959019 -56.164965408843 0.916878946472837 -145.740331912629 
20.45                          0.936433557793113 -159.716179208226 0.104307276793753 -59.9347626902389 0.104307276793754 -59.9347626902378 0.923884766105799 -149.456935587861 
20.5                           0.9413618643891  -162.698516498093 0.093917362711369 -63.4744809594516 0.0939173627113696 -63.4744809594506 0.929986200839909 -152.92856577428 
20.55                          0.945651999013302 -165.508746158434 0.0847887815758369 -66.8075596701666 0.0847887815758375 -66.8075596701658 0.93532769067759 -156.181779583595 
20.6                           0.949409237409189 -168.164574540585 0.076749425952362 -69.9545908429761 0.0767494259523625 -69.9545908429755 0.940027132246862 -159.239702122146 
20.65                          0.952718418332167 -170.681464748846 0.0696517133610451 -72.9336621783242 0.0696517133610454 -72.9336621783238 0.944181107019566 -162.122488529667 
20.7                           0.955648299506001 -173.07294288092 0.0633693582875252 -75.7606745010522 0.0633693582875254 -75.7606745010519 0.947869088660282 -164.847734891972 
20.75                          0.95825494902891 -175.3508668694  0.0577943819906271 -78.449626802248 0.0577943819906271 -78.4496268022479 0.951156799266145 -167.430836878795 
20.8                           0.960584380733117 -177.525659212924 0.0528344406496137 -81.0128674923192 0.0528344406496136 -81.0128674923193 0.954098875225931 -169.885299083368 
20.85                          0.962674603092773 -179.606506713146 0.0484104911136902 -83.4613133152347 0.0484104911136901 -83.4613133152349 0.956740982049876 -172.222999905813 
20.9                           0.964557215727987 178.398468975416 0.0444547809784102 -85.804638723413 0.0444547809784098 -85.8046387234133 0.95912149344521 -174.454417412688 
20.95                          0.966258657666138 176.482066103967 0.0409091341721389 -88.0514390114132 0.0409091341721384 -88.0514390114135 0.961272827439554 -176.58882151441 
21                             0.967801187498267 174.637879258953 0.0377234974172639 -90.2093705394342 0.0377234974172634 -90.2093705394346 0.963222513066802 -178.6344373798  
21.05                          0.969203656757979 172.860194202979 0.0348547124299027 -92.2852711729153 0.034854712429902 -92.2852711729157 0.964994045306308 179.401415549042 
21.1                           0.970482123351533 171.14389828516  0.0322654809279544 -94.2852637542056 0.0322654809279538 -94.285263754206 0.96660757332091 177.512205159697 
21.15                          0.971650340795083 169.484403985149 0.0299234929222731 -96.2148450801644 0.0299234929222726 -96.2148450801648 0.96808045709185 175.692085659952 
21.2                           0.972720150601249 167.877583525911 0.0278006925271604 -98.0789625249695 0.0278006925271598 -98.0789625249699 0.969427719796114 173.935811222435 
21.25                          0.973701798777453 166.319712816689 0.0258726591975616 -99.8820801395054 0.025872659197561 -99.8820801395056 0.970662417260612 172.238661983805 
21.3                           0.974604192561746 164.807423268377 0.0241180856649711 -101.628235785188 0.0241180856649705 -101.628235785188 0.971795941177549 170.596380470697 
21.35                          0.975435109850225 163.337660261603 0.0225183368165163 -103.321090622432 0.0225183368165158 -103.321090622432 0.97283826916931 169.005116839101 
21.4                           0.976201370976422 161.907647247871 0.0210570763278214 -104.963972070344 0.0210570763278209 -104.963972070344 0.973798172007425 167.461381577836 
21.45                          0.97690898037082 160.514854631191 0.0197199500423766 -106.559911181379 0.0197199500423762 -106.559911181379 0.974683386130604 165.962004547143 
21.5                           0.977563243995336 159.156972716635 0.018494316927123 -108.111675228846 0.0184943169271226 -108.111675228846 0.975500757927065 164.504099406965 
21.55                          0.978168867191465 157.831888127811 0.0173690199700412 -109.621796182475 0.0173690199700409 -109.621796182475 0.976256364935245 163.08503264195  
21.6                           0.978730036610533 156.537663191092 0.0163341906643407 -111.092595644309 0.0163341906643404 -111.092595644308 0.976955618090072 161.702396516973 
21.65                          0.97925048914173 155.272517864089 0.0153810817855566 -112.526206730819 0.0153810817855564 -112.52620673082 0.977603348334359 160.353985402292 
21.7                           0.97973357016685 154.034813852004 0.0145019240479657 -113.924593314708 0.0145019240479656 -113.924593314708 0.97820388027718 159.037774995072 
21.75                          0.980182283011141 152.823040610593 0.0136898029558229 -115.289566978955 0.0136898029558227 -115.289566978955 0.978761095075518 157.751904037001 
21.8                           0.980599331098185 151.63580298035  0.0129385527689179 -116.622801984534 0.0129385527689178 -116.622801984534 0.979278484312787 156.49465818865  
21.85                          0.980987154030873 150.471810234903 0.0122426650025916 -117.925848510026 0.0122426650025916 -117.925848510026 0.979759196325946 155.264455772129 
21.9                           0.981347958593603 149.329866358699 0.0115972092976892 -119.200144384925 0.0115972092976892 -119.200144384926 0.980206076174294 154.059835136284 
21.95                          0.981683745489654 148.208861395985 0.0109977648409286 -120.447025507579 0.0109977648409287 -120.44702550758 0.980621700234597 152.879443434482 
22                             0.981996332482559 147.107763735788 0.0104403608031365 -121.667735112461 0.0104403608031367 -121.667735112461 0.981008406238302 151.722026635215 
22.05                          0.982287374493346 146.025613216661 0.0099214245019043 -122.863432029201 0.00992142450190442 -122.863432029202 0.981368319429335 150.586420611152 
22.1                           0.982558381110997 144.961514951148 0.00943773619476828 -124.035198056714 0.00943773619476844 -124.035198056715 0.981703375408912 149.471543173827 
22.15                          0.982810731896674 143.914633783587 0.00898638957587092 -125.184044559485 0.00898638957587109 -125.184044559486 0.982015340141936 148.376386939358 
22.2                           0.983045689799615 142.884189306533 0.00856475718883243 -126.310918379069 0.00856475718883258 -126.310918379071 0.982305827524013 147.300012926093 
22.25                          0.983264412951277 141.869451370941 0.00817046008588309 -127.416707141837 0.00817046008588324 -127.416707141839 0.982576314845737 146.241544798292 
22.3                           0.983467965062121 140.869736033769 0.00780134116196872 -128.502244033607 0.00780134116196893 -128.502244033609 0.982828156439193 145.200163681229 
22.35                          0.983657324610604 139.88440189385  0.00745544167568517 -129.568312102856 0.00745544167568537 -129.568312102857 0.983062595748639 144.175103482713 
22.4                           0.983833392985034 138.912846773135 0.00713098053909658 -130.615648146429 0.00713098053909678 -130.61564814643 0.98328077603146 143.165646664352 
22.45                          0.983997001714964 137.95450470573  0.00682633601788651 -131.644946224954 0.00682633601788665 -131.644946224957 0.983483749865461 142.17112041296  
22.5                           0.984148918908725 137.008843201776 0.00654002953363838 -132.656860849299 0.00654002953363858 -132.656860849301 0.983672487613316 141.190893168663 
22.55                          0.984289854996919 136.075360757189 0.00627071130280618 -133.652009874351 0.00627071130280638 -133.652009874353 0.983847884973789 140.224371471538 
22.6                           0.984420467867558 135.153584583745 0.00601714758333334 -134.630977131974 0.00601714758333347 -134.630977131976 0.984010769731329 139.270997093232 
22.65                          0.984541367466637 134.243068536959 0.00577820933091093 -135.594314831122 0.00577820933091107 -135.594314831124 0.984161907800466 138.330244423943 
22.7                           0.984653119927848 133.343391221853 0.00555286209338128 -136.542545749746 0.0055528620933814 -136.542545749747 0.984302008648475 137.401618088643 
22.75                          0.984756251286601 132.454154258933 0.00534015699448646 -137.476165240186 0.00534015699448655 -137.476165240187 0.984431730168763 136.484650769407 
22.8                           0.984851250826239 131.574980694718 0.00513922267762391 -138.395643067182 0.00513922267762399 -138.395643067184 0.984551683068   135.578901213335 
22.85                          0.984938574098108 130.705513542866 0.00494925809698992 -139.301425095388 0.00494925809698998 -139.301425095389 0.98466243482196 134.683952407888 
22.9                           0.985018645651852 129.845414443497 0.0047695260578835 -140.193934841308 0.00476952605788353 -140.193934841309 0.984764513248089 133.799409907406 
22.95                          0.985091861507718 128.994362429606 0.00459934742034924 -141.073574902893 0.00459934742034926 -141.073574902894 0.984858409736865 132.924900296418 
23                             0.985158591398733 128.152052790697 0.00443809589105532 -141.940728278476 0.0044380958910553 -141.940728278475 0.984944582178842 132.060069776838 
