! Touchstone file exported from HFSS 3D Layout Design 2026.1.0
!        File:           D:/Work/SIM/ADS_AUTO_SIM/projects/RFSOC_RF/TX_Fillter.aedt
!        Generated:      10:48:24 PM Aug 30, 2026
!        Design:         TX_BAND1_MCFIL_R5_CNN034
!        Project:        TX_Fillter
!
# GHz S MA R 50.000000
! Terminal data exported
! Port[1] = Port1
! Port[2] = Port2
14                             0.965590245009934 176.862795398446 0.00538415130774312 173.320159756234 0.00538415130774314 173.320159756233 0.96495232079659 173.7898861116   
14.05                          0.964910618845129 175.857428016013 0.00551112948151685 172.85497587274  0.00551112948151691 172.85497587274  0.964271364984528 172.753504846724 
14.1                           0.964208888592555 174.843405642004 0.00564468338868317 172.402407787635 0.00564468338868329 172.402407787635 0.963569087289401 171.708429475792 
14.15                          0.963483982290646 173.820437061986 0.00578531184001888 171.962213290795 0.00578531184001901 171.962213290795 0.962844492100701 170.65438137592  
14.2                           0.962734758880817 172.7882165357   0.00593355863541598 171.534083029577 0.00593355863541614 171.534083029578 0.962096521643396 169.591068481432 
14.25                          0.961960002633268 171.746422884203 0.00609001705600396 171.117634418903 0.00609001705600414 171.117634418903 0.961324051091595 168.518184470646 
14.3                           0.961158417029397 170.694718506434 0.00625533483924012 170.712405372816 0.00625533483924032 170.712405372817 0.960525883215075 167.435407892092 
14.35                          0.960328618038462 169.632748318628 0.00643021969347205 170.31784790561  0.00643021969347225 170.31784790561  0.959700742505741 166.342401224736 
14.4                           0.959469126717792 168.560138609352 0.00661544541595216 169.933321659038 0.00661544541595238 169.933321659039 0.958847268724087 165.238809866196 
14.45                          0.958578361056408 167.476495802089 0.00681185868691144 169.558087420373 0.00681185868691165 169.558087420373 0.957964009797759 164.124261042307 
14.5                           0.957654626970895 166.38140511644  0.00702038662227718 169.191300703688 0.00702038662227739 169.191300703689 0.957049413995066 162.998362630673 
14.55                          0.956696108349745 165.274429117993 0.0072420451791821 168.832005473364 0.0072420451791823 168.832005473364 0.956101821285622 161.86070189005  
14.6                           0.955700856027683 164.155106145761 0.00747794852183664 168.479128093856 0.00747794852183683 168.479128093856 0.955119453788001 160.710844086481 
14.65                          0.954666775554541 163.022948604853 0.00772931947094894 168.131471592821 0.0077293194709491 168.131471592822 0.954100405189931 159.54833100612  
14.7                           0.953591613603421 161.877441110538 0.00799750117805951 167.787710325072 0.00799750117805965 167.787710325072 0.953042629009971 158.372679343507 
14.75                          0.952472942839882 160.71803846829  0.00828397018736256 167.446385122102 0.0082839701873627 167.446385122103 0.951943925550206 157.183378952796 
14.8                           0.951308145046986 159.544163472497 0.0085903510723426 167.105899005475 0.00859035107234273 167.105899005475 0.950801927366891 155.979890947972 
14.85                          0.950094392269531 158.355204504446 0.00891843286348726 166.764513531798 0.00891843286348735 166.764513531798 0.949614083059463 154.761645636466 
14.9                           0.948828625703872 157.150512907816 0.00927018751718151 166.420345821988 0.00927018751718159 166.420345821988 0.948377639147276 153.528040268716 
14.95                          0.947507532016266 155.929400117195 0.00964779071550983 166.071366307772 0.00964779071550991 166.071366307772 0.94708961976684 152.278436584145 
15                             0.946127516721438 154.691134512067 0.0100536453331159 165.715397204006 0.0100536453331159 165.715397204006 0.945746803879217 151.012158131659 
15.05                          0.944684674192534 153.434937965224 0.0104904079617043 165.350111686396 0.0104904079617043 165.350111686396 0.944345699626256 149.72848734011  
15.1                           0.943174753801851 152.159982050587 0.0109610189466483 164.973033721144 0.0109610189466483 164.973033721143 0.942882515413908 148.426662311143 
15.15                          0.94159312160653 150.865383870901 0.0114687364651927 164.581538456377 0.0114687364651927 164.581538456376 0.941353127229057 147.105873303461 
15.2                           0.939934716891904 149.550201460621 0.0120171752639285 164.172853045784 0.0120171752639285 164.172853045784 0.939753041610733 145.765258873706 
15.25                          0.93819400276402 148.213428713497 0.012610350776968 163.744057733548 0.012610350776968 163.744057733548 0.938077353594392 144.403901634853 
15.3                           0.936364909837852 146.853989777731 0.0132527294684144 163.292086987458 0.0132527294684143 163.292086987458 0.936320698825548 143.020823588165 
15.35                          0.934440771893735 145.470732854111 0.0139492863866801 162.813730424963 0.0139492863866801 162.813730424963 0.934477198892102 141.614980979408 
15.4                           0.932414252165277 144.062423324072 0.0147055710879876 162.305633235803 0.0147055710879876 162.305633235803 0.932540398747884 140.185258624009 
15.45                          0.93027725866973 142.627736125174 0.0155277832867079 161.764295765439 0.0155277832867078 161.76429576544  0.930503194886554 138.730463639271 
15.5                           0.928020846686962 141.165247280913 0.0164228598266538 161.186071886227 0.0164228598266538 161.186071886227 0.928357752667009 137.249318514622 
15.55                          0.925635106124066 139.673424480106 0.0173985748465364 160.567165748299 0.0173985748465363 160.567165748299 0.926095410878824 135.740453443204 
15.6                           0.923109031054798 138.150616588337 0.0184636553420589 159.90362646902  0.0184636553420589 159.90362646902  0.923706571256592 134.202397830101 
15.65                          0.920430368178877 136.59504196033  0.0196279147151355 159.191340287974 0.0196279147151355 159.191340287974 0.921180570190399 132.63357088452  
15.7                           0.917585440283863 135.004775407846 0.020902407357059 158.426019682512 0.0209024073570591 158.426019682512 0.918505529317297 131.032271195578 
15.75                          0.914558939985777 133.377733663574 0.02229960784748 157.603188905305 0.02229960784748 157.603188905305 0.915668180993247 129.396665185058 
15.8                           0.911333688041755 131.711659168335 0.0238336189754487 156.718165368189 0.0238336189754487 156.718165368189 0.912653663809198 127.724774326584 
15.85                          0.907890349331026 130.004101998609 0.0255204135125681 155.766036253726 0.0255204135125681 155.766036253726 0.909445282296308 126.014461021204 
15.9                           0.904207098144621 128.252399746507 0.0273781154992266 154.741629685227 0.0273781154992267 154.741629685227 0.906024223725638 124.263413027166 
15.95                          0.900259222658453 126.453655169079 0.0294273277455269 153.639479725668 0.029427327745527 153.639479725668 0.902369223403506 122.469126361245 
16                             0.896018656332532 124.604711444718 0.0316915132916562 152.453784404828 0.0316915132916562 152.453784404828 0.898456168047227 120.628886626782 
16.05                          0.891453421423896 122.702124921283 0.0341974396933392 151.178355892424 0.0341974396933392 151.178355892424 0.894257624649285 118.739748789697 
16.1                           0.886526966771724 120.742135328476 0.0369756961423491 149.806561845414 0.0369756961423491 149.806561845414 0.889742279659208 116.79851553279  
16.15                          0.881197378481853 118.720633578762 0.0400612944966506 148.331256866304 0.0400612944966506 148.331256866304 0.884874270310928 114.801714492778 
16.2                           0.8754164381269  116.633127531326 0.0434943660976623 146.744702928367 0.0434943660976623 146.744702928367 0.879612386524048 112.745574956515 
16.25                          0.869128498709767 114.474706494351 0.047320966486246 145.038477574658 0.0473209664862461 145.038477574658 0.873909118126212 110.626005011582 
16.3                           0.862269144220508 112.24000587121  0.0515939992914796 143.203368716534 0.0515939992914797 143.203368716534 0.86770951846355 108.438570784601 
16.35                          0.854763594786987 109.923174334825 0.0563742678515917 141.229255002456 0.0563742678515917 141.229255002456 0.860949852367179 106.178480365936 
16.4                           0.846524817384241 107.517847420625 0.0617316572691324 139.104971091587 0.0617316572691324 139.104971091587 0.853555995016918 103.840576471465 
16.45                          0.837451303989108 105.017133731428 0.0677464386490505 136.818157892892 0.0677464386490506 136.818157892892 0.845441550441434 101.419344065643 
16.5                           0.827424488687521 102.413623450392 0.0745106682613485 134.355099138937 0.0745106682613486 134.355099138937 0.836505667589026 98.9089424084539 
16.55                          0.816305798851168 99.6994341613251 0.0821296229345001 131.700547883895 0.0821296229345001 131.700547883895 0.826630553757346 96.3032757879072 
16.6                           0.803933383390477 96.8663169656478 0.0907231628468706 128.837550129486 0.0907231628468705 128.837550129485 0.815678728941133 93.5961242626835 
16.65                          0.790118649632923 93.9058578538197 0.1004268354348  125.747278473555 0.1004268354348  125.747278473555 0.80349014504951 90.781366035096  
16.7                           0.774642894716352 90.8098270811595 0.111392418388178 122.408897364031 0.111392418388178 122.408897364031 0.7898794334931  87.8533378748101 
16.75                          0.757254574358511 87.5707554719377 0.123787433356694 118.799494371003 0.123787433356694 118.799494371003 0.774633776195905 84.8074008521649 
16.8                           0.737668161646315 84.1828545166942 0.137792935129862 114.89413008136  0.137792935129861 114.89413008136  0.757512262949316 81.6408070556525 
16.85                          0.715566171332349 80.6434509849218 0.153598595167388 110.66608361607  0.153598595167387 110.66608361607  0.738248154068748 78.3539997632154 
16.9                           0.690606815352192 76.9551809475184 0.171393784728671 106.087400799954 0.171393784728671 106.087400799954 0.71655625427073 74.952523024882  
16.95                          0.662440918795675 73.1292857732698 0.191353114784802 101.129883694145 0.191353114784802 101.129883694145 0.692148611466251 71.4497589500138 
17                             0.630743032295065 69.1904724809654 0.213614908849575 95.7666828590707 0.213614908849575 95.7666828590708 0.664762828819791 67.870731162316  
17.05                          0.595262716532046 65.1839299950385 0.238251723889453 89.9746458053024 0.238251723889453 89.9746458053025 0.634207967122584 64.2571644787922 
17.1                           0.555901888661823 61.1851921123824 0.265233783252625 83.7375014750131 0.265233783252625 83.7375014750131 0.600432367170249 60.6737829194741 
17.15                          0.51282155048144 57.3135037442003 0.294389482051713 77.049777534705  0.294389482051713 77.0497775347051 0.563614175769966 57.215299622768  
17.2                           0.466574650367829 53.7488998763548 0.325371855076348 69.9210254662059 0.325371855076348 69.921025466206  0.524267009614071 54.0124498504908 
17.25                          0.418250497033724 50.7515527468739 0.357644609133378 62.3795017428639 0.357644609133378 62.379501742864  0.483338854622142 51.2334216282714 
17.3                           0.369600557225296 48.6768615766698 0.390502732446156 54.474077094751  0.390502732446156 54.474077094751  0.44226346544704 49.0739954589546 
17.35                          0.323094203942513 47.9659743617907 0.423136734108806 46.2731021872414 0.423136734108806 46.2731021872414 0.402906561983915 47.7265454690188 
17.4                           0.281812609947597 49.0620849878334 0.454734837869301 37.8595204403247 0.454734837869302 37.8595204403247 0.367347162264955 47.3190792196532 
17.45                          0.249009012971501 52.1752744862757 0.484599178680919 29.3226802752731 0.484599178680919 29.3226802752731 0.337469844140129 47.8304892128841 
17.5                           0.22713405879794 56.9106036813179 0.512241359610981 20.7485869301348 0.512241359610981 20.7485869301348 0.314443266146865 49.0237879970768 
17.55                          0.216542997576066 62.1196327568042 0.53742856894211 12.2110144398202 0.537428568942109 12.2110144398202 0.298306082389057 50.4677783701284 
17.6                           0.214983565765416 66.4223364649626 0.560171633930956 3.76553227867961 0.560171633930956 3.76553227867964 0.287930578202239 51.6737816570159 
17.65                          0.218660914564856 68.975536761431  0.580668337738554 -4.55267242604673 0.580668337738554 -4.55267242604673 0.281426598557577 52.2655040345053 
17.7                           0.223877088317479 69.6580379697475 0.599226867467184 -12.7275725107267 0.599226867467183 -12.7275725107267 0.276733248716361 52.0661397627419 
17.75                          0.227927451654971 68.7570033176079 0.616192559717087 -20.7588515984871 0.616192559717086 -20.7588515984871 0.272077000795318 51.0780038379461 
17.8                           0.229174647751784 66.6591294235068 0.631891741518221 -28.6575320335411 0.63189174151822 -28.6575320335411 0.266171436953051 49.4135906539953 
17.85                          0.226791093925585 63.7112354209006 0.646596612966275 -36.4416828050685 0.646596612966273 -36.4416828050684 0.258220930305111 47.2347434847486 
17.9                           0.220483895579291 60.1910968174107 0.660508751184557 -44.1327798325174 0.660508751184555 -44.1327798325173 0.247837008150715 44.7191872550951 
17.95                          0.210293781603588 56.3213547157402 0.673756318400447 -51.7529306634738 0.673756318400446 -51.7529306634737 0.234941758289246 42.0508460815077 
18                             0.196468057799022 52.2960408452643 0.686400075703623 -59.3229515987289 0.686400075703623 -59.3229515987288 0.219691388883345 39.4259515372295 
18.05                          0.179388021953496 48.3127292132917 0.698444364875177 -66.861180897428 0.698444364875177 -66.861180897428 0.202429604223268 37.0700289391087 
18.1                           0.159535138305214 44.6160936527691 0.709850388898135 -74.382883337456 0.709850388898135 -74.382883337456 0.183672763687693 35.2646358447913 
18.15                          0.137491442662459 41.5720982312725 0.720550008338924 -81.9001095487282 0.720550008338925 -81.9001095487282 0.164130373963283 34.3841831967924 
18.2                           0.113990503377349 39.821841148326  0.730458825525136 -89.4218927867604 0.730458825525137 -89.4218927867603 0.144769975661722 34.9370376725383 
18.25                          0.0900902961262949 40.6443911056923 0.739487649079282 -96.9546837997126 0.739487649079282 -96.9546837997126 0.126934212992322 37.5740879623194 
18.3                           0.0677182824330092 46.8208391084538 0.747551644952458 -104.50293758988 0.747551644952458 -104.50293758988 0.112470525909025 42.9358230142662 
18.35                          0.0512539340410849 63.5912472323567 0.754576683934471 -112.069775280295 0.754576683934471 -112.069775280295 0.103651591296226 51.0967295163806 
18.4                           0.0487258998819037 90.9362267695007 0.760502635837033 -119.657652666719 0.760502635837033 -119.657652666719 0.102439399040522 60.7463757424871 
18.45                          0.0622880695467611 111.555633673522 0.76528363412297 -127.268976680195 0.76528363412297 -127.268976680195 0.109247473630818 69.4429692610418 
18.5                           0.0844343181943967 119.764561924529 0.768885606168997 -134.906622835397 0.768885606168998 -134.906622835397 0.12268939744531 75.3721336141656 
18.55                          0.109821869538098 120.906505049633 0.771281589011078 -142.574320173834 0.771281589011079 -142.574320173834 0.140719548558136 78.2162706953219 
18.6                           0.136342028496252 118.477730884497 0.77244549630374 -150.276883510231 0.77244549630374 -150.276883510231 0.1616420762137  78.49716856685   
18.65                          0.163177295254176 114.066172447454 0.772345062801173 -158.020283913604 0.772345062801174 -158.020283913604 0.184353983564434 76.867063928253  
18.7                           0.190016410563905 108.417503807727 0.770934688331967 -165.811555710116 0.770934688331967 -165.811555710116 0.208228884674609 73.8494128558385 
18.75                          0.216788579278454 101.912265240968 0.768148872991459 -173.658541294302 0.76814887299146 -173.658541294302 0.232960235732673 69.8140698355879 
18.8                           0.243559481569056 94.761249379288  0.763896923014073 178.43052564388  0.763896923014074 178.43052564388  0.258444873910102 65.012709117081  
18.85                          0.270479546493356 87.0913845391514 0.758059646185461 170.447600250781 0.758059646185463 170.447600250781 0.284704011421037 59.6160172018444 
18.9                           0.297749412265156 78.9870861215297 0.750488855443739 162.385572698027 0.750488855443741 162.385572698027 0.31182711068214 53.7412705761681 
18.95                          0.325589990505312 70.5118968876976 0.741010629087339 154.239178495986 0.741010629087341 154.239178495986 0.339928073796325 47.4711825895171 
19                             0.354212443242089 61.7205286776883 0.729433353584773 146.006056326611 0.729433353584776 146.006056326611 0.369107989074403 40.8666965570927 
19.05                          0.383787023048303 52.6657129697178 0.715561461549374 137.68790835438  0.715561461549376 137.68790835438  0.399422197102318 33.9758643732483 
19.1                           0.41441214335484 43.4019244642543 0.699215294710394 129.291674887297 0.699215294710396 129.291674887297 0.430851972501643 26.840178583862  
19.15                          0.446087000161757 33.9870423078194 0.680256511523136 120.830582388922 0.680256511523137 120.830582388922 0.46328297280245 19.4991299362351 
19.2                           0.478692431723608 24.4825727629515 0.658616897372018 112.324874534316 0.658616897372019 112.324874534316 0.496493729285013 11.9933632577816 
19.25                          0.511984968919824 14.9528456969114 0.634326575108938 103.802012259166 0.634326575108938 103.802012259165 0.530157517047489 4.36656752785003 
19.3                           0.545607686966851 5.46348040758147 0.607536066405739 95.2961558161199 0.607536066405739 95.2961558161198 0.563859597901543 -3.33386352330447 
19.35                          0.579118430494517 -3.9206467204199 0.578526273190296 86.8468360133716 0.578526273190296 86.8468360133716 0.597129083542009 -11.0573442620498 
19.4                           0.612031905884728 -13.1377139785858 0.547701936271319 78.4968754843222 0.547701936271319 78.4968754843222 0.629481167812561 -18.7516182462876 
19.45                          0.643868387036586 -22.1313013981018 0.515567508304175 70.2897950630209 0.515567508304175 70.2897950630209 0.66046248411087 -26.3649762305112 
19.5                           0.674199903600607 -30.8524980112032 0.482688701993341 62.2670749591712 0.482688701993342 62.2670749591712 0.689691204745263 -33.8487445435801 
19.55                          0.702685653086811 -39.2615016580527 0.449646623219901 54.4656817181165 0.449646623219902 54.4656817181165 0.716884881668935 -41.1595907345972 
19.6                           0.729091657708569 -47.3285152561646 0.416992919917857 46.9162021363741 0.416992919917858 46.9162021363741 0.741872450263456 -48.2612749690719 
19.65                          0.753293980196436 -55.0338679850326 0.385213300396951 39.6417730093005 0.385213300396951 39.6417730093004 0.764590883989539 -55.1256373936964 
19.7                           0.775268477268175 -62.3674268701075 0.354703805468359 32.6578193000086 0.354703805468359 32.6578193000085 0.785070185692732 -61.7327953027158 
19.75                          0.795072051604251 -69.3274695573949 0.325760716929026 25.9724703116605 0.325760716929026 25.9724703116603 0.803411867909231 -68.0706723323762 
19.8                           0.812820534362197 -75.9192376714244 0.298582181716793 19.5874454580897 0.298582181716793 19.5874454580894 0.819765838832414 -74.1340636014516 
19.85                          0.828667250543239 -82.1533829595254 0.27327812891378 13.4991890876875 0.27327812891378 13.4991890876871 0.834309305334959 -79.9234552120021 
19.9                           0.842784756299084 -88.0444739641986 0.249884805723054 7.70006781404861 0.249884805723054 7.7000678140482  0.847229687028325 -85.4437838872174 
19.95                          0.855350789097858 -93.6096721680785 0.228380836295067 2.17949867114787 0.228380836295066 2.17949867114747 0.858712148392286 -90.7032683453811 
20                             0.866538434225279 -98.8676312317161 0.208702632124176 -3.07506804603117 0.208702632124175 -3.07506804603158 0.868931432074207 -95.7123887341948 
20.05                          0.87650992721154 -103.837630498811 0.190757899635146 -8.077342488461  0.190757899635145 -8.07734248846144 0.878047211090126 -100.483045579873 
20.1                           0.885413287387479 -108.538926613339 0.174436716554769 -12.8415660321209 0.174436716554767 -12.8415660321212 0.886202051208707 -105.027898923762 
20.15                          0.893380981303719 -112.990292855871 0.159620135913707 -17.382041929146 0.159620135913705 -17.3820419291464 0.893521147510733 -109.35987048607 
20.2                           0.900529932608687 -117.209711021881 0.146186553356828 -21.7128006793303 0.146186553356827 -21.7128006793307 0.900113159459652 -113.491783639687 
20.25                          0.906962349954726 -121.214181733841 0.134016196194171 -25.8473733719102 0.13401619619417 -25.8473733719104 0.90607164581824 -117.436114295181 
20.3                           0.912766993364386 -125.019623178535 0.122994117453055 -29.7986482135183 0.122994117453054 -29.7986482135185 0.911476757931429 -121.2048277066  
20.35                          0.918020623276472 -128.640833487802 0.113012049203113 -33.5787890422383 0.113012049203112 -33.5787890422385 0.916396973875391 -124.809279758587 
20.4                           0.92278947065661 -132.091497209635 0.103969416571127 -37.1991986305246 0.103969416571126 -37.1991986305248 0.920890746166342 -128.260165284855 
20.45                          0.927130633697582 -135.3842209796  0.0957737551906677 -40.6705133523533 0.0957737551906668 -40.6705133523534 0.92500799725243 -131.567499741965 
20.5                           0.931093352004985 -138.530587384676 0.0883407199034051 -44.0026190419635 0.0883407199034045 -44.0026190419636 0.928791436580074 -134.740623825632 
20.55                          0.934720138302139 -141.541219097136 0.0815938255038298 -47.2046805230005 0.0815938255038291 -47.2046805230005 0.932277696898205 -137.788223285575 
20.6                           0.938047765379624 -144.425847726693 0.0754640222518455 -50.2851793675724 0.0754640222518451 -50.2851793675724 0.935498300714595 -140.718358296174 
20.65                          0.941108115991391 -147.193383612721 0.0698891792358078 -53.251956032388 0.0698891792358074 -53.251956032388 0.938480474225377 -143.538498349459 
20.7                           0.943928908387194 -149.851984076418 0.0648135262485393 -56.1122537044791 0.064813526248539 -56.1122537044792 0.941247828254048 -146.255559843613 
20.75                          0.946534312070163 -152.409118584102 0.060187088271428 -58.8727620582748 0.0601870882714278 -58.8727620582749 0.943820925537604 -148.875944429605 
20.8                           0.948945468453088 -154.871629928315 0.0559651346617527 -61.5396597533266 0.0559651346617528 -61.5396597533267 0.946217752229369 -151.405576824588 
20.85                          0.951180930183515 -157.245790985342 0.0521076566072212 -64.1186549483274 0.0521076566072213 -64.1186549483275 0.94845410945704 -153.849941263688 
20.9                           0.95325703153332 -159.537356911997 0.0485788804603899 -66.6150234196918 0.0485788804603901 -66.615023419692 0.950543938596236 -156.214116089168 
20.95                          0.955188200714009 -161.751612843099 0.0453468205005201 -69.0336440882253 0.0453468205005202 -69.0336440882256 0.952499591823547 -158.50280620409 
21                             0.956987223462096 -163.893417275138 0.0423828719641223 -71.3790319025109 0.0423828719641226 -71.3790319025112 0.954332057611808 -160.720373273874 
21.05                          0.958665465832672 -165.967241393919 0.0396614434444562 -73.655368122772 0.0396614434444565 -73.6553681227726 0.956051149168321 -162.870863663904 
21.1                           0.960233062885401 -167.977204640956 0.0371596266954624 -75.8665281088585 0.0371596266954628 -75.866528108859 0.957665662398859 -164.958034169475 
21.15                          0.961699078857312 -169.927106826689 0.0348569012772248 -78.0161067513306 0.0348569012772251 -78.0161067513312 0.959183508790815 -166.985375636738 
21.2                           0.963071643485621 -171.82045709651 0.0327348711974844 -80.1074417030791 0.0327348711974847 -80.1074417030798 0.960611827622785 -168.956134597736 
21.25                          0.964358068357916 -173.660500043932 0.0307770306300333 -82.1436345759745 0.0307770306300336 -82.1436345759753 0.961957081097205 -170.873333054793 
21.3                           0.965564946509235 -175.45023924788 0.028968555850842 -84.1275702665768 0.0289685558508424 -84.1275702665777 0.963225135330101 -172.739786553368 
21.35                          0.966698237938311 -177.192458490868 0.0272961206743071 -86.0619345696871 0.0272961206743075 -86.061934569688 0.964421329592624 -174.558120680872 
21.4                           0.96776334326168 -178.88974089344 0.0257477328592916 -87.949230230364 0.0257477328592919 -87.9492302303648 0.96555053576108 -176.33078612393 
21.45                          0.968765167349417 179.455513821094 0.0243125891635655 -89.7917915752719 0.0243125891635658 -89.7917915752728 0.96661720957701 -178.060072409397 
21.5                           0.969708174476829 177.841073738134 0.0229809469399687 -91.591797853763 0.0229809469399689 -91.591797853764 0.96762543503103 -179.748120446247 
21.55                          0.970596436271077 176.264860665365 0.021744010377986 -93.3512854084906 0.0217440103779862 -93.3512854084915 0.96857896295078 178.603066023303 
21.6                           0.971433673521067 174.72493739225  0.0205938296943098 -95.0721587849979 0.02059382969431 -95.0721587849985 0.969481244683992 176.991609963777 
21.65                          0.972223292745017 173.219496155659 0.0195232117618961 -96.7562008798608 0.0195232117618963 -96.7562008798615 0.970335461613806 175.415751486416 
21.7                           0.972968418266307 171.746848186786 0.0185256408374154 -98.4050822176904 0.0185256408374155 -98.4050822176911 0.97114455111826 173.873839106106 
21.75                          0.973671920429219 170.305414227921 0.0175952082013921 -100.020369438728 0.0175952082013922 -100.020369438728 0.971911229483668 172.364321739816 
21.8                           0.974336440487441 168.893715919692 0.0167265496640926 -101.603533070871 0.0167265496640926 -101.603533070871 0.972638012198079 170.885741378157 
21.85                          0.974964412616167 167.510367970214 0.0159147900141154 -103.155954652786 0.0159147900141154 -103.155954652786 0.973327231982474 169.436726368116 
21.9                           0.975558083430321 166.154071027143 0.0151554935967536 -104.678933268202 0.0151554935967536 -104.678933268202 0.973981054861016 168.015985250982 
21.95                          0.976119529334367 164.823605182248 0.0144446203066675 -106.17369154558 0.0144446203066675 -106.17369154558 0.974601494525145 166.622301104819 
22                             0.97665067198142 163.517824045674 0.0137784863654643 -107.641381172016 0.0137784863654643 -107.641381172015 0.975190425207867 165.254526345767 
22.05                          0.977153292079339 162.235649333853 0.0131537293305745 -109.083087965401 0.0131537293305745 -109.0830879654  0.97574959325257 163.911577946834 
22.1                           0.977629041747744 160.97606592102  0.0125672768484798 -110.499836544567 0.0125672768484797 -110.499836544565 0.976280627534097 162.592433036867 
22.15                          0.978079455601489 159.738117309584 0.0120163187238953 -111.892594633227 0.0120163187238953 -111.892594633225 0.976785048867483 161.29612484594  
22.2                           0.97850596071205 158.520901479372 0.0114982819279059 -113.262277030058 0.0114982819279058 -113.262277030056 0.977264278521078 160.021738966688 
22.25                          0.978909885577914 157.323567079921 0.0110108082131288 -114.609749274106 0.0110108082131287 -114.609749274103 0.97771964593501 158.768409903977 
22.3                           0.979292468217667 156.14530993373  0.0105517340435159 -115.935831031916 0.0105517340435158 -115.935831031913 0.978152395732587 157.53531788797  
22.35                          0.979654863484713 154.985369821705 0.0101190725810716 -117.241299230239 0.0101190725810716 -117.241299230235 0.978563694100958 156.321685927977 
22.4                           0.97999814968989 153.843027524947 0.00971099750216627 -118.526890955896 0.00971099750216623 -118.526890955892 0.97895463460769 155.126777086615 
22.45                          0.980323334607385 152.71760209967  0.00932582844279187 -119.793306142378 0.00932582844279184 -119.793306142374 0.979326243511698 153.949891955711 
22.5                           0.980631360930056 151.60844836437  0.00896201789551144 -121.041210060876 0.00896201789551139 -121.041210060872 0.979679484619884 152.790366317098 
22.55                          0.980923111232197 150.514954580414 0.00861813940139354 -122.271235631845 0.00861813940139354 -122.271235631841 0.980015263734777 151.647568973014 
22.6                           0.981199412490858 149.436540309113 0.00829287689827074 -123.48398557168 0.00829287689827073 -123.483985571676 0.980334432733199 150.520899732193 
22.65                          0.981461040210803 148.372654429956 0.00798501510251971 -124.680034387778 0.00798501510251973 -124.680034387774 0.980637793311449 149.40978753902  
22.7                           0.981708722192983 147.322773306187 0.00769343081550858 -125.859930234045 0.00769343081550862 -125.859930234041 0.980926100428529 148.31368873422  
22.75                          0.98194314198183 146.286399085229 0.00741708505813411 -127.024196637822 0.00741708505813412 -127.024196637818 0.981200065475498 147.232085436618 
22.8                           0.982164942022735 145.263058122622 0.00715501594768227 -128.173334108248 0.0071550159476823 -128.173334108244 0.981460359196029 146.164484036413 
22.85                          0.982374726557593 144.252299519216 0.00690633224077812 -129.307821635155 0.00690633224077816 -129.307821635152 0.981707614380596 145.110413791225 
22.9                           0.982573064283259 143.253693762333 0.00667020747459743 -130.428118086841 0.00667020747459748 -130.42811808684 0.981942428354402 144.069425516978 
22.95                          0.982760490795114 142.266831462419 0.00644587464593795 -131.534663514305 0.00644587464593801 -131.534663514305 0.982165365277105 143.04109036633  
23                             0.982937510835544 141.291322177525 0.00623262137430723 -132.627880368894 0.00623262137430726 -132.627880368895 0.982376958270605 142.02499868799  
