! Touchstone file exported from HFSS 3D Layout Design 2026.1.0
!        File:           D:/Work/SIM/ADS_AUTO_SIM/projects/RFSOC_RF/TX_Fillter.aedt
!        Generated:      03:48:27 AM Aug 31, 2026
!        Design:         TX_BAND1_MCFIL_R40_CNN016
!        Project:        TX_Fillter
!
# GHz S MA R 50.000000
! Terminal data exported
! Port[1] = Port1
! Port[2] = Port2
14                             0.972832242982503 -165.539175610582 0.00360172131291281 -177.764807821592 0.00360172131291281 -177.764807821592 0.97538838249337 -159.665102836907 
14.05                          0.972337104342669 -166.429756754004 0.0036702924247981 -178.179094233045 0.00367029242479809 -178.179094233046 0.974960059580055 -160.51019619179 
14.1                           0.971826739330099 -167.326356659582 0.00374203005922348 -178.573553325957 0.0037420300592235 -178.573553325959 0.974518890864999 -161.360378939829 
14.15                          0.971300415834255 -168.229158204237 0.00381717820884079 -178.947746386495 0.00381717820884082 -178.947746386496 0.974064256450937 -162.215798375647 
14.2                           0.970757354281273 -169.138353727851 0.00389600439360284 -179.30126742177 0.0038960043936029 -179.301267421771 0.97359549578392 -163.076609606496 
14.25                          0.970196723775205 -170.054145640989 0.00397880220913041 -179.633750123489 0.00397880220913045 -179.633750123491 0.973111904306482 -163.942976063156 
14.3                           0.969617637860185 -170.976747080054 0.0040658941711252 -179.944875602006 0.00406589417112524 -179.944875602008 0.972612729777836 -164.815070051209 
14.35                          0.969019149859636 -171.9063826143  0.00415763489182591 179.765619076859 0.00415763489182596 179.765619076858 0.972097168222089 -165.693073346511 
14.4                           0.968400247742799 -172.843289009653 0.0042544146291284 179.497931529807 0.00425441462912846 179.497931529805 0.97156435946017 -166.577177839127 
14.45                          0.967759848462083 -173.787716054795 0.00435666325427777 179.252183859477 0.00435666325427783 179.252183859475 0.971013382175077 -167.467586230434 
14.5                           0.967096791696941 -174.739927455608 0.00446485469011498 179.028411630332 0.00446485469011503 179.02841163033  0.970443248453029 -168.364512788691 
14.55                          0.966409832930962 -175.700201804754 0.00457951187886431 178.826552044029 0.00457951187886435 178.826552044028 0.96985289773492 -169.268184168923 
14.6                           0.965697635778408 -176.668833633969 0.00470121234655793 178.646431365068 0.00470121234655799 178.646431365066 0.969241190103004 -170.178840303691 
14.65                          0.964958763464255 -177.646134557493 0.00483059444062825 178.487751674835 0.00483059444062831 178.487751674833 0.968606898816741 -171.096735372092 
14.7                           0.964191669347646 -178.632434516125 0.00496836432821903 178.350077062903 0.00496836432821908 178.350077062901 0.967948701998804 -172.022138855203 
14.75                          0.963394686362119 -179.628083132462 0.00511530385570096 178.232819397808 0.00511530385570101 178.232819397807 0.967265173357254 -172.955336687193 
14.8                           0.962566015226621 179.366548810783 0.00527227938511618 178.135223854652 0.00527227938511624 178.135223854651 0.966554771812186 -173.896632512466 
14.85                          0.961703711258591 178.351067756037 0.00544025174130786 178.056354412309 0.00544025174130793 178.056354412308 0.965815829874434 -174.846349060488 
14.9                           0.96080566959366 177.325055604675 0.0056202874248971 177.995079566933 0.00562028742489711 177.995079566933 0.965046540599425 -175.80482965144 
14.95                          0.959869608584991 176.288067782469 0.00581357127176414 177.950058538544 0.00581357127176417 177.950058538544 0.964244942910369 -176.772439847512 
15                             0.95889305111795 175.23963111756  0.00602142077013817 177.919728271111 0.00602142077013819 177.919728271111 0.9634089050507  -177.749569266596 
15.05                          0.957873303531529 174.179241509399 0.00624530228283682 177.902291540676 0.00624530228283686 177.902291540676 0.96253610588491 -178.736633577314 
15.1                           0.956807431785288 173.106361364216 0.00648684946588759 177.895706487622 0.00648684946588759 177.895706487622 0.961624013718377 -179.734076696886 
15.15                          0.955692234447705 172.020416769379 0.00674788422721774 177.897677874988 0.00674788422721776 177.897677874988 0.960669862248674 179.257626783828 
15.2                           0.954524212006595 170.920794375253 0.00703044063215507 177.905650342193 0.00703044063215508 177.905650342193 0.959670623191178 178.2379689204   
15.25                          0.953299531911929 169.806837948957 0.00733679223834347 177.916803870289 0.00733679223834345 177.916803870289 0.958622975037984 177.206405448578 
15.3                           0.952013988652583 168.67784455951  0.00766948343402959 177.928051599965 0.00766948343402961 177.928051599966 0.957523267307916 176.162352495848 
15.35                          0.950662958037082 167.533060348368 0.00803136546376898 177.936040046753 0.00803136546376901 177.936040046753 0.95636747952291 175.105182930034 
15.4                           0.949241344689048 166.371675832935 0.00842563795840475 177.937151640769 0.00842563795840476 177.937151640769 0.955151173997119 174.034222298445 
15.45                          0.947743521574242 165.192820683495 0.00885589694654774 177.927509383738 0.00885589694654778 177.927509383738 0.953869441343605 172.948744304578 
15.5                           0.946163260139568 163.99555790575  0.00932619051871362 177.902983268159 0.00932619051871366 177.90298326816  0.952516837381378 171.847965762042 
15.55                          0.944493649354813 162.778877351973 0.00984108355012247 177.859197947796 0.00984108355012253 177.859197947797 0.951087309853004 170.731040957019 
15.6                           0.94272700159214 161.541688473379 0.0104057331730757 177.791540991207 0.0104057331730757 177.791540991208 0.949574113027203 169.59705534123  
15.65                          0.940854742839829 160.282812214877 0.0110259770361088 177.695170896859 0.0110259770361088 177.69517089686  0.947969707845901 168.445018466995 
15.7                           0.938867284204485 159.000971940837 0.0117084368088302 177.565023905035 0.0117084368088303 177.565023905034 0.946265644760487 167.27385606464  
15.75                          0.936753870983169 157.694783267144 0.0124606399058994 177.39581851214  0.0124606399058995 177.39581851214  0.944452425761644 166.082401150344 
15.8                           0.93450240474976 156.36274266108  0.0132911630325186 177.182056479183 0.0132911630325187 177.182056479183 0.942519341307629 164.869384040059 
15.85                          0.9320992328552  155.003214657288 0.0142098019236051 176.918019027223 0.0142098019236052 176.918019027223 0.940454276854957 163.633421132961 
15.9                           0.929528898434363 153.614417526619 0.0152277725918901 176.59775682482  0.0152277725918901 176.59775682482  0.938243482438701 162.373002317401 
15.95                          0.92677384237389 152.194407227468 0.0163579505557337 176.215072288854 0.0163579505557337 176.215072288854 0.93587129716811 161.086476845628 
16                             0.923814046638236 150.741059469992 0.0176151559321191 175.763492630813 0.0176151559321191 175.763492630813 0.933319818509251 159.772037524028 
16.05                          0.920626605766687 149.252049738537 0.0190164940083059 175.23623197327  0.0190164940083059 175.23623197327  0.930568503709717 158.42770307896  
16.1                           0.917185210108403 147.724831156361 0.0205817630076184 174.626140721626 0.0205817630076183 174.626140721626 0.927593687543718 157.051298593084 
16.15                          0.913459520294957 146.156610154475 0.0223339433042463 173.925640189294 0.0223339433042463 173.925640189294 0.924367996551584 155.640433977398 
16.2                           0.909414407374417 144.544320047228 0.0242997853767139 173.126640225893 0.0242997853767138 173.126640225893 0.920859634917292 154.192480571752 
16.25                          0.905009026746988 142.884592858708 0.0265105173557377 172.220437275966 0.0265105173557376 172.220437275966 0.917031510848612 152.704546185647 
16.3                           0.900195686361584 141.173730145304 0.0290026971019651 171.197589894404 0.0290026971019649 171.197589894404 0.912840164571375 151.173449255603 
16.35                          0.894918460442374 139.407674214083 0.0318192382139998 170.047768269776 0.0318192382139997 170.047768269776 0.908234449646845 149.595693389836 
16.4                           0.889111489402488 137.581982190717 0.0350106438757134 168.759573784615 0.0350106438757132 168.759573784615 0.903153908253626 147.967444528784 
16.45                          0.882696895106546 135.69180707649  0.0386364862713618 167.320324136013 0.0386364862713616 167.320324136013 0.897526768710262 146.284514481265 
16.5                           0.875582229721243 133.731892617767 0.0427671709977445 165.715799179284 0.0427671709977443 165.715799179284 0.891267481029285 144.54235703178  
16.55                          0.867657369291591 131.696593072471 0.047486022841343 163.929942683009 0.0474860228413428 163.929942683009 0.884273696481064 142.736086676393 
16.6                           0.858790766523772 129.579935709672 0.0528917167539457 161.944516027937 0.0528917167539455 161.944516027937 0.876422595895124 140.860536150771 
16.65                          0.848825003875442 127.375754551483 0.0591010476980382 159.738702297705 0.059101047698038 159.738702297705 0.867566490387985 138.910378538418 
16.7                           0.837571661921898 125.077940677173 0.0662519715201145 157.2886644732   0.0662519715201142 157.2886644732   0.857527679475142 136.880354843943 
16.75                          0.824805682499308 122.68088071409  0.0745067337935857 154.567071662158 0.0745067337935854 154.567071662158 0.846092695587479 134.765671405041 
16.8                           0.810259737437116 120.180195818596 0.0840546998228048 151.542625830915 0.0840546998228046 151.542625830915 0.83300636252131 132.562667553003 
16.85                          0.793619739760235 117.573955060011 0.095114156056919 148.179653447218 0.0951141560569189 148.179653447218 0.817966669768922 130.269907889601 
16.9                           0.774523757255207 114.864627022518 0.107931806004332 144.437878887922 0.107931806004332 144.437878887922 0.800622508311782 127.889930935552 
16.95                          0.752568494941488 112.062155775678 0.12277787047212 140.272577811206 0.12277787047212 140.272577811206 0.780578102407474 125.431988221693 
17                             0.727330524312326 109.188690711639 0.13993362168239 135.635425125277 0.13993362168239 135.635425125277 0.757410818260092 122.916220845354 
17.05                          0.698413676383039 106.28560496302  0.159667034357425 130.476497755728 0.159667034357424 130.476497755728 0.730713060109787 120.379785083606 
17.1                           0.66553874617751 103.423322830698 0.182191696647528 124.74802746371  0.182191696647528 124.748027463709 0.700173481161257 117.885288497243 
17.15                          0.628693829943754 100.713688500611 0.207605698281585 118.410514316995 0.207605698281584 118.410514316995 0.665714838734898 115.531145135617 
17.2                           0.588355501126217 98.3221818373305 0.235813354295756 111.441493965836 0.235813354295756 111.441493965836 0.627698220338647 113.461349893851 
17.25                          0.545758267406862 96.471630379363  0.266445570403092 103.846316398435 0.266445570403092 103.846316398435 0.587172957725578 111.867641550481 
17.3                           0.503115347939713 95.4190694140348 0.298812647469678 95.6686087850681 0.298812647469678 95.668608785068  0.546084428374307 110.969794537836 
17.35                          0.463581030249727 95.3780676220934 0.331935052931169 86.9961686580774 0.331935052931169 86.9961686580774 0.507255928230628 110.954419910498 
17.4                           0.430675030473628 96.3740458621819 0.364682930864746 77.9573923329897 0.364682930864746 77.9573923329897 0.473911281570148 111.865639122519 
17.45                          0.407078138391759 98.0982836246458 0.396003173748624 68.7058142443643 0.396003173748624 68.7058142443644 0.448668248605817 113.49434190111  
17.5                           0.393315805585581 99.9256027873367 0.425150001595915 59.3958324455874 0.425150001595916 59.3958324455874 0.432402497331151 115.377468500393 
17.55                          0.387351405650398 101.175251795737 0.451817169386223 50.1577918086279 0.451817169386225 50.1577918086279 0.423776572518594 116.971609899244 
17.6                           0.38551021068128 101.410337076462 0.476122963688128 41.0810559365599 0.476122963688129 41.0810559365599 0.419847828493893 117.883562906456 
17.65                          0.383925425637503 100.525739283669 0.498479618377608 32.209116402049  0.49847961837761 32.209116402049  0.417245588665737 117.975673927529 
17.7                           0.379506243281848 98.6449788600514 0.519421886465821 23.5450658032511 0.519421886465824 23.545065803251  0.4131034243581  117.320192854418 
17.75                          0.370203207563908 95.9877777026532 0.53945801166354 15.0627339502817 0.539458011663542 15.0627339502816 0.405433574642527 116.103698575751 
17.8                           0.354873748875245 92.794528979929  0.558970341879386 6.71903322428179 0.558970341879388 6.71903322428169 0.393112270394152 114.559675877782 
17.85                          0.333057029308117 89.3094507889644 0.578164470960864 -1.53512773742222 0.578164470960865 -1.5351277374223 0.375736445866919 112.944890654287 
17.9                           0.304809635159357 85.8041414055703 0.597055076848981 -9.74629656332968 0.597055076848982 -9.74629656332975 0.353510369605774 111.54754847837  
17.95                          0.270646791809318 82.6371710222913 0.615477950708774 -17.9522907164954 0.615477950708775 -17.9522907164954 0.327221628564043 110.713533153305 
18                             0.231605346372894 80.3734343911928 0.633122678367558 -26.1781109614396 0.633122678367559 -26.1781109614395 0.298315264627187 110.878025528706 
18.05                          0.189493364886391 80.0407785277486 0.649583583616296 -34.4337959172617 0.649583583616296 -34.4337959172616 0.269046874702212 112.576549548197 
18.1                           0.147588805525523 83.7009479324036 0.664425775192009 -42.7142195216081 0.664425775192009 -42.7142195216079 0.242632658184777 116.36420956686  
18.15                          0.112539897727899 95.2939012627543 0.677258977136708 -51.0008547953171 0.677258977136709 -51.0008547953169 0.223122567359573 122.506988345285 
18.2                           0.097019496784704 117.69225818873  0.687806852444982 -59.2653359651974 0.687806852444984 -59.2653359651972 0.214444106074639 130.428736712719 
18.25                          0.11050918655357 140.293477262508 0.695957360458316 -67.4743085475914 0.695957360458318 -67.4743085475912 0.218481624214701 138.517216175032 
18.3                           0.143446509935183 151.996153757514 0.701782899689669 -75.5947342702969 0.701782899689671 -75.5947342702968 0.233799487595424 145.020053674397 
18.35                          0.182929173003337 155.40850331177  0.705527107679997 -83.5987016638143 0.705527107679998 -83.5987016638142 0.256673069497098 149.113918905157 
18.4                           0.222419836570064 154.504561758934 0.707564602781144 -91.46696773403  0.707564602781145 -91.4669677340299 0.283116375182816 150.910517438161 
18.45                          0.258972611321845 151.353899251551 0.708346266189846 -99.1908473428641 0.708346266189846 -99.1908473428641 0.310007403675523 150.902000744585 
18.5                           0.291174466216369 146.948967845375 0.708343610139135 -106.7724989576  0.708343610139135 -106.7724989576  0.335244664207546 149.589186327682 
18.55                          0.318353544954221 141.78680404081  0.708002228062276 -114.223966260392 0.708002228062275 -114.223966260392 0.357538483423661 147.363242241106 
18.6                           0.340250577468691 136.126499442399 0.707708971916689 -121.565457244541 0.707708971916687 -121.565457244541 0.376167917231323 144.501372487368 
18.65                          0.356855202358971 130.10350437858  0.707772865035112 -128.823304538178 0.707772865035109 -128.823304538178 0.390791348433172 141.191987030779 
18.7                           0.368313506276947 123.784032606153 0.708417046638727 -136.02792790839 0.708417046638723 -136.02792790839 0.401315169885745 137.560250026925 
18.75                          0.374874936634961 117.192947492863 0.709778227825101 -143.211983329776 0.709778227825097 -143.211983329776 0.407808049594498 133.687457925113 
18.8                           0.37686550698878 110.329003202558 0.711910574586038 -150.408775646154 0.711910574586034 -150.408775646153 0.410448341729625 129.624257781897 
18.85                          0.37468022805676 103.173645197612 0.714791916336171 -157.650948540866 0.714791916336167 -157.650948540866 0.409494775217382 125.398948505158 
18.9                           0.368789765707128 95.6964281692331 0.718331197333745 -164.969443167325 0.718331197333742 -164.969443167325 0.405272651847293 121.021919453244 
18.95                          0.35975696862292 87.8588151058373 0.722376847050225 -172.392724160633 0.722376847050224 -172.392724160632 0.398169158302544 116.486846392889 
19                             0.34825879661846 79.6176954439467 0.726726092622861 -179.946294927845 0.72672609262286 -179.946294927845 0.388632337746749 111.768904625122 
19.05                          0.335108486295597 70.9300270785817 0.731135104395371 172.347451879038 0.731135104395371 172.347451879038 0.377169293521663 106.820081104568 
19.1                           0.321271610365957 61.7603366179174 0.735329259230485 164.468993834857 0.735329259230485 164.468993834857 0.364341048799764 101.561763584156 
19.15                          0.307868273301328 52.0929776709988 0.739011838822339 156.40101529438  0.739011838822339 156.401015294379 0.35075503939079 95.8752811932469 
19.2                           0.296152841897698 41.9500561738505 0.741868423084299 148.127354577525 0.741868423084296 148.127354577525 0.337062104975078 89.5921325203463 
19.25                          0.287464345253376 31.4121902061517 0.743563544497278 139.63171313905  0.743563544497274 139.63171313905  0.323972559365812 82.4874961231397 
19.3                           0.283148176847347 20.6320782701977 0.743726442480638 130.896444095296 0.743726442480631 130.896444095295 0.312312211657167 74.2836762830224 
19.35                          0.284463784762495 9.8242966588535  0.741924689664405 121.901935715963 0.741924689664396 121.901935715962 0.303135666852469 64.6748719655459 
19.4                           0.292504165788229 -0.780413045475792 0.737628769314161 112.627302237058 0.73762876931415 112.627302237058 0.29788499255414 53.3898029197889 
19.45                          0.308141308920588 -11.0051347906688 0.730177952724156 103.053222637795 0.730177952724145 103.053222637795 0.298508765749118 40.304803984625  
19.5                           0.331972348377193 -20.7841100599722 0.718767888332139 93.167694575527  0.718767888332129 93.1676945755269 0.307355663739037 25.5833000838642 
19.55                          0.364211586958969 -30.1710698620644 0.702490466740109 82.9749643237628 0.702490466740102 82.9749643237628 0.326652551497844 9.74192798684798 
19.6                           0.404504349125448 -39.2936636745642 0.680458637310814 72.5066784195893 0.680458637310812 72.5066784195894 0.357648791716206 -6.47399805530418 
19.65                          0.451726545532843 -48.2824298353695 0.652028669819638 61.8323445088178 0.652028669819642 61.8323445088178 0.399905778324927 -22.3590969463578 
19.7                           0.503910430911456 -57.2116900135543 0.617079181013386 51.0642396091104 0.617079181013394 51.06423960911   0.451198437353553 -37.4439476763197 
19.75                          0.558425115202252 -66.0750936222712 0.576236855713095 40.3517666541383 0.576236855713105 40.3517666541372 0.508039944801666 -51.5040320843879 
19.8                           0.612417557124173 -74.7969373572128 0.530911540076702 29.8636626806771 0.530911540076712 29.8636626806754 0.566516656557625 -64.4668885955855 
19.85                          0.663356469016148 -83.2651845972395 0.483075396203167 19.7625618003164 0.483075396203175 19.7625618003139 0.62310282017234 -76.3297300459281 
19.9                           0.709448879468286 -91.3676884413801 0.434863954403787 10.1809874348465 0.43486395440379 10.1809874348434 0.675213684960157 -87.1209485457374 
19.95                          0.749783831781113 -99.0179318281132 0.388174927860727 1.20695082921587 0.388174927860727 1.20695082921234 0.721389421862482 -96.8894507221222 
20                             0.784220330470283 -106.165661975951 0.344413698054106 -7.11820216425822 0.344413698054102 -7.11820216426202 0.761163263575476 -105.701736035713 
20.05                          0.813143104706628 -112.795301746406 0.304426316900991 -14.7926217366129 0.304426316900985 -14.7926217366167 0.794767602345984 -113.63771721316 
20.1                           0.837211385744413 -118.91795200833 0.268569980353471 -21.8426206262183 0.268569980353462 -21.8426206262219 0.822826744053969 -120.784552083035 
20.15                          0.857169181326888 -124.561967287321 0.236843776535858 -28.3114311916032 0.236843776535848 -28.3114311916064 0.8461190537122  -127.23038681572 
20.2                           0.87373055856509 -129.764883996552 0.209021267098157 -34.2502542612989 0.209021267098147 -34.2502542613017 0.865427274277873 -133.059498510022 
20.25                          0.887524779815309 -134.567608097078 0.184756610596755 -39.7121095739778 0.184756610596746 -39.7121095739801 0.881461305957515 -138.349283881375 
20.3                           0.899079577793424 -139.010729474155 0.16365803575945 -44.7481049727646 0.163658035759442 -44.7481049727665 0.894828761294388 -143.168857808894 
20.35                          0.908824764588721 -143.132454304507 0.145333258503129 -49.4054674014548 0.145333258503122 -49.4054674014562 0.906032275150149 -147.578787712378 
20.4                           0.917104605589647 -146.967625368306 0.129414499552111 -53.7267221982041 0.129414499552105 -53.7267221982051 0.915479442721991 -151.63151137544 
20.45                          0.924192523026364 -150.547410544724 0.115570150156882 -57.749556353001 0.115570150156878 -57.7495563530016 0.923497204174005 -155.37210018245 
20.5                           0.930305037614511 -153.899368478665 0.103508386524302 -61.5070525164101 0.103508386524298 -61.5070525164104 0.930346503978629 -158.839148577396 
20.55                          0.935613749325105 -157.047705822322 0.0929763085962542 -65.0280983613435 0.0929763085962518 -65.0280983613435 0.936235406626898 -162.065662632629 
20.6                           0.940255112715871 -160.013614965444 0.0837568462272442 -68.3378570054685 0.0837568462272428 -68.3378570054685 0.941330094341966 -165.079882475731 
20.65                          0.944338182863464 -162.815629636405 0.0756647597424017 -71.4582359878029 0.075664759742401 -71.4582359878027 0.945763762970815 -167.906011147898 
20.7                           0.947950652625423 -165.469965569032 0.0685424748535177 -74.4083236223182 0.0685424748535176 -74.408323622318 0.949643671132469 -170.564843815742 
20.75                          0.951163517325304 -167.990830966501 0.062256134080652 -77.2047796459613 0.0622561340806525 -77.2047796459612 0.953056662266952 -173.074302260404 
20.8                           0.95403466575185 -170.390701367532 0.0566920377272277 -79.8621770237172 0.0566920377272285 -79.8621770237172 0.956073465715992 -175.44988447876 
20.85                          0.956611643834372 -172.680558789151 0.0517535305326295 -82.3932968852604 0.0517535305326305 -82.3932968852606 0.958752040287582 -177.705040763736 
20.9                           0.95893378591432 -174.870097609265 0.0473583283776421 -84.8093809087755 0.0473583283776434 -84.8093809087759 0.961140175025404 -179.851487417421 
20.95                          0.961033864271003 -176.967900731432 0.043436249687817 -87.1203462787606 0.0434362496878182 -87.1203462787613 0.963277516928777 178.100531769229 
21                             0.962939371806331 -178.98158983692 0.0399273044163885 -89.3349683532393 0.0399273044163899 -89.3349683532403 0.96519715746593 176.142027447303 
21.05                          0.964673524903468 179.082046623514 0.0367800913724189 -91.4610357972769 0.0367800913724203 -91.4610357972781 0.966926879264743 174.265082563526 
21.1                           0.966256052152025 177.216944387107 0.0339504573791372 -93.5054824044919 0.0339504573791387 -93.5054824044933 0.968490140542756 172.462699880959 
21.15                          0.967703818518858 175.417670381307 0.0314003765901641 -95.4744992592018 0.0314003765901653 -95.4744992592035 0.969906856499112 170.728673991403 
21.2                           0.969031322441286 173.679343273133 0.0290970137815661 -97.3736303503358 0.0290970137815673 -97.3736303503375 0.971194022900002 169.057483562647 
21.25                          0.970251094253737 171.997565444551 0.027011940814031 -99.2078542613898 0.0270119408140321 -99.2078542613917 0.972366216465216 167.44420033016  
21.3                           0.971374017569053 170.368364606197 0.0251204803649411 -100.981654137117 0.025120480364942 -100.981654137119 0.973435998610366 165.884411975026 
21.35                          0.972409590142747 168.788143549577 0.0234011553304741 -102.699077766463 0.023401155330475 -102.699077766465 0.974414242993685 164.374156547482 
21.4                           0.973366136918131 167.253636782371 0.021835225976316 -104.363789317153 0.0218352259763168 -104.363789317155 0.97531040267946 162.909866517478 
21.45                          0.974250985059   165.761872996949 0.0204063000129491 -105.979114003301 0.0204063000129497 -105.979114003303 0.976132729199549 161.488320876929 
21.5                           0.975070608585231 164.310142493927 0.0191000033529681 -107.548076756278 0.0191000033529687 -107.54807675628 0.976888453097042 160.106603997491 
21.55                          0.975830748557982 162.895968825453 0.0179037014451171 -109.073435793917 0.0179037014451174 -109.073435793919 0.977583933467519 158.762070174629 
21.6                           0.976536513484349 161.517084041628 0.0168062628417332 -110.557711838156 0.0168062628417335 -110.557711838158 0.978224782420188 157.452312973621 
21.65                          0.977192463629348 160.171407022007 0.015797858105342 -112.003213611032 0.0157978581053423 -112.003213611033 0.978815969148851 156.175138643822 
21.7                           0.977802682163782 158.857024455945 0.014869788350368 -113.41206013936 0.0148697883503682 -113.412060139361 0.979361907344969 154.928542990777 
21.75                          0.978370835486494 157.572174103572 0.0140143386932393 -114.786200315692 0.0140143386932394 -114.786200315693 0.979866528937487 153.710691196679 
21.8                           0.978900224598381 156.315230025801 0.0132246526869525 -116.127430094361 0.0132246526869526 -116.127430094362 0.980333346557648 152.519900162643 
21.85                          0.979393829043344 155.084689519016 0.0124946244761589 -117.43740764403 0.0124946244761589 -117.437407644031 0.980765506664872 151.354623014529 
21.9                           0.979854344645371 153.879161529517 0.0118188059521141 -118.717666730188 0.0118188059521141 -118.717666730188 0.981165834903931 150.213435470564 
21.95                          0.980284216043924 152.697356355904 0.0111923266347301 -119.969628560864 0.0111923266347301 -119.969628560863 0.981536874972608 149.095023815711 
22                             0.980685664848714 151.538076475305 0.0106108243788665 -121.194612295035 0.0106108243788665 -121.194612295035 0.981880922046526 147.998174266673 
22.05                          0.981060714089756 150.400208352755 0.0100703853080695 -122.393844384743 0.0100703853080695 -122.393844384742 0.982200051621228 146.921763543755 
22.1                           0.981411209521636 149.282715112735 0.00956749163273184 -123.56846689786 0.00956749163273184 -123.568466897858 0.982496144481165 145.86475049297  
22.15                          0.981738838246211 148.184629968574 0.00909897622048907 -124.719544948117 0.00909897622048906 -124.719544948115 0.982770908383508 144.826168624417 
22.2                           0.982045145040984 147.105050319597 0.00866198296222685 -125.848073341639 0.00866198296222685 -125.848073341637 0.983025896945697 143.805119452125 
22.25                          0.982331546717489 146.043132437903 0.00825393212356904 -126.954982534515 0.00825393212356904 -126.954982534512 0.983262526144885 142.800766536624 
22.3                           0.982599344782399 144.998086676977 0.00787248999423747 -128.041143983349 0.00787248999423747 -128.041143983346 0.983482088771228 141.812330145159 
22.35                          0.982849736631566 143.96917314307  0.00751554225036691 -129.107374959945 0.00751554225036697 -129.107374959942 0.983685767122529 140.839082456002 
22.4                           0.983083825472012 142.95569777784  0.00718117053112227 -130.154442892051 0.00718117053112233 -130.154442892048 0.983874644182796 139.880343243153 
22.45                          0.983302629137675 141.957008807198 0.00686763180359012 -131.183069284158 0.00686763180359018 -131.183069284155 0.984049713490008 138.9354759861   
22.5                           0.983507087940333 140.972493516858 0.0065733401511938 -132.193933265474 0.00657334015119387 -132.193933265471 0.984211887867445 138.00388435647  
22.55                          0.983698071676777 140.001575319913 0.00629685067268883 -133.187674806335 0.00629685067268889 -133.187674806332 0.984362007167042 137.085009039542 
22.6                           0.983876385896129 139.043711085914 0.00603684522270069 -134.164897639177 0.00603684522270079 -134.164897639174 0.984500845151639 136.178324853869 
22.65                          0.984042777516803 138.098388704508 0.00579211976204375 -135.126171915799 0.00579211976204384 -135.126171915796 0.984629115624808 135.283338136794 
22.7                           0.984197939870389 137.165124859855 0.00556157311778186 -136.072036628801 0.00556157311778193 -136.072036628799 0.984747477901612 134.399584367585 
22.75                          0.984342517239388 136.243462994763 0.00534419698003702 -137.003001821757 0.00534419698003712 -137.003001821754 0.984856541700758 133.526626003267 
22.8                           0.984477108946899 135.332971445838 0.00513906698565975 -137.919550609778 0.00513906698565984 -137.919550609776 0.984956871527592 132.664050505222 
22.85                          0.984602273048868 134.433241733062 0.00494533475865422 -138.822141029628 0.00494533475865428 -138.822141029626 0.985048990608119 131.811468537143 
22.9                           0.984718529673042 133.543886989004 0.00476222079421861 -139.711207736294 0.00476222079421866 -139.711207736294 0.985133384426235 130.968512317171 
22.95                          0.984826364043244 132.664540514503 0.00458900808783841 -140.58716356106 0.00458900808783843 -140.58716356106 0.985210503909627 130.134834108995 
23                             0.984926229222864 131.794854449024 0.0044250364234228 -141.450400944379 0.00442503642342279 -141.450400944379 0.985280768303935 129.310104838381 
