! Touchstone file exported from HFSS 3D Layout Design 2026.1.0
!        File:           D:/Work/SIM/ADS_AUTO_SIM/projects/RFSOC_RF/TX_Fillter.aedt
!        Generated:      09:45:22 PM Aug 30, 2026
!        Design:         TX_BAND1_MCFIL_R1_CNN004
!        Project:        TX_Fillter
!
# GHz S MA R 50.000000
! Terminal data exported
! Port[1] = Port1
! Port[2] = Port2
14                             0.960264710786093 162.206190233956 0.00720791384181297 139.555892291687 0.00720791384181297 139.555892291687 0.964115084691903 80.233170972345  
14.05                          0.959496920366468 161.116451461289 0.00735805358775999 139.001565301404 0.00735805358775997 139.001565301405 0.963751196162396 79.292001068354  
14.1                           0.958706192080268 160.016668220825 0.00751513041865884 138.4525561739   0.00751513041865883 138.4525561739   0.96338467558965 78.3495981711747 
14.15                          0.957891552680376 158.90653026277  0.00767957476207811 137.908496437929 0.00767957476207807 137.908496437929 0.96301510396516 77.4059185024287 
14.2                           0.957051974967417 157.785714170633 0.00785184796914927 137.368982904993 0.00785184796914926 137.368982904993 0.962642053745309 76.4609163427126 
14.25                          0.95618637404475 156.653882655635 0.00803244480300972 136.833576357687 0.00803244480300971 136.833576357687 0.96226508788579 75.5145439140031 
14.3                           0.955293603257293 155.510683804318 0.00822189615271956 136.301800279746 0.00822189615271954 136.301800279746 0.961883758779453 74.5667512531039 
14.35                          0.95437244978241 154.355750275577 0.00842077199604709 135.773139635834 0.00842077199604707 135.773139635834 0.961497607086941 73.6174860753259 
14.4                           0.953421629837362 153.188698442992 0.00862968463730083 135.247039708684 0.00862968463730078 135.247039708684 0.961106160448135 72.6666936275042 
14.45                          0.952439783463591 152.009127477922 0.00884929224953851 134.722905000443 0.00884929224953848 134.722905000443 0.96070893206086 71.7143165293674 
14.5                           0.951425468843316 150.816618368364 0.00908030275405832 134.200098204173 0.00908030275405828 134.200098204173 0.960305419111557 70.7602946021667 
14.55                          0.950377156098425 149.610732868109 0.00932347807413452 133.677939250177 0.0093234780741345 133.677939250177 0.959895101040586 69.8045646833601 
14.6                           0.949293220515422 148.391012370138 0.00957963880457043 133.155704430275 0.00957963880457039 133.155704430275 0.959477437622449 68.8470604260156 
14.65                          0.948171935133032 147.156976697592 0.00984966934388527 132.632625601297 0.00984966934388526 132.632625601298 0.959051866838595 67.8877120814547 
14.7                           0.947011462620922 145.908122804952 0.0101345235419249 132.107889466867 0.0101345235419249 132.107889466867 0.958617802517272 66.9264462634941 
14.75                          0.945809846368579 144.643923381248 0.0104352309224938 131.580636934017 0.0104352309224938 131.580636934017 0.958174631711367 65.9631856924661 
14.8                           0.944565000692641 143.363825346292 0.0107529035483816 131.049962538344 0.0107529035483816 131.049962538344 0.957721711780937 64.9978489169932 
14.85                          0.943274700058522 142.06724822985  0.0110887436050375 130.514913928213 0.0110887436050375 130.514913928213 0.957258367142335 64.0303500112677 
14.9                           0.941936567197836 140.753582422623 0.0114440517893178 129.974491395033 0.0114440517893178 129.974491395033 0.956783885640148 63.0605982453346 
14.95                          0.940548059986525 139.422187286588 0.0118202366013785 129.427647432829 0.0118202366013785 129.427647432828 0.956297514491635 62.0884977255894 
15                             0.939106456929317 138.072389110821 0.0122188246511579 128.873286306226 0.0122188246511579 128.873286306226 0.955798455745603 61.1139470023888 
15.05                          0.937608841073789 136.703478897311 0.0126414721062573 128.310263601615 0.0126414721062573 128.310263601615 0.955285861188713 60.1368386413123 
15.1                           0.936052082151188 135.314709959398 0.013089977425711 127.7373857316   0.0130899774257111 127.7373857316   0.954758826621583 59.1570587542167 
15.15                          0.934432816710748 133.905295313373 0.0135662955445177 127.153409357962 0.0135662955445177 127.153409357962 0.954216385414657 58.1744864857804 
15.2                           0.932747425978559 132.474404841387 0.0140725536973284 126.55704069322  0.0140725536973284 126.55704069322  0.953657501239098 57.1889934507343 
15.25                          0.930992011130227 131.02116220105  0.0146110690968894 125.946934635436 0.0146110690968894 125.946934635436 0.953081059850677 56.2004431164258 
15.3                           0.929162365617345 129.544641454    0.0151843687143255 125.321693685215 0.0151843687143256 125.321693685215 0.952485859784036 55.2086901247404 
15.35                          0.927253944129778 128.043863382106 0.0157952114448737 124.679866587797 0.0157952114448737 124.679866587797 0.951870601790354 54.2135795467279 
15.4                           0.925261827707166 126.51779145589  0.0164466129850901 124.019946636694 0.0164466129850901 124.019946636694 0.951233876822363 53.214946062519  
15.45                          0.92318068443172 124.965327414996 0.0171418737968907 123.340369568337 0.0171418737968907 123.340369568337 0.950574152336037 52.2126130582954 
15.5                           0.921004725037812 123.385306415145 0.0178846105912475 122.639510969638 0.0178846105912476 122.639510969638 0.949889756636795 51.2063916311711 
15.55                          0.918727652658733 121.776491689754 0.0186787918313884 121.915683111962 0.0186787918313885 121.915683111962 0.949178860948332 50.1960794918707 
15.6                           0.916342605793514 120.137568667206 0.0195287778336142 121.167131115562 0.0195287778336143 121.167131115562 0.948439458822408 49.1814597540562 
15.65                          0.913842093412081 118.467138476493 0.0204393661353551 120.392028337856 0.0204393661353552 120.392028337856 0.947669342435854 48.162299598075  
15.7                           0.911217920919304 116.763710764394 0.0214158429071562 119.58847086655  0.0214158429071562 119.58847086655  0.946866075234008 47.1383487958105 
15.75                          0.908461105460541 115.025695736369 0.0224640413106715 118.754470984282 0.0224640413106715 118.754470984282 0.946026960274288 46.109338082258  
15.8                           0.905561778764073 113.251395320678 0.0235904078516318 117.887949454565 0.0235904078516319 117.887949454565 0.945149003495654 45.0749773585029 
15.85                          0.902509075368353 111.438993340711 0.0248020779488483 116.986726458902 0.0248020779488484 116.986726458902 0.944228870983853 44.034953710054  
15.9                           0.899291003660589 109.586544563794 0.0261069621418666 116.048510991206 0.0261069621418667 116.048510991205 0.943262839112428 42.9889292241564 
15.95                          0.895894296640964 107.691962475727 0.02751384459571 115.070888487433 0.0275138445957101 115.070888487433 0.942246736207351 41.9365385900232 
16                             0.892304238702801 105.753005608637 0.0290324958366053 114.051306434594 0.0290324958366054 114.051306434594 0.941175874099015 40.8773864672432 
16.05                          0.888504463957537 103.767262225358 0.0306738019734529 112.987057662983 0.030673801973453 112.987057662983 0.940044967577061 39.8110446104824 
16.1                           0.88447672070239 101.732133136376 0.0324499130320796 111.875260977344 0.0324499130320796 111.875260977344 0.938848039336085 38.7370487437426 
16.15                          0.880200595489247 99.644812395616  0.0343744134586906 110.712838725358 0.0343744134586907 110.712838725358 0.937578307475394 37.654895185995  
16.2                           0.87565318885755 97.5022655896015 0.0364625183400974 109.49649083365  0.0364625183400974 109.49649083365  0.936228051971456 36.5640372435269 
16.25                          0.870808733084099 95.3012054019109 0.038731299443339 108.222664760904 0.038731299443339 108.222664760904 0.934788455750896 35.4638814051346 
16.3                           0.865638140209404 93.0380641037287 0.0411999457937488 106.887520722813 0.0411999457937489 106.887520722813 0.933249415023768 34.3537834076167 
16.35                          0.860108466042517 90.7089625954571 0.0438900641772366 105.48689143295  0.0438900641772367 105.48689143295  0.931599312355831 33.2330442856333 
16.4                           0.854182272731695 88.3096756103512 0.0468260256443209 104.016235476093 0.0468260256443209 104.016235476092 0.929824744526502 32.1009065886975 
16.45                          0.847816868717212 85.8355926996078 0.0500353647613026 102.47058328578  0.0500353647613026 102.470583285779 0.927910195498429 30.9565510487293 
16.5                           0.84096340035663 83.2816746664451 0.0535492389109546 100.844474537773 0.0535492389109547 100.844474537773 0.925837642785848 29.7990941284601 
16.55                          0.833565764153714 80.6424052318881 0.05740295524363 99.131885600408  0.0574029552436301 99.1318856004079 0.923586083144628 28.627587094616  
16.6                           0.825559302307208 77.9117379409008 0.0616365726768163 97.3261455123433 0.0616365726768163 97.3261455123432 0.921130960857953 27.4410175699788 
16.65                          0.816869237322902 75.0830387234485 0.0662955852455036 95.4198388080148 0.0662955852455036 95.4198388080147 0.918443479091972 26.2383149680413 
16.7                           0.80740879403525 72.1490252210455 0.0714316904968968 93.4046934167297 0.0714316904968968 93.4046934167296 0.915489772152763 25.0183618647669 
16.75                          0.797076950331046 69.1017051502103 0.0771036415312155 91.2714518834186 0.0771036415312155 91.2714518834186 0.912229914604793 23.7800143021949 
16.8                           0.785755752697267 65.932317878994  0.083378172219647 89.0097243976106 0.0833781722196469 89.0097243976105 0.908616743262324 22.5221353732423 
16.85                          0.773307132304378 62.6312864885174 0.0903309698059511 86.607822734211  0.0903309698059512 86.607822734211  0.904594472099848 21.2436483801504 
16.9                           0.759569166822768 59.1881925994307 0.0980476441197787 84.0525754621054 0.0980476441197787 84.0525754621054 0.90009709172316 19.943618626863  
16.95                          0.744351761436909 55.5917943360884 0.106624603031341 81.3291270643845 0.106624603031341 81.3291270643845 0.895046570248173 18.6213768050156 
17                             0.727431784510524 51.830120906023  0.116169682541394 78.4207275452321 0.116169682541394 78.4207275452321 0.889350921212141 17.2767023315679 
17.05                          0.708547813518462 47.8906985997915 0.126802287607148 75.3085255709942 0.126802287607148 75.3085255709942 0.882902292405668 15.9100922624809 
17.1                           0.687394863986425 43.7609980178859 0.138652664873272 71.9713884768479 0.138652664873271 71.9713884768479 0.875575381673392 14.5231507385839 
17.15                          0.663619847404132 39.4292505045457 0.151859739037047 68.3857882462992 0.151859739037047 68.3857882462992 0.867226737016851 13.1191449244331 
17.2                           0.636819118717089 34.8858802587932 0.166566694025454 64.5258158095083 0.166566694025454 64.5258158095083 0.857695894558841 11.7037841925371 
17.25                          0.606540443404171 30.1259698787732 0.182913180076927 60.363418452301  0.182913180076927 60.363418452301  0.846809896780686 10.2862847135306 
17.3                           0.572293170204702 25.1534866418891 0.201022733663419 55.8689969392761 0.201022733663419 55.8689969392762 0.834393534549256 8.88076996186992 
17.35                          0.533572460254546 19.9885868927982 0.22098385216852 51.0125458224698 0.22098385216852 51.0125458224699 0.82028858705859 7.50800573205494 
17.4                           0.489906177796454 14.6805228170944 0.242823459831798 45.7655584334777 0.242823459831798 45.7655584334777 0.804386058264819 6.19733553652414 
17.45                          0.440936641340342 9.33136798908749 0.266472718091188 40.1039165742168 0.266472718091188 40.1039165742169 0.786675096006509 4.98840990272497 
17.5                           0.386554981278533 4.14240624634228 0.291727882636578 34.0118906688905 0.291727882636578 34.0118906688905 0.767309358383137 3.93183478715108 
17.55                          0.327119672177014 -0.486852256613586 0.318213576502169 27.4871192513353 0.318213576502169 27.4871192513353 0.746683868991933 3.0872235483124  
17.6                           0.263842538167864 -3.7223057523874 0.345361770205794 20.5459675273166 0.345361770205794 20.5459675273166 0.725501403936547 2.51660044844399 
17.65                          0.199647727732463 -3.66267915223282 0.372424127435283 13.228037148269  0.372424127435284 13.228037148269  0.704789944746882 2.27142753512023 
17.7                           0.141755054922898 4.3303409809422  0.398533047058118 5.59807135027418 0.398533047058118 5.59807135027417 0.685823500615755 2.37388363468849 
17.75                          0.108875120381584 27.8940481358268 0.422813012579228 -2.25646751979473 0.422813012579228 -2.25646751979474 0.669918040748174 2.79791779906348 
17.8                           0.124118222257173 56.0278033808647 0.444520564306995 -10.2328767651545 0.444520564306995 -10.2328767651546 0.658134833882972 3.46060482334675 
17.85                          0.172023987501561 68.202926646264  0.46317070774979 -18.2246595501331 0.46317070774979 -18.2246595501331 0.650999764301907 4.23347892027751 
17.9                           0.228172332062659 69.4977874197087 0.478606335359133 -26.1341087737756 0.478606335359133 -26.1341087737756 0.648372416156281 4.97305422161931 
17.95                          0.282480346512387 66.0260296992737 0.490990267388315 -33.8826625868866 0.490990267388315 -33.8826625868866 0.649527733462714 5.55642797893003 
18                             0.331212215825956 60.3679434225748 0.500732574327146 -41.4167146687858 0.500732574327146 -41.4167146687858 0.65339318096517 5.90477696465808 
18.05                          0.372958282731559 53.6175929947027 0.508387526962533 -48.7084657906627 0.508387526962532 -48.7084657906627 0.658816361097708 5.98757062927188 
18.1                           0.407368655905441 46.2810597377866 0.514555116090103 -55.7530043197877 0.514555116090102 -55.7530043197878 0.66476229466185 5.81247875962106 
18.15                          0.434632782195141 38.6033829136922 0.519808153725639 -62.5634462601439 0.519808153725639 -62.5634462601439 0.670408327191971 5.41044742818294 
18.2                           0.455200214271263 30.6997544875279 0.524649940210138 -69.1657484972252 0.524649940210138 -69.1657484972252 0.675156911416169 4.82280384500178 
18.25                          0.469613432439358 22.6144883859543 0.529497149077066 -75.5942019681442 0.529497149077066 -75.5942019681442 0.67860307427322 4.09289562239695 
18.3                           0.478408290395072 14.3498272167371 0.534678980222491 -81.8880195929295 0.534678980222491 -81.8880195929295 0.680486924498497 3.2619626925794  
18.35                          0.482058899138669 5.88046288783886 0.540444298524822 -88.0890357098307 0.540444298524822 -88.0890357098307 0.680648942314517 2.36798587413036 
18.4                           0.480951723480967 -2.83961901465709 0.546970713077514 -94.2403348448682 0.546970713077514 -94.2403348448682 0.678995803051859 1.44632698476623 
18.45                          0.475378980550093 -11.8750654343341 0.554371741069362 -100.385562968511 0.554371741069363 -100.385562968511 0.675478992524467 0.531358323146613 
18.5                           0.46554608471523 -21.3106821420379 0.56269974477887 -106.568675608887 0.56269974477887 -106.568675608887 0.670086469425513 -0.341369565255836 
18.55                          0.451592386315208 -31.2564182092765 0.571943221294602 -112.833896336726 0.571943221294603 -112.833896336726 0.662847694859809 -1.13266257938216 
18.6                           0.43362943906061 -41.856500212724 0.582017500622387 -119.225669075718 0.582017500622388 -119.225669075718 0.653853402554623 -1.79711889043778 
18.65                          0.411807614308472 -53.3042600444157 0.592748305745054 -125.788376187784 0.592748305745054 -125.788376187784 0.643292696505938 -2.28082688238569 
18.7                           0.386431752650506 -65.864938578313 0.603848368646338 -132.565560209296 0.603848368646339 -132.565560209296 0.631510400572945 -2.52013599076302 
18.75                          0.35816155508277 -79.9080628285423 0.614888914025006 -139.59834205447 0.614888914025007 -139.59834205447 0.619085143793264 -2.4431617086593 
18.8                           0.328350737778838 -95.9432531957726 0.6252709276167  -146.922704481882 0.6252709276167  -146.922704481882 0.606920021852255 -1.97692879628521 
18.85                          0.299575311871844 -114.619876357978 0.634206114369201 -154.565370365741 0.634206114369201 -154.565370365741 0.596318287007059 -1.06409690286618 
18.9                           0.276256892563339 -136.554401286034 0.640723724247493 -162.53824982626 0.640723724247494 -162.53824982626 0.588985216516242 0.307981538378598 
18.95                          0.264708849999235 -161.740760386755 0.643724084626163 -170.831961970255 0.643724084626164 -170.831961970255 0.586868956054436 2.07022881403709 
19                             0.271124302225876 171.273277371943 0.642096606893658 -179.409762158005 0.642096606893659 -179.409762158005 0.591773225591233 4.04559073088424 
19.05                          0.297636254305227 145.049125326579 0.634901872480059 171.795934808226 0.634901872480059 171.795934808226 0.604797362273362 5.96318904464259 
19.1                           0.340798960274801 121.456510892368 0.621583138425019 162.88196929566  0.621583138425019 162.88196929566  0.625848009590358 7.52669638947121 
19.15                          0.394329386967809 100.879624567573 0.602137431083182 153.966337704641 0.602137431083183 153.966337704641 0.653531355972405 8.50669625409517 
19.2                           0.452155669756693 82.9065440695329 0.57716981062341 145.174502335569 0.577169810623411 145.174502335569 0.685528239298939 8.80072407307438 
19.25                          0.509644113701606 67.0073882908782 0.547795434040457 136.623631251526 0.547795434040458 136.623631251526 0.719241091820761 8.43240317203325 
19.3                           0.563729763694165 52.7633050230379 0.51542348875684 128.409355102589 0.51542348875684 128.409355102589 0.752382740598123 7.50799107560725 
19.35                          0.612692143302863 39.8776089842482 0.481506726227797 120.598353498515 0.481506726227797 120.598353498515 0.783304340247404 6.16546607634448 
19.4                           0.655835030239752 28.1385112365093 0.447338590927239 113.227429746649 0.447338590927239 113.227429746649 0.811052067913638 4.5380074943104  
19.45                          0.693159606861863 17.3866439536137 0.413939066104114 106.30745882092  0.413939066104114 106.30745882092  0.835251845770512 2.73591868638531 
19.5                           0.725081447299444 7.49504267386051 0.38202580064416 99.8297216120321 0.38202580064416 99.8297216120321 0.855932340183086 0.842007923342699 
19.55                          0.752216852404401 -1.64172668111693 0.352042678554169 93.7725033620396 0.352042678554169 93.7725033620396 0.873358523980435 -1.0858949968685 
19.6                           0.775240607778737 -10.1132775493307 0.324215125820779 88.1067108458233 0.324215125820779 88.1067108458233 0.8879060907132  -3.00981487937318 
19.65                          0.794802679882188 -17.9965681372435 0.298609937238673 82.8000637141185 0.298609937238673 82.8000637141185 0.899979825705412 -4.90634354477824 
19.7                           0.811486764935382 -25.3579166522512 0.275187751146899 77.8199133231932 0.275187751146898 77.8199133231933 0.909967164128462 -6.76219210712841 
19.75                          0.825795241162414 -32.254510883473 0.253843981192637 73.1349588165445 0.253843981192637 73.1349588165446 0.918215794811295 -8.57081221921017 
19.8                           0.838149027391915 -38.7356732119614 0.234438323213042 68.7161700574396 0.234438323213042 68.7161700574397 0.925025935462782 -10.3299807971293 
19.85                          0.848894794801879 -44.8439715888269 0.216814770521621 64.5371847793611 0.216814770521621 64.5371847793612 0.930650671654632 -12.0401417480984 
19.9                           0.858315025105276 -50.6162022732136 0.200814468112259 60.5743813528775 0.200814468112258 60.5743813528776 0.935300183939756 -13.7033005342313 
19.95                          0.866638461399662 -56.0842513637855 0.186283491959559 56.8067665545587 0.186283491959559 56.8067665545588 0.939147438239649 -15.3223049824175 
20                             0.874049759746545 -61.2758403309939 0.173077193489647 53.215769031052  0.173077193489647 53.2157690310522 0.942334043555155 -16.9003882118147 
20.05                          0.880697869343087 -66.215163405974 0.161062307003405 49.7849944296752 0.161062307003405 49.7849944296752 0.944975655747365 -18.4408858031584 
20.1                           0.886703049923517 -70.9234272639564 0.150117653944924 46.4999748945817 0.150117653944923 46.4999748945818 0.947166684338486 -19.9470669279388 
20.15                          0.892162617404055 -75.4193047784238 0.14013400487407 43.3479307266189 0.14013400487407 43.347930726619  0.948984257341558 -21.4220389268073 
20.2                           0.897155581637717 -79.7193147675465 0.131013466005209 40.3175528304356 0.131013466005209 40.3175528304357 0.950491493539685 -22.8686984991579 
20.25                          0.901746356272415 -83.8381389827457 0.122668624185871 37.3988091440941 0.122668624185871 37.3988091440942 0.951740169338104 -24.2897119145608 
20.3                           0.90598770996732 -87.7888864700429 0.115021595338195 34.5827751878971 0.115021595338195 34.5827751878972 0.952772875731634 -25.6875128243236 
20.35                          0.909923106728461 -91.583314139976 0.108003063219814 31.8614872666076 0.108003063219814 31.8614872666076 0.953624755449948 -27.0643103249864 
20.4                           0.913588559093096 -95.2320110832199 0.101551357968005 29.2278161252542 0.101551357968005 29.2278161252543 0.954324899244634 -28.4221025973729 
20.45                          0.917014095182011 -98.7445529621247 0.0956116002958801 26.6753586248218 0.09561160029588 26.6753586248219 0.954897467801014 -29.7626931873838 
20.5                           0.920224920792496 -102.129631737366 0.0901349226434475 24.1983450442203 0.0901349226434474 24.1983450442203 0.955362593898675 -31.08770812505  
20.55                          0.923242341097241 -105.395165066724 0.0850777698524495 21.7915597932639 0.0850777698524493 21.791559793264  0.955737109024002 -32.3986128070428 
20.6                           0.926084492975839 -108.54838893497 0.080401276918858 19.4502735586576 0.0804012769188578 19.4502735586577 0.956035129868375 -33.6967280338127 
20.65                          0.928766928149033 -111.595936426562 0.0760707186987611 17.1701851564157 0.076070718698761 17.1701851564158 0.956268532954308 -34.9832448872164 
20.7                           0.931303078671096 -114.543905019679 0.0720550252069901 14.9473716058495 0.07205502520699 14.9473716058496 0.95644733982953 -36.2592383178219 
20.75                          0.933704629545379 -117.397914343736 0.0683263557784658 12.7782451607132 0.0683263557784657 12.7782451607133 0.956580030634938 -37.525679422368 
20.8                           0.93598181789771 -120.163155987084 0.0648597254945699 10.6595162278621 0.0648597254945698 10.6595162278621 0.956673800174466 -38.7834464567922 
20.85                          0.938143673967742 -122.844436652817 0.0616326776814952 8.5881612723395  0.061632677681495 8.5881612723396  0.956734767706589 -40.0333346656466 
20.9                           0.940198215912504 -125.446215726351 0.0586249968228117 6.56139495173104 0.0586249968228115 6.56139495173111 0.956768149381298 -41.2760650255455 
20.95                          0.942152607861961 -127.972638128544 0.0558184568088238 4.57664584434762 0.0558184568088236 4.57664584434775 0.956778400434886 -42.5122920056761 
21                             0.94401328866761 -130.427563174123 0.0531966000208757 2.63153523813251 0.0531966000208756 2.63153523813252 0.956769332824657 -43.7426104469436 
21.05                          0.94578607721962 -132.814590030143 0.0507445432921511 0.723858532841064 0.0507445432921509 0.72385853284116 0.956744212855195 -44.9675616559933 
21.1                           0.947476258980605 -135.137080267612 0.0484488072841578 -1.14843112043356 0.0484488072841576 -1.14843112043352 0.95670584245257 -46.1876388030296 
21.15                          0.949088657420218 -137.398177916621 0.0462971662649123 -2.98723725868879 0.0462971662649122 -2.98723725868876 0.956656627032406 -47.4032917042012 
21.2                           0.950627693276699 -139.600827367773 0.0442785156706214 -4.79433289200116 0.0442785156706212 -4.79433289200108 0.956598632342532 -48.6149310610699 
21.25                          0.952097433974333 -141.747789407387 0.0423827551800062 -6.5713718592754 0.0423827551800061 -6.57137185927542 0.956533632210158 -49.8229322217392 
21.3                           0.953501635054476 -143.841655628604 0.0406006853332676 -8.31989894541315 0.0406006853332675 -8.3198989454131 0.956463148762844 -51.0276385208053 
21.35                          0.954843775105155 -145.8848614231  0.0389239159905576 -10.0413589217307 0.0389239159905575 -10.0413589217307 0.956388486403348 -52.2293642485335 
21.4                           0.956127085379149 -147.879697727305 0.0373447851523077 -11.7371046473493 0.0373447851523076 -11.7371046473492 0.956310760585636 -53.4283972935729 
21.45                          0.95735457505616 -149.828321671397 0.0358562868602269 -13.4084043490865 0.0358562868602268 -13.4084043490864 0.956230922251581 -54.6250014980912 
21.5                           0.95852905291852 -151.732766258076 0.0344520070672669 -15.0564481804389 0.0344520070672668 -15.0564481804389 0.956149778635873 -55.8194187594151 
21.55                          0.959653146061466 -153.594949180351 0.0331260665109819 -16.6823541459942 0.0331260665109819 -16.6823541459942 0.956068011023249 -57.0118709080308 
21.6                           0.960729316140619 -155.416680872675 0.0318730697506984 -18.287173465598 0.0318730697506983 -18.287173465598 0.955986189941725 -58.2025613880955 
21.65                          0.961759873564618 -157.199671877211 0.0306880596375584 -19.8718954424579 0.0306880596375584 -19.8718954424579 0.955904788193441 -59.3916767633677 
21.7                           0.962746989964911 -158.94553959647 0.0295664765802712 -21.437451890761 0.0295664765802711 -21.437451890761 0.955824192057571 -60.5793880686324 
21.75                          0.963692709213836 -160.655814494511 0.028504122050368 -22.984721171086 0.0285041220503679 -22.984721171086 0.955744710944546 -61.7658520242299 
21.8                           0.964598957213019 -162.331945801319 0.0274971258407715 -24.5145318756675 0.0274971258407714 -24.5145318756674 0.955666585735426 -62.951212129142 
21.85                          0.965467550634615 -163.975306768393 0.0265419166520603 -26.0276662002615 0.0265419166520602 -26.0276662002614 0.955589996002671 -64.1355996462163 
21.9                           0.966300204765936 -165.587199517973 0.0256351956333132 -27.5248630348124 0.0256351956333132 -27.5248630348123 0.955515066277536 -65.3191344914707 
21.95                          0.967098540582121 -167.168859523527 0.0247739125499571 -29.0068208012159 0.0247739125499571 -29.0068208012158 0.955441871503443 -66.5019260379976 
22                             0.967864091150468 -168.721459754907 0.023955244290613 -30.47420006311  0.023955244290613 -30.4742000631099 0.955370441793248 -67.6840738437389 
22.05                          0.968598307452964 -170.246114517977 0.0231765754593558 -31.9276259297224 0.0231765754593558 -31.9276259297223 0.955300766590333 -68.8656683113225 
22.1                           0.969302563699527 -171.743883015359 0.022435480829797 -33.3676902732858 0.0224354808297969 -33.3676902732857 0.955232798318489 -70.0467912871942 
22.15                          0.969978162193078 -173.21577265216 0.0217297094635577 -34.7949537773499 0.0217297094635577 -34.7949537773499 0.955166455592913 -71.2275166064545 
22.2                           0.970626337798163 -174.662742108145 0.0210571703185638 -36.2099478314188 0.0210571703185638 -36.2099478314187 0.955101626054105 -72.4079105890785 
22.25                          0.971248262057101 -176.085704195676 0.0204159191925895 -37.6131762856779 0.0204159191925896 -37.6131762856779 0.955038168877484 -73.5880324925616 
22.3                           0.971845046991251 -177.485528520866 0.0198041468650012 -39.0051170781262 0.0198041468650012 -39.0051170781262 0.954975917004002 -74.7679349254722 
22.35                          0.972417748619723 -178.863043963721 0.0192201683150278 -40.3862237451488 0.0192201683150279 -40.3862237451488 0.954914679130658 -75.9476642259016 
22.4                           0.972967370223396 179.780959008429 0.018662412908391 -41.756926825446 0.0186624129083911 -41.756926825446 0.954854241494393 -77.1272608083667 
22.45                          0.973494865378494 178.445726181211 0.0181294154560133 -43.1176351662429 0.0181294154560134 -43.1176351662428 0.954794369478189 -78.3067594823428 
22.5                           0.974001140780818 177.13053757541  0.0176198080589943 -44.4687371398268 0.0176198080589944 -44.4687371398267 0.954734809064305 -79.4861897452616 
22.55                          0.974487058879195 175.834705560308 0.0171323126632816 -45.8106017776856 0.0171323126632817 -45.8106017776854 0.954675288156175 -80.665576052518 
22.6                           0.974953440334449 174.557573088353 0.0166657342556242 -47.1435798288279 0.0166657342556242 -47.1435798288278 0.954615517787632 -81.84493806676  
22.65                          0.975401066318382 173.298512042176 0.0162189546396113 -48.4680047482542 0.0162189546396113 -48.4680047482541 0.954555193235614 -83.0242908885081 
22.7                           0.975830680665629 172.056921685741 0.0157909267369962 -49.7841936209967 0.0157909267369962 -49.7841936209966 0.954493995050393 -84.2036452699391 
22.75                          0.976242991889879 170.83222721211  0.0153806693651687 -51.0924480266595 0.0153806693651687 -51.0924480266594 0.954431590015508 -85.3830078134869 
22.8                           0.976638675074813 169.623878380911 0.0149872624466754 -52.3930548489459 0.0149872624466754 -52.3930548489458 0.954367632047984 -86.5623811567492 
22.85                          0.97701837364904 168.431348239161 0.0146098426111596 -53.6862870342731 0.0146098426111595 -53.6862870342729 0.954301763048046 -87.7417641450434 
22.9                           0.977382701053464 167.254131919625 0.0142475991540741 -54.9724043032096 0.0142475991540741 -54.9724043032094 0.954233613706305 -88.9211519928214 
22.95                          0.977732242308718 166.091745511329 0.0138997703200687 -56.2516538181616 0.0138997703200686 -56.2516538181615 0.95416280427535 -90.1005364350401 
23                             0.978067555489621 164.943724997286 0.0135656398821159 -57.5242708104384 0.0135656398821159 -57.5242708104382 0.954088945311776 -91.279905869479 
