! Touchstone file exported from HFSS 3D Layout Design 2026.1.0
!        File:           D:/Work/SIM/ADS_AUTO_SIM/projects/RFSOC_RF/TX_Fillter.aedt
!        Generated:      11:43:56 PM Aug 30, 2026
!        Design:         TX_BAND1_MCFIL_R10_CNN006
!        Project:        TX_Fillter
!
# GHz S MA R 50.000000
! Terminal data exported
! Port[1] = Port1
! Port[2] = Port2
14                             0.966725851385704 -179.653738429102 0.0048871586626303 177.541037441693 0.0048871586626303 177.541037441693 0.968384947463968 -174.083789156568 
14.05                          0.966079142584965 179.343581359973 0.00500020783629316 177.116270197276 0.00500020783629316 177.116270197276 0.967750807843806 -175.028352152593 
14.1                           0.965411943821972 178.332761227392 0.00511912265508858 176.7066705968   0.00511912265508858 176.7066705968   0.967095342746334 -175.981129559398 
14.15                          0.964723271856035 177.313540524095 0.00524436025605332 176.312147283006 0.00524436025605334 176.312147283007 0.966417481656725 -176.942403252255 
14.2                           0.964012080013914 176.285645527275 0.0053764207011705 175.932541729352 0.00537642070117053 175.932541729352 0.965716082646657 -177.912469523232 
14.25                          0.963277253036139 175.248788617221 0.00551585145123421 175.567620771182 0.00551585145123422 175.567620771183 0.964989926409089 -178.891640021   
14.3                           0.962517601414951 174.202667390543 0.00566325234037664 175.217068769385 0.00566325234037667 175.217068769385 0.96423770969146 -179.88024276606 
14.35                          0.961731855164514 173.146963703863 0.00581928111161723 174.880479452115 0.00581928111161725 174.880479452115 0.963458038055959 179.121376751355 
14.4                           0.960918656956053 172.081342641417 0.00598465958193039 174.557347493218 0.00598465958193041 174.557347493218 0.962649417885709 178.112854382641 
14.45                          0.960076554541275 171.005451399292 0.00616018051475327 174.247059899652 0.00616018051475329 174.247059899653 0.961810247544467 177.093806032485 
14.5                           0.95920399237674 169.918918078209 0.00634671528879343 173.948887294099 0.00634671528879344 173.9488872941   0.960938807584343 176.063826260814 
14.55                          0.958299302349439 168.821350375861 0.00654522246473884 173.661975192513 0.00654522246473885 173.661975192513 0.960033249880921 175.022486763864 
14.6                           0.95736069348939 167.712334168766 0.00675675736633897 173.38533538895  0.00675675736633899 173.38533538895  0.959091585557541 173.969334721883 
14.65                          0.95638624053829 166.59143197247  0.00698248280972738 173.117837570736 0.0069824828097274 173.117837570736 0.958111671539961 172.903890999486 
14.7                           0.955373871223642 165.458181267571 0.00722368113525282 172.858201295091 0.00722368113525283 172.858201295091 0.957091195558649 171.825648182972 
14.75                          0.954321352064852 164.312092677615 0.00748176772004613 172.604988462627 0.00748176772004615 172.604988462627 0.956027659387874 170.734068437021 
14.8                           0.953226272510886 163.152647983189 0.00775830617773993 172.356596422739 0.00775830617773993 172.356596422739 0.954918360077787 169.628581160949 
14.85                          0.952086027177441 161.979297954652 0.00805502548496461 172.111251839706 0.00805502548496465 172.111251839706 0.953760368896919 168.508580422256 
14.9                           0.950897795914287 160.79145998381  0.00837383931341793 171.867005435495 0.00837383931341794 171.867005435495 0.952550507656755 167.373422142311 
14.95                          0.949658521389378 159.588515492358 0.00871686789255266 171.621727704972 0.00871686789255268 171.621727704972 0.951285322035915 166.222421005823 
15                             0.94836488382405 158.369807092191 0.00908646278259357 171.373105670964 0.00908646278259359 171.373105670964 0.949961051457318 165.054847061994 
15.05                          0.94701327245158 157.134635469509 0.00948523500225336 171.118640710213 0.00948523500225333 171.118640710214 0.948573594995383 163.869921981066 
15.1                           0.945599753197357 155.882255961102 0.00991608703207535 170.85564743683  0.00991608703207536 170.85564743683  0.947118472699323 162.666814925106 
15.15                          0.944120031990546 154.611874787166 0.0103822493050473 170.581253577973 0.0103822493050473 170.581253577973 0.945590781609871 161.444637986377 
15.2                           0.942569413011162 153.322644900448 0.0108873219037249 170.292400718181 0.0108873219037249 170.292400718181 0.943985145616336 160.202441140317 
15.25                          0.940942751049197 152.013661406394 0.0114353223108402 169.985845725318 0.0114353223108402 169.985845725318 0.94229565814416 158.939206652966 
15.3                           0.939234396999041 150.683956503181 0.0120307402121679 169.658162604263 0.0120307402121679 169.658162604263 0.940515816474235 157.65384287448  
15.35                          0.937438135327105 149.332493884096 0.0126786005309899 169.305744455947 0.0126786005309899 169.305744455947 0.938638446266781 156.345177341052 
15.4                           0.935547112125978 147.958162537555 0.013384536088513 168.924805151145 0.013384536088513 168.924805151145 0.936655614585838 155.011949097032 
15.45                          0.933553752095652 146.559769872167 0.0141548715408394 168.511380262074 0.0141548715408394 168.511380262074 0.934558529383983 153.652800137129 
15.5                           0.931449662460055 145.136034085772 0.0149967205487013 168.061326731807 0.0149967205487013 168.061326731807 0.932337422997019 152.26626585536  
15.55                          0.929225521421513 143.685575688269 0.0159180985008145 167.570320702465 0.0159180985008145 167.570320702465 0.929981416697862 150.85076437265  
15.6                           0.92687094825938 142.206908078763 0.0169280535467999 167.033852868217 0.0169280535467999 167.033852868217 0.927478362746079 149.404584599063 
15.65                          0.924374351570621 140.698427068427 0.0180368192144909 166.447220667546 0.0180368192144909 166.447220667546 0.924814659618112 147.92587286954  
15.7                           0.921722751403037 139.15839923227  0.0192559925043967 165.805516579375 0.0192559925043967 165.805516579375 0.921975035179995 146.412617974494 
15.75                          0.918901570113524 137.584948967042 0.0205987420882757 165.103611737094 0.0205987420882757 165.103611737094 0.918942291428926 144.86263438955  
15.8                           0.915894385654645 135.97604413064  0.0220800521077085 164.336134020001 0.0220800521077085 164.336134020001 0.915697003032638 143.273543493833 
15.85                          0.912682639604951 134.329480143664 0.02371700809097 163.497439719454 0.02371700809097 163.497439719454 0.912217160176121 141.642752556237 
15.9                           0.909245290555683 132.642862450808 0.025529132699143 162.581577803253 0.025529132699143 162.581577803254 0.908477744112485 139.967431268541 
15.95                          0.905558401383897 130.913587275672 0.0275387803859912 161.58224571267  0.0275387803859912 161.58224571267  0.904450221225839 138.244485619907 
16                             0.901594646409267 129.138820667963 0.029771601608315 160.492735519588 0.0297716016083151 160.492735519588 0.900101938257314 136.47052895029  
16.05                          0.897322721378848 127.315475953256 0.0322570889271361 159.305869145864 0.0322570889271361 159.305869145864 0.8953953975263  134.641850107283 
16.1                           0.892706635594502 125.440189877094 0.035029219123374 158.013921206477 0.035029219123374 158.013921206477 0.890287386415248 132.754378788227 
16.15                          0.887704861275173 123.50929802426  0.0381272071664101 156.608527892037 0.0381272071664101 156.608527892037 0.884727930036252 130.803648417205 
16.2                           0.882269310502104 121.518810546892 0.0415963892436287 155.080580174723 0.0415963892436288 155.080580174723 0.878659029914018 128.784757346855 
16.25                          0.87634410507565 119.464389936358 0.0454892525968585 153.420099541812 0.0454892525968586 153.420099541812 0.872013144948729 126.692329883341 
16.3                           0.869864099889831 117.341333651403 0.0498666287913774 151.61609449653  0.0498666287913774 151.61609449653  0.864711364474815 124.52047975602  
16.35                          0.862753117165634 115.144566061317 0.054799062899137 149.656396323545 0.054799062899137 149.656396323546 0.856661218184119 122.26278041749  
16.4                           0.854921849265845 112.868646665911 0.0603683617023384 147.527473269286 0.0603683617023385 147.527473269286 0.847754066482822 119.912249311364 
16.45                          0.846265395795471 110.50780534247  0.06666930592014 145.214223610896 0.0666693059201401 145.214223610896 0.837862021969531 117.461357516122 
16.5                           0.836660423175562 108.056021073453 0.0738114792174618 142.699750511985 0.0738114792174619 142.699750511985 0.826834376025288 114.902082774309 
16.55                          0.825961983581768 105.507169136084 0.0819211122221137 139.965125743737 0.0819211122221137 139.965125743737 0.814493557446279 112.226034074882 
16.6                           0.814000124377938 102.855274355897 0.0911427511514314 136.989156256125 0.0911427511514314 136.989156256125 0.800630754961348 109.424691509466 
16.65                          0.800576589693965 100.094926423607 0.101640421809451 133.748178590733 0.101640421809451 133.748178590733 0.785001528223001 106.489828766901 
16.7                           0.785462209240533 97.2219394643513 0.113597750754212 130.215923054746 0.113597750754212 130.215923054746 0.76732206754572 103.414221206544 
16.75                          0.768396051540442 94.2343739362657 0.127216206537646 126.363514557449 0.127216206537646 126.363514557449 0.747267320606505 100.192795170768 
16.8                           0.749088170555084 91.1340850067859 0.142710226813335 122.159711911101 0.142710226813335 122.159711911101 0.724473086808359 96.8244505489042 
16.85                          0.727228868868898 87.9290137047013 0.160297531268448 117.571532294727 0.160297531268448 117.571532294727 0.698545491828604 93.3148953418692 
16.9                           0.702508831728293 84.6364798583402 0.180182503337297 112.565457536432 0.180182503337297 112.565457536432 0.669083038045899 89.6809719214365 
16.95                          0.674656013876044 81.2877289404529 0.202530440222138 107.109458231576 0.202530440222138 107.109458231576 0.635718510655064 85.9571227347187 
17                             0.643496024891489 77.9338408296765 0.227431258427039 101.176066208591 0.227431258427039 101.176066208591 0.598189751740855 82.2048019625507 
17.05                          0.609041292405765 74.6526596094303 0.25485368924263 94.7466166013234 0.25485368924263 94.7466166013234 0.556448206105027 78.5256806054542 
17.1                           0.571607681468582 71.5553742938604 0.284595839630866 87.816492372175  0.284595839630866 87.8164923721751 0.510809665481656 75.0791276723947 
17.15                          0.531942179486204 68.789422901244  0.316245021619035 80.4006882232316 0.316245021619034 80.4006882232317 0.462139666471115 72.1029222244328 
17.2                           0.491320385668066 66.5313646800741 0.349166408867802 72.5383405637318 0.349166408867802 72.5383405637318 0.412044036234609 69.9314807113036 
17.25                          0.451543608947505 64.9602630172181 0.382540716021132 64.2943469203688 0.382540716021132 64.2943469203688 0.363001143626532 68.9934512561814 
17.3                           0.414751433048409 64.2030896182906 0.415459431055225 55.7563291769032 0.415459431055225 55.7563291769033 0.318318901583297 69.7437198005986 
17.35                          0.383001344095176 64.2573844143231 0.447062003167951 47.026373007404  0.447062003167951 47.026373007404  0.281713802840271 72.4549914588666 
17.4                           0.357686595184404 64.9280394435717 0.476674574249266 38.2089574407349 0.476674574249266 38.2089574407349 0.256270380025093 76.8588655280167 
17.45                          0.339038248874898 65.8405858935942 0.503902806361712 29.3982294834384 0.503902806361712 29.3982294834385 0.242937212927135 81.9361697642655 
17.5                           0.326022517259677 66.5573718333575 0.528650496097702 20.6681150984613 0.528650496097702 20.6681150984614 0.239702890127318 86.3327542226706 
17.55                          0.316727955799726 66.729747582175  0.551068785659156 12.0674464698189 0.551068785659156 12.0674464698189 0.242544360491699 89.1324737019839 
17.6                           0.308991468022955 66.1839527241701 0.571465765553772 3.62023994580278 0.571465765553772 3.62023994580282 0.247287484854037 90.1403486350448 
17.65                          0.300912368215993 64.9117115543585 0.590211040388648 -4.67030771560116 0.590211040388647 -4.67030771560115 0.250784560979341 89.6168126660149 
17.7                           0.291097316009663 63.0127816594951 0.607658933307352 -12.8160528702354 0.607658933307352 -12.8160528702354 0.25111344075792 87.9587934114865 
17.75                          0.278686816783712 60.6411971048341 0.624099177244311 -20.8379884792053 0.62409917724431 -20.8379884792053 0.247322693960385 85.5432611803035 
17.8                           0.263278189586099 57.9759579533494 0.639733376997108 -28.7611450949485 0.639733376997108 -28.7611450949485 0.239122790313695 82.6917794623013 
17.85                          0.24482955993999 55.2157219850849 0.654671014129721 -36.6106941602088 0.65467101412972 -36.6106941602088 0.226657821663529 79.6870379349016 
17.9                           0.223585175743934 52.5927060712263 0.668938411765809 -44.4092735942655 0.668938411765809 -44.4092735942655 0.210369109310942 76.8080053364157 
17.95                          0.200036518009261 50.4053047107573 0.682495429991421 -52.1753895361681 0.68249542999142 -52.1753895361681 0.190932978411845 74.3762629587191 
18                             0.174928140801538 49.076339839471  0.695256143442087 -59.9227041191713 0.695256143442086 -59.9227041191712 0.169260999777317 72.8191469615864 
18.05                          0.149328725193216 49.2509463496948 0.707110748308432 -67.6600273315773 0.707110748308431 -67.6600273315773 0.146569957886114 72.75977776573   
18.1                           0.124814726841199 51.9362781827524 0.717946456138016 -75.3918486018257 0.717946456138015 -75.3918486018256 0.124552968896848 75.1232356484661 
18.15                          0.103821978882006 58.5491967301714 0.727665414444589 -83.1192535190041 0.727665414444588 -83.1192535190041 0.105671127136723 81.1109074679608 
18.2                           0.0899523118894582 70.1741238497447 0.736198027113891 -90.8410730009269 0.73619802711389 -90.8410730009268 0.0933146004906775 91.4611180080579 
18.25                          0.0869200324229956 85.0834375908208 0.743510593107127 -98.55511440922  0.743510593107127 -98.55511440922  0.0907596682711563 104.4969396071   
18.3                           0.0952422408256687 98.1814503933604 0.749606936333242 -106.259335492536 0.749606936333242 -106.259335492536 0.0984985226794581 115.949303462054 
18.35                          0.111494897464366 106.248699063038 0.754524520034233 -113.952847209444 0.754524520034232 -113.952847209444 0.11367519162344 122.992285104253 
18.4                           0.131739616475501 109.701024383384 0.75832622650226 -121.636668805309 0.75832622650226 -121.636668805309 0.132779117034794 125.752984190403 
18.45                          0.153405059743184 109.97681499191  0.761089378093109 -129.314201326455 0.761089378093108 -129.314201326455 0.153342813947927 125.385716945267 
18.5                           0.175104321804478 108.202313499984 0.762893621969417 -136.99142551404 0.762893621969417 -136.99142551404 0.173943337593613 122.882857495109 
18.55                          0.196156891172337 105.085174418458 0.763809052280285 -144.676859634389 0.763809052280285 -144.676859634389 0.193833983399163 118.896259290981 
18.6                           0.216291698389155 101.051190332356 0.763885523320627 -152.381328603783 0.763885523320627 -152.381328603783 0.212683143144935 113.825567614751 
18.65                          0.235490855338415 96.3566755748942 0.763143654382293 -160.117597709875 0.763143654382293 -160.117597709875 0.230429200572865 107.912422596647 
18.7                           0.253905001734802 91.1563321297057 0.761567653249835 -167.899914807904 0.761567653249835 -167.899914807904 0.247201348139861 101.303395974968 
18.75                          0.271802495562455 85.5422098761871 0.759099859154247 -175.743487638296 0.759099859154246 -175.743487638296 0.263273495147478 94.0891114881324 
18.8                           0.289534281556836 79.5665282184208 0.755636858448523 176.336098560535 0.755636858448523 176.336098560535 0.279033556933334 86.3291848324149 
18.85                          0.307505425031109 73.2558354222784 0.751027165355198 168.323540422395 0.751027165355198 168.323540422395 0.294957982265361 78.0690625532311 
18.9                           0.326148411120482 66.6206167765967 0.745070781329862 160.204590128716 0.745070781329861 160.204590128716 0.311584797224662 69.3518858207709 
18.95                          0.345895292178702 59.6625709897562 0.737521428806289 151.966993921724 0.737521428806288 151.966993921724 0.329480342948368 60.2266237656802 
19                             0.3671469811046  52.380684498696  0.728092836714358 143.601645949076 0.728092836714357 143.601645949076 0.349196804584899 50.7527004772535 
19.05                          0.390239129142248 44.7765608009668 0.716470990944438 135.103985959018 0.716470990944437 135.103985959018 0.371220349167613 41.0010713682741 
19.1                           0.415405505932016 36.8590349155503 0.702334476870428 126.475615991875 0.702334476870426 126.475615991875 0.395913264641676 31.0520815963013 
19.15                          0.442741816865772 28.6478575044108 0.685384516737769 117.726020820749 0.685384516737768 117.726020820749 0.423457270937259 20.9911513794329 
19.2                           0.472175294938732 20.1761378844813 0.665384586648872 108.874156088937 0.665384586648871 108.874156088937 0.453808073028429 10.9038625277096 
19.25                          0.503447479756665 11.4912563712484 0.642206377091247 99.9495456731652 0.642206377091246 99.9495456731653 0.486672159030608 0.871928779802253 
19.3                           0.536118061973006 2.65405979744441 0.615874816911632 90.992460895374  0.615874816911631 90.9924608953741 0.521515003324981 -9.02919774621663 
19.35                          0.569595157699522 -6.26367742082082 0.586601410275677 82.0528069485576 0.586601410275676 82.0528069485578 0.557604807968116 -18.7312663039027 
19.4                           0.603191458220344 -15.1833119312625 0.554794471230015 73.1875600902217 0.554794471230014 73.1875600902219 0.594088094969013 -28.1734933606655 
19.45                          0.63619788811764 -24.0244189519839 0.521038731196075 64.456954741377  0.521038731196075 64.4569547413772 0.630084718655686 -37.3029397744362 
19.5                           0.667960043843833 -32.7101721948197 0.486044879650721 55.9199937620177 0.486044879650721 55.9199937620179 0.664783570769939 -46.0753434965593 
19.55                          0.697941189568017 -41.1721779261698 0.450578791274931 47.6300836542789 0.450578791274932 47.6300836542792 0.697519695534224 -54.4562287598331 
19.6                           0.725760049098801 -49.3540460647918 0.415386177404332 39.6315660595824 0.415386177404332 39.6315660595826 0.727819541710311 -62.4218180658328 
19.65                          0.751199866347886 -57.2133012776048 0.381128426893452 31.9576417971785 0.381128426893452 31.9576417971787 0.75541100655256 -69.9593027363014 
19.7                           0.774193235595255 -64.7216320401256 0.348340055375441 24.6297955205399 0.348340055375442 24.6297955205402 0.78020427007421 -77.0662751372885 
19.75                          0.794791878596017 -71.8637984470325 0.317410633463014 17.6584899571499 0.317410633463015 17.6584899571501 0.802254695927517 -83.7494086800997 
19.8                           0.813131101247592 -78.6356821117197 0.288587730897417 11.0447107969585 0.288587730897417 11.0447107969587 0.821719526409221 -90.022655997408 
19.85                          0.829396350535829 -85.0419624444801 0.261994104111027 4.78191740858562 0.261994104111028 4.78191740858581 0.838817241478853 -95.905283331044 
19.9                           0.843796005227602 -91.0937998005464 0.237651991528123 -1.14196154196361 0.237651991528124 -1.14196154196342 0.853794502034536 -101.420004870075 
19.95                          0.856541681639534 -96.8067660284958 0.215508837074632 -6.74272225511337 0.215508837074633 -6.74272225511321 0.866902193959943 -106.591382783735 
20                             0.86783550206032 -102.199136080995 0.195460817806742 -12.0383858186305 0.195460817806743 -12.0383858186303 0.87837990325494 -111.444563249307 
20.05                          0.877862923004139 -107.290562815242 0.177372402140177 -17.0480328156192 0.177372402140177 -17.048032815619 0.888447135871528 -116.004348790183 
20.1                           0.886789550606154 -112.101102934218 0.161091481246783 -21.7909485886328 0.161091481246783 -21.7909485886326 0.897299389267083 -120.294566772794 
20.15                          0.894760560845985 -116.65053724985 0.146460385871989 -26.2860304095951 0.14646038587199 -26.286030409595 0.905107406901162 -124.337677209119 
20.2                           0.901901661787528 -120.957922821471 0.133323452728311 -30.5514013370541 0.133323452728311 -30.5514013370539 0.912018327546423 -128.15456167156 
20.25                          0.908320853571343 -125.041319342661 0.121531891175707 -34.6041792164695 0.121531891175707 -34.6041792164694 0.918157823020704 -131.76444185238 
20.3                           0.914110503852705 -128.917641424071 0.110946645634057 -38.4603573791241 0.110946645634057 -38.4603573791239 0.92363263356346 -135.184886069948 
20.35                          0.919349449297466 -132.602598608313 0.10143983453008 -42.1347627177237 0.10143983453008 -42.1347627177235 0.928533143832974 -138.431871936383 
20.4                           0.924104965223271 -136.110694273564 0.092895220001859 -45.6410652343001 0.092895220001859 -45.6410652342999 0.932935802797617 -141.519882072342 
20.45                          0.928434529534239 -139.455262340838 0.0852080473477285 -48.9918201824462 0.0852080473477284 -48.991820182446 0.93690529401145 -144.462016726774 
20.5                           0.932387357614928 -142.648526792515 0.078284498082488 -52.1985294432923 0.0782844980824882 -52.1985294432921 0.940496425322808 -147.270112460854 
20.55                          0.936005713079916 -145.701673608105 0.072040926540114 -55.2717129309779 0.0720409265401141 -55.2717129309776 0.943755742410583 -149.954859924196 
20.6                           0.939326013450823 -148.624928094307 0.0664029948555788 -58.2209838606165 0.0664029948555789 -58.2209838606163 0.946722888588265 -152.525916483345 
20.65                          0.94237975558119 -151.427633002046 0.061304781345424 -61.055123878721 0.0613047813454241 -61.0551238787208 0.949431740889049 -154.992011335842 
20.7                           0.945194286631106 -154.118324521099 0.0566879092706582 -63.7821555709466 0.0566879092706582 -63.7821555709463 0.951911354022976 -157.361041991014 
20.75                          0.947793444887886 -156.704804415324 0.0525007236718426 -66.4094109010823 0.0525007236718426 -66.409410901082 0.954186742192696 -159.640161803246 
20.8                           0.950198092099106 -159.194207356471 0.048697530989829 -68.9435948340458 0.048697530989829 -68.9435948340456 0.956279525667068 -161.835858741312 
20.85                          0.95242655600621 -161.593063042709 0.0452379076781502 -71.390843855085 0.0452379076781502 -71.3908438550847 0.958208465421948 -163.954025867209 
20.9                           0.954494998855485 -163.907353029817 0.0420860786101142 -73.7567793907791 0.0420860786101142 -73.7567793907788 0.959989905598093 -166.000024150157 
20.95                          0.956417725017792 -166.142562416652 0.039210362801034 -76.0465563172363 0.039210362801034 -76.0465563172359 0.961638140260879 -167.978738304529 
21                             0.958207438544799 -168.303726652782 0.0365826821065689 -78.2649068440229 0.0365826821065689 -78.2649068440227 0.963165718082481 -169.89462634796 
21.05                          0.95987545953688 -170.39547380409 0.0341781276350897 -80.4161801146501 0.0341781276350898 -80.4161801146498 0.964583696125262 -171.751763550051 
21.1                           0.961431906571457 -172.422062641549 0.0319745782899681 -82.5043778836744 0.0319745782899681 -82.5043778836741 0.965901851861563 -173.553881397792 
21.15                          0.96288585110201 -174.387416923058 0.0299523659086343 -84.5331866288205 0.0299523659086343 -84.5331866288201 0.967128860876459 -175.304402150633 
21.2                           0.964245448644724 -176.295156227663 0.028093981736054 -86.5060064422315 0.028093981736054 -86.5060064422311 0.968272446316594 -177.006469502138 
21.25                          0.965518050681295 -178.148623681919 0.0263838193598421 -88.4259770235166 0.0263838193598422 -88.4259770235163 0.969339505021183 -178.662975809999 
21.3                           0.966710300486589 -179.950910893801 0.0248079496770909 -90.2960010723027 0.024807949677091 -90.2960010723023 0.970336214356555 179.723413695994 
21.35                          0.967828215507347 178.295119616695 0.0233539239178403 -92.1187653518604 0.0233539239178403 -92.11876535186  0.971268123034696 178.150239366529 
21.4                           0.968877258446973 176.586814227671 0.0220106011919559 -93.8967596695151 0.0220106011919559 -93.8967596695148 0.97214022859673 176.615227927988 
21.45                          0.96986239882992 174.921710029291 0.0207679974407498 -95.6322939948524 0.0207679974407499 -95.6322939948521 0.972957043757069 175.116275341335 
21.5                           0.970788166510016 173.297518428877 0.0196171530547657 -97.3275139136704 0.0196171530547658 -97.32751391367  0.973722653411164 173.651431480325 
21.55                          0.971658698335824 171.712110356866 0.0185500167620476 -98.9844145944418 0.0185500167620476 -98.9844145944413 0.974440763791193 172.218886415117 
21.6                           0.972477778981646 170.163502903801 0.0175593436969722 -100.604853424804 0.0175593436969722 -100.604853424803 0.975114744995376 170.816958114107 
21.65                          0.973248876785743 168.649847237054 0.0166386058300578 -102.190561458246 0.0166386058300579 -102.190561458246 0.975747667906048 169.444081400167 
21.7                           0.973975175300626 167.169417662641 0.0157819131766661 -103.743153795625 0.0157819131766661 -103.743153795625 0.976342336339904 168.098798017862 
21.75                          0.97465960114789 165.720601712385 0.0149839444101862 -105.264139012273 0.0149839444101863 -105.264139012272 0.976901315133382 166.779747686007 
21.8                           0.975304848677457 164.301891149949 0.0142398856862572 -106.754927729136 0.0142398856862573 -106.754927729136 0.977426954751014 165.485660025364 
21.85                          0.975913401854487 162.911873801076 0.0135453766418609 -108.216840415459 0.013545376641861 -108.216840415459 0.977921412909856 164.215347264785 
21.9                           0.976487553733628 161.549226123855 0.0128964626695666 -109.651114500798 0.0128964626695668 -109.651114500798 0.978386673635042 162.967697640796 
21.95                          0.977029423827282 160.212706444077 0.0122895526854318 -111.058910865622 0.012289552685432 -111.058910865621 0.978824564096873 161.741669415856 
22                             0.977540973630328 158.901148789015 0.0117213817114088 -112.441319772118 0.011721381711409 -112.441319772118 0.979236769526305 160.536285449405 
22.05                          0.978024020526547 157.613457260197 0.0111889776816804 -113.799366290145 0.0111889776816806 -113.799366290145 0.979624846461022 159.350628263577 
22.1                           0.978480250270749 156.34860089219  0.0106896319589753 -115.134015267309 0.0106896319589755 -115.134015267309 0.979990234537125 158.183835552228 
22.15                          0.978911228214193 155.105608950117 0.0102208731132244 -116.44617588689 0.0102208731132246 -116.44617588689 0.980334267010201 157.035096087861 
22.2                           0.979318409418472 153.883566623684 0.00978044357231655 -117.736705852704 0.00978044357231672 -117.736705852704 0.980658180163419 155.903645986173 
22.25                          0.979703147784039 152.68161107993  0.00936627880441184 -119.006415235835 0.00936627880441201 -119.006415235835 0.980963121738175 154.788765292534 
22.3                           0.980066704303275 151.498927840917 0.00897648873433716 -120.25607001454 0.00897648873433729 -120.25607001454 0.981250158504203 153.68977485864  
22.35                          0.980410254534123 150.334747456069 0.00860934113393027 -121.486395335363 0.00860934113393044 -121.486395335363 0.981520283070244 152.606033481111 
22.4                           0.980734895378381 149.188342441985 0.00826324675860161 -122.698078520632 0.00826324675860178 -122.698078520632 0.98177442002294 151.536935276864 
22.45                          0.981041651238488 148.059024465351 0.00793674603052516 -123.891771844924 0.00793674603052534 -123.891771844924 0.982013431470181 150.481907272785 
22.5                           0.98133147961775 146.946141746996 0.00762849709333785 -125.06809510082 0.00762849709333801 -125.06809510082 0.982238122055325 149.440407189651 
22.55                          0.981605276221331 145.849076667394 0.00733726508451217 -126.227637972227 0.00733726508451226 -126.227637972227 0.982449243500354 148.411921402304 
22.6                           0.981863879608611 144.767243555803 0.00706191249011413 -127.370962231735 0.00706191249011422 -127.370962231735 0.982647498728794 147.395963060012 
22.65                          0.982108075441802 143.70008664703  0.00680139046282698 -128.498603776844 0.00680139046282706 -128.498603776844 0.982833545613032 146.392070352528 
22.7                           0.982338600370578 142.647078191343 0.00655473099823492 -129.611074518459 0.00655473099823501 -129.611074518459 0.983008000385299 145.399804908897 
22.75                          0.982556145588134 141.607716704445 0.00632103987669784 -130.708864133747 0.00632103987669791 -130.708864133747 0.983171440746936 144.418750317304 
22.8                           0.982761360090176 140.581525345678 0.00609949028893613 -131.792441694271 0.00609949028893618 -131.792441694272 0.983324408706532 143.448510755445 
22.85                          0.982954853664959 139.568050413734 0.00588931707289533 -132.862257179304 0.00588931707289533 -132.862257179305 0.98346741317402 142.488709721927 
22.9                           0.983137199639512 138.566859950165 0.00568981149774798 -133.918742883242 0.00568981149774799 -133.918742883242 0.983600932334748 141.538988860109 
22.95                          0.983308937404541 137.577542441849 0.00550031653816036 -134.962314725224 0.00550031653816033 -134.962314725224 0.98372541582488 140.599006866638 
23                             0.983470574738189 136.59970561443  0.00532022258834484 -135.993373468299 0.00532022258834476 -135.993373468299 0.98384128672713 139.668438477653 
