! Touchstone file exported from HFSS 3D Layout Design 2026.1.0
!        File:           D:/Work/SIM/ADS_AUTO_SIM/projects/RFSOC_RF/TX_Fillter.aedt
!        Generated:      02:25:57 AM Aug 31, 2026
!        Design:         TX_BAND1_MCFIL_R29_CNN024
!        Project:        TX_Fillter
!
# GHz S MA R 50.000000
! Terminal data exported
! Port[1] = Port1
! Port[2] = Port2
14                             0.972164639237266 -167.268536816495 0.00373654984421585 -176.588947822756 0.00373654984421584 -176.588947822756 0.974582610175617 -159.734103741138 
14.05                          0.971656941158615 -168.175189591869 0.00381122899167144 -176.977957545236 0.00381122899167139 -176.977957545236 0.974129375939117 -160.60314541094 
14.1                           0.971133413593013 -169.088068287561 0.00388952454989328 -177.346490033083 0.00388952454989324 -177.346490033083 0.973662340267112 -161.477716127055 
14.15                          0.970593279203778 -170.007364530468 0.00397172412149453 -177.694167049056 0.00397172412149448 -177.694167049056 0.973180829575225 -162.357972793473 
14.2                           0.970035708998661 -170.933280057557 0.00405814354786282 -178.020656555905 0.00405814354786277 -178.020656555905 0.972684125339655 -163.244080645607 
14.25                          0.969459818013097 -171.866027379052 0.00414912999467429 -178.325681085682 0.00414912999467422 -178.325681085681 0.972171460314444 -164.136213803132 
14.3                           0.968864660556448 -172.805830494596 0.00424506539714155 -178.609026916251 0.00424506539714149 -178.60902691625 0.971642014362547 -165.034555867273 
14.35                          0.968249224969043 -173.752925667451 0.00434637030901352 -178.870554064135 0.00434637030901348 -178.870554064133 0.971094909854126 -165.939300566829 
14.4                           0.967612427830548 -174.707562262399 0.00445350820513099 -179.110207086851 0.00445350820513095 -179.110207086851 0.970529206579008 -166.850652457725 
14.45                          0.966953107551889 -175.670003653644 0.00456699029401219 -179.328026668419 0.00456699029401214 -179.328026668418 0.969943896112701 -167.768827681411 
14.5                           0.966270017273219 -176.640528209731 0.00468738090466449 -179.524161938525 0.00468738090466445 -179.524161938524 0.969337895566642 -168.694054788072 
14.55                          0.965561816979178 -177.619430363329 0.0048153035207962 -179.698883449218 0.00481530352079615 -179.698883449217 0.968710040643143 -169.62657563129 
14.6                           0.964827064729554 -178.607021774652 0.00495144754609035 -179.852596703009 0.00495144754609031 -179.852596703008 0.968059077903656 -170.566646341618 
14.65                          0.9640642068881  -179.603632598348 0.00509657589650656 -179.985856093665 0.00509657589650652 -179.985856093664 0.967383656145068 -171.514538387401 
14.7                           0.963271567214294 179.390387135119 0.00525153353007569 179.900620913345 0.00525153353007566 179.900620913345 0.966682316762439 -172.47053973223 
14.75                          0.962447334661741 178.374666011197 0.0054172570418037 179.805939568488 0.00541725704180369 179.805939568489 0.965953482957451 -173.434956099575 
14.8                           0.961589549702034 177.348809582156 0.00559478547166394 179.729013834959 0.00559478547166393 179.72901383496  0.965195447629248 -174.408112356463 
14.85                          0.960696088963584 176.312398561447 0.00578527249791209 179.668552865367 0.00578527249791206 179.668552865368 0.964406359757614 -175.390354029598 
14.9                           0.959764647940172 175.264986843798 0.00599000021692289 179.62304825264  0.00599000021692288 179.62304825264  0.963584209056811 -176.382048969055 
14.95                          0.95879272148273 174.206099330996 0.00621039474541963 179.590762363872 0.00621039474541965 179.590762363873 0.962726808640712 -177.383589176654 
15                             0.957777581738767 173.135229540665 0.00644804392254254 179.569718068201 0.00644804392254255 179.569718068201 0.961831775394981 -178.395392818392 
15.05                          0.956716253145128 172.051836972355 0.00670471743912981 179.557690156968 0.00670471743912981 179.557690156968 0.960896507698322 -179.417906442918 
15.1                           0.955605484009536 170.955344201742 0.00698238978161187 179.552198723796 0.00698238978161187 179.552198723796 0.959918160070354 179.548392568986 
15.15                          0.954441714131797 169.845133669836 0.00728326645015701 179.550504721576 0.00728326645015705 179.550504721577 0.958893614246062 178.502993295561 
15.2                           0.953221037813684 168.720544129476 0.00760981399771972 179.549607841573 0.00760981399771975 179.549607841573 0.957819446083019 177.445348273578 
15.25                          0.951939161483181 167.58086670626  0.00796479454154282 179.546246766685 0.00796479454154284 179.546246766685 0.956691887593991 176.37487016944  
15.3                           0.950591355009088 166.425340525043 0.00835130552526339 179.536901737747 0.00835130552526341 179.536901737747 0.955506783259361 175.290928080032 
15.35                          0.949172395599619 165.25314784639  0.00877282566273065 179.517799241132 0.00877282566273065 179.517799241132 0.954259539605251 174.192843415598 
15.4                           0.947676502955699 164.063408649618 0.0092332681797257 179.484918481977 0.00923326817972569 179.484918481976 0.952945066826759 173.079885310376 
15.45                          0.946097264076169 162.855174590333 0.00973704269408768 179.433999155105 0.0097370426940877 179.433999155105 0.95155771098205 171.951265499153 
15.5                           0.944427545775451 161.627422250499 0.0102891273471439 179.360549871078 0.0102891273471439 179.360549871077 0.95009117497011 170.806132589587 
15.55                          0.94265939255818 160.37904558813  0.0108951531308052 179.259856443506 0.0108951531308052 179.259856443506 0.948538426117622 169.643565650783 
15.6                           0.940783906979586 159.108847481625 0.011561502758932 179.126989101212 0.011561502758932 179.126989101212 0.946891587719303 168.46256702843  
15.65                          0.938791108978627 157.81553025078  0.0122954269256762 178.956807558799 0.0122954269256762 178.956807558799 0.945141811276074 167.262054285986 
15.7                           0.936669769869731 156.497685022949 0.0131051813987092 178.743962763607 0.0131051813987093 178.743962763606 0.943279125425033 166.040851160136 
15.75                          0.934407215675538 155.153779799406 0.0140001891379218 178.482894035063 0.0140001891379218 178.482894035063 0.941292256613194 164.797677407996 
15.8                           0.931989093222452 153.782146064827 0.014991232542864 178.167820220235 0.014991232542864 178.167820220234 0.939168415380899 163.531137414168 
15.85                          0.929399090832878 152.380963774106 0.0160906820547264 177.792723399911 0.0160906820547264 177.79272339991  0.936893040623303 162.239707419964 
15.9                           0.926618603443358 150.948244548698 0.0173127687192685 177.351323582638 0.0173127687192685 177.351323582638 0.934449492302905 160.921721237924 
15.95                          0.923626329442906 149.481812924821 0.0186739100131037 176.837042706774 0.0186739100131037 176.837042706774 0.931818680683041 159.575354327284 
16                             0.920397783318254 147.979285526768 0.020193100313457 176.242956117468 0.020193100313457 176.242956117469 0.92897861710242 158.198606138433 
16.05                          0.916904704136176 146.438048103995 0.021892379924181 175.561729479685 0.021892379924181 175.561729479685 0.925903867441511 156.789280699276 
16.1                           0.91311433477484 144.855230492354 0.0237973996330057 174.785538812405 0.0237973996330057 174.785538812405 0.922564884531899 155.344965534119 
16.15                          0.90898854039025 143.227679772145 0.0259381014299366 173.905970966636 0.0259381014299366 173.905970966636 0.918927189582613 153.863009207774 
16.2                           0.904482726606976 141.551932253006 0.0283495402911234 172.913901407672 0.0283495402911234 172.913901407672 0.914950364972012 152.340498124231 
16.25                          0.899544508117129 139.824185504361 0.0310728767687597 171.7993455953   0.0310728767687597 171.7993455953   0.910586811222516 150.774233759532 
16.3                           0.894112066643544 138.040272607088 0.0341565752961108 170.551279594593 0.0341565752961109 170.551279594593 0.90578020948083 149.160712397499 
16.35                          0.888112123782458 136.195642345619 0.0376578480591053 169.15742483488  0.0376578480591054 169.15742483488  0.90046361749287 147.496110863225 
16.4                           0.881457440020949 134.285351537908 0.0416443878387314 167.60399125952  0.0416443878387315 167.60399125952  0.894557112663472 145.77628402793  
16.45                          0.874043738650277 132.304079670332 0.0461964331454822 165.875372666372 0.0461964331454822 165.875372666372 0.887964882457646 143.996783490657 
16.5                           0.865745947730696 130.24618235442  0.0514092011066091 163.953788192565 0.0514092011066091 163.953788192565 0.880571654968571 142.152912621566 
16.55                          0.856413665679129 128.105810268045 0.0573957005400709 161.818865311029 0.057395700540071 161.818865311029 0.872238370986283 140.239842331516 
16.6                           0.845865807865267 125.877136420889 0.0642898866427117 159.447163552375 0.0642898866427118 159.447163552375 0.862797043127705 138.252826468303 
16.65                          0.833884523191374 123.554760266359 0.0722500181661802 156.811646458258 0.0722500181661801 156.811646458258 0.852044865061072 136.187578618804 
16.7                           0.82020875474171 121.134397603533 0.0814618928809151 153.881125366938 0.0814618928809151 153.881125366938 0.839737893421748 134.040907706383 
16.75                          0.80452838712064 118.614027805557 0.09214131386104 150.61972789395  0.09214131386104 150.61972789395  0.825585148270837 131.811764085234 
16.8                           0.786480992734901 115.995763976984 0.1045346025749  146.986494457349 0.1045346025749  146.986494457349 0.809244968794953 129.502927672226 
16.85                          0.765655096593355 113.288845245784 0.118915138157933 142.935288735447 0.118915138157933 142.935288735447 0.790327233832034 127.123679084481 
16.9                           0.741607069948343 110.514319183647 0.135572713338111 138.415333899725 0.135572713338111 138.415333899725 0.768408023852903 124.693923677389 
16.95                          0.713903621755818 107.712137588983 0.154791069905025 133.372859303676 0.154791069905025 133.372859303676 0.743067800953955 122.250332488524 
17                             0.682208089430635 104.951357333976 0.176807878018968 127.754535962736 0.176807878018968 127.754535962736 0.713969876918398 119.854955135676 
17.05                          0.646433769432253 102.343445639346 0.201752149833377 121.513495409408 0.201752149833377 121.513495409408 0.681000278612492 117.606027701873 
17.1                           0.606983387408271 100.056248097606 0.229559450597593 114.618537354486 0.229559450597593 114.618537354486 0.64448544934771 115.64847406277  
17.15                          0.565063067230246 98.3200144162384 0.259878700385792 107.066266028079 0.259878700385792 107.06626602808  0.605474577607643 114.176550444411 
17.2                           0.522975946274057 97.4051567421926 0.292005948759513 98.8940316633323 0.292005948759513 98.8940316633324 0.565997424176784 113.41265722699  
17.25                          0.484155014058817 97.5390207553764 0.324899450652398 90.1890033023944 0.324899450652398 90.1890033023945 0.529085728094514 113.539823022675 
17.3                           0.452572771960904 98.7442304459322 0.357321596083752 81.0871267647978 0.357321596083752 81.0871267647978 0.498263230700516 114.581018739795 
17.35                          0.43135400705425 100.673848498457 0.38809602838578 71.7577470937975 0.38809602838578 71.7577470937976 0.476391641113963 116.282766361252 
17.4                           0.421185394449916 102.639398859303 0.416385944334458 62.3761454672776 0.416385944334458 62.3761454672776 0.46435473038756 118.132328366992 
17.45                          0.419810550048712 103.917150942685 0.441864603259464 53.0933991550929 0.441864603259464 53.0933991550928 0.46055925979081 119.565331439813 
17.5                           0.423142148973562 104.074662296681 0.464707984350392 44.0147492302742 0.464707984350391 44.0147492302741 0.461708119820572 120.207487399888 
17.55                          0.426955551091283 103.038068387096 0.485443787311268 35.1923884199151 0.485443787311267 35.192388419915  0.464157990131759 119.956267492436 
17.6                           0.427954203411237 100.955804317395 0.504750492716424 26.6310624345424 0.504750492716423 26.6310624345423 0.464905473626686 118.906605831246 
17.65                          0.42399755296489 98.0494038045363 0.523286002752811 18.3006502934588 0.52328600275281 18.3006502934587 0.461910781729748 117.242332803381 
17.7                           0.413886539564837 94.5338391499447 0.541577476167812 10.1500979323669 0.54157747616781 10.1500979323668 0.454002076898636 115.167178960903 
17.75                          0.397065978171939 90.596973710093  0.559966887502831 2.11946639891168 0.559966887502829 2.11946639891163 0.44065981019211 112.881170973523 
17.8                           0.37340291923921 86.4107471167576 0.578593790089664 -5.85088344753872 0.578593790089663 -5.85088344753875 0.421843780605329 110.585442625964 
17.85                          0.343073627293271 82.1592656384421 0.597399695404379 -13.8137046022846 0.597399695404377 -13.8137046022846 0.397913802351976 108.501594764183 
17.9                           0.306546544104377 78.0842140240072 0.616146537965916 -21.8102688866813 0.616146537965916 -21.8102688866813 0.369644683753152 106.898540822713 
17.95                          0.264647737937057 74.5657245757268 0.634448471332931 -29.867314844889 0.63444847133293 -29.867314844889 0.338321986419525 106.121860493848 
18                             0.218728326110156 72.2932683037793 0.651819161297657 -37.9954129807095 0.651819161297656 -37.9954129807095 0.305898947364343 106.613105190685 
18.05                          0.171068183338569 72.6815388316437 0.667735175773802 -46.1888880054352 0.667735175773802 -46.1888880054352 0.275165932875593 108.87933853839  
18.1                           0.126061660716382 78.9123948190679 0.681710750574109 -54.4275069717674 0.681710750574109 -54.4275069717675 0.249774052467974 113.320460054871 
18.15                          0.0937188088312044 97.1038087700245 0.693372534859788 -62.679957857467 0.693372534859788 -62.6799578574671 0.233724236943465 119.8216204644   
18.2                           0.0911695453166762 125.949147336867 0.702518676063457 -70.9087600690808 0.702518676063458 -70.9087600690809 0.229920898915053 127.339456462253 
18.25                          0.118847760023466 145.366639928656 0.709148158057941 -79.0758389193353 0.709148158057941 -79.0758389193354 0.238465129796949 134.202730955193 
18.3                           0.158871514300485 152.123761139564 0.71345409056249 -87.1477767995728 0.71345409056249 -87.1477767995729 0.256554716552026 139.141026534618 
18.35                          0.200613770448939 152.433777046651 0.715785260276778 -95.0998546066794 0.715785260276777 -95.0998546066795 0.280191003891448 141.82153679853  
18.4                           0.239874010800899 149.686761863308 0.716588541477679 -102.91837482601 0.716588541477679 -102.91837482601 0.305797249127574 142.537535931132 
18.45                          0.274860877301163 145.356175792686 0.716347313827675 -110.601231066321 0.716347313827675 -110.601231066321 0.330801053953689 141.757907267214 
18.5                           0.30478018108126 140.11942160253  0.715528033732959 -118.157062778946 0.715528033732959 -118.157062778946 0.353568284144531 139.903191312916 
18.55                          0.329342976917258 134.308305416656 0.714541341745984 -125.60350724027 0.714541341745984 -125.60350724027 0.3731629598048  137.290486854417 
18.6                           0.348552009369195 128.088352190697 0.713718613340664 -132.965046763026 0.713718613340665 -132.965046763026 0.389126591994666 134.142540506857 
18.65                          0.362590291616599 121.536885651019 0.713301383291236 -140.270825551031 0.713301383291237 -140.270825551031 0.401316931562874 130.610564837031 
18.7                           0.371759165579162 114.68032009024  0.713439791817086 -147.552659921074 0.713439791817088 -147.552659921073 0.409800312867268 126.794716541704 
18.75                          0.376446854423234 107.513436766363 0.714196458999842 -154.843340914336 0.714196458999844 -154.843340914336 0.41478408729226 122.759017837135 
18.8                           0.37711844194048 100.010090839998 0.715553177469486 -162.175249789584 0.715553177469488 -162.175249789584 0.416577013857896 118.541104711816 
18.85                          0.374321386884015 92.1297808104601 0.71741890631068 -169.579272565498 0.717418906310683 -169.579272565498 0.415567908172824 114.157781521706 
18.9                           0.368701601252406 83.8225998337914 0.719638399648502 -177.083997409505 0.719638399648504 -177.083997409505 0.412214770511382 109.607196733462 
18.95                          0.361024888702953 75.034484904974  0.722001254402381 175.284806991538 0.722001254402383 175.284806991538 0.407038051967742 104.868244568626 
19                             0.35219730822523 65.7146629388443 0.724251174562122 167.504418293991 0.724251174562123 167.504418293991 0.400613138766733 99.8977785221321 
19.05                          0.343275831119513 55.8272275307783 0.726094872339953 159.555076670431 0.726094872339954 159.555076670431 0.393559159669269 94.6264930155222 
19.1                           0.335458035436892 45.3680462521341 0.727209408734658 151.419599128887 0.727209408734659 151.419599128887 0.386524391253212 88.9549096811786 
19.15                          0.330038522072654 34.3854720318804 0.727246197023134 143.082762144084 0.727246197023134 143.082762144084 0.380172839394657 82.7516973061425 
19.2                           0.328324397130309 22.9979092594957 0.725829769232624 134.530622915082 0.725829769232624 134.530622915082 0.375180750071928 75.8572999791102 
19.25                          0.331516760511444 11.3955373584923 0.722550243686087 125.750079023855 0.722550243686087 125.750079023855 0.37225279812995 68.0961604709069 
19.3                           0.340586318583276 -0.185454793318184 0.716950710402986 116.729099345808 0.716950710402986 116.729099345809 0.372161102954987 59.3002598291404 
19.35                          0.356181492296752 -11.5139270521253 0.708514721708786 107.458148358729 0.708514721708787 107.458148358729 0.375792571844641 49.3446042986485 
19.4                           0.378587888430803 -22.4186317006329 0.696664400086596 97.9332947543299 0.696664400086598 97.9332947543302 0.384163808925468 38.1905334875518 
19.45                          0.407718539603345 -32.8194183100897 0.680784778180051 88.1612337694676 0.680784778180053 88.1612337694679 0.398343030774699 25.9245840748539 
19.5                           0.443094989915782 -42.7221740319517 0.660291214347612 78.1658445702012 0.660291214347614 78.1658445702013 0.419234262676141 12.7727700432882 
19.55                          0.483805934031004 -52.1859075879582 0.63474834374522 67.9949285857358 0.634748343745222 67.9949285857359 0.447252692537372 -0.926697673916806 
19.6                           0.528482011867274 -61.281139122348 0.604026378019823 57.7246995369308 0.604026378019823 57.7246995369308 0.482021851167546 -14.7877011232913 
19.65                          0.575355122563039 -70.0569282121132 0.568447903358574 47.4591187936275 0.568447903358573 47.4591187936275 0.522264629153087 -28.4479240555688 
19.7                           0.622444919464419 -78.5257183626242 0.528855651510307 37.3221594708875 0.528855651510303 37.3221594708875 0.565979911194201 -41.6166655598073 
19.75                          0.667842835051146 -86.6662036697033 0.486546291961147 27.4437316768592 0.486546291961141 27.4437316768593 0.610845154298231 -54.0897954793913 
19.8                           0.709996587186772 -94.4378026396792 0.443073091399797 17.9430611906185 0.443073091399791 17.9430611906188 0.654675722296873 -65.7429872536944 
19.85                          0.747890539125831 -101.797924129618 0.399986586204747 8.91468351070068 0.399986586204741 8.91468351070129 0.695770321904035 -76.517161553152 
19.9                           0.781074867454541 -108.71510764555 0.35860769963786 0.420838817435054 0.358607699637854 0.420838817435945 0.733057848957619 -86.4033628135096 
19.95                          0.80957040529557 -115.175245514335 0.319897387011512 -7.50898506884709 0.319897387011507 -7.50898506884594 0.76606329778958 -95.4289240866398 
20                             0.833715368494898 -121.181717878093 0.284432016722117 -14.8732221595358 0.284432016722113 -14.8732221595344 0.794768877360512 -103.645208764733 
20.05                          0.854014759997697 -126.751930564546 0.252453751005508 -21.6909328939724 0.252453751005505 -21.6909328939708 0.819448837487858 -111.117287009957 
20.1                           0.87102547393738 -131.91265845172 0.223954625484754 -27.9944012827243 0.223954625484752 -27.9944012827226 0.840527560157569 -117.915916113063 
20.15                          0.885284077974528 -136.695726507965 0.198762621282118 -33.8229580403411 0.198762621282117 -33.8229580403393 0.858479035359374 -124.111887482142 
20.2                           0.897269871996831 -141.134684710951 0.176613092157345 -39.2184594824674 0.176613092157345 -39.2184594824656 0.87376587776343 -129.772460579372 
20.25                          0.907391735949859 -145.262564093432 0.157200709909885 -44.2223114457062 0.157200709909885 -44.2223114457045 0.886808058972081 -134.95941743263 
20.3                           0.915988655170676 -149.110536698986 0.14021356492832 -48.8737079609641 0.140213564928321 -48.8737079609625 0.897970854840003 -139.728250127773 
20.35                          0.923336844007551 -152.70723265493 0.12535344887819 -53.2087278104043 0.125353448878191 -53.208727810403 0.907563777342661 -144.128069204691 
20.4                           0.929659190834481 -156.078490861577 0.112346491533978 -57.2599899696322 0.112346491533979 -57.2599899696309 0.915844987407335 -148.201927119908 
20.45                          0.935134750755059 -159.24737284365 0.100947566004375 -61.0566474383532 0.100947566004376 -61.0566474383522 0.923027890662742 -151.987349765245 
20.5                           0.93990725254228 -162.23432203997 0.0909409412208119 -64.6245694525528 0.0909409412208128 -64.6245694525521 0.929288121848265 -155.516946079902 
20.55                          0.944092275873389 -165.057392722477 0.0821388493055207 -67.9866159453733 0.0821388493055213 -67.9866159453727 0.934770047074349 -158.819019952471 
20.6                           0.947783099335278 -167.732502553384 0.0743790272831777 -71.1629457936053 0.0743790272831781 -71.1629457936048 0.939592436480062 -161.918144046896 
20.65                          0.95105536769168 -170.273682586916 0.0675218726782498 -74.1713252386654 0.0675218726782501 -74.1713252386651 0.943853234184185 -164.83567707789 
20.7                           0.953970772125633 -172.693311022075 0.0614475780177346 -77.0274185679618 0.0614475780177348 -77.0274185679617 0.947633482496583 -167.590218860159 
20.75                          0.956579933551561 -175.002324570876 0.0560534371582767 -79.7450526873617 0.0560534371582767 -79.7450526873618 0.951000508784781 -170.198004466934 
20.8                           0.958924655618957 -177.210405675114 0.0512514124550986 -82.3364527932258 0.0512514124550984 -82.3364527932257 0.954010494693757 -172.673242316289 
20.85                          0.961039685210466 -179.326146188044 0.0469659915615962 -84.8124494517393 0.0469659915615958 -84.8124494517394 0.956710540061095 -175.028402423947 
20.9                           0.962954090672973 178.642810676162 0.0431323295402907 -87.1826589865577 0.0431323295402903 -87.182658986558 0.959140319242634 -177.274461332626 
20.95                          0.964692344236268 176.689647833904 0.0396946552329231 -89.4556397801518 0.0396946552329227 -89.4556397801521 0.961333411361115 -179.421109902395 
21                             0.966275175625587 174.808268875496 0.0366049136971685 -91.639027292264 0.0366049136971679 -91.6390272922643 0.963318370816741 178.523070453277 
21.05                          0.96772024845786 172.993207379005 0.0338216147840877 -93.7396505230181 0.0338216147840871 -93.7396505230182 0.965119591250327 176.550458193399 
21.1                           0.969042699016935 171.239548917866 0.031308859075102 -95.7636324366254 0.0313088590751013 -95.7636324366257 0.966758005231069 174.654264532348 
21.15                          0.970255567774979 169.542863925258 0.0290355149265967 -97.7164765943642 0.0290355149265961 -97.7164765943645 0.968251653099221 172.828425209827 
21.2                           0.971370146972754 167.899149819345 0.0269745234275101 -99.6031419672469 0.0269745234275095 -99.603141967247 0.96961614734311 171.067508140827 
21.25                          0.972396262195611 166.304781018903 0.025102311188798 -101.428107633129 0.0251023111887976 -101.428107633129 0.97086505331915 169.366634424969 
21.3                           0.973342501788881 164.756465681131 0.0233982938107957 -103.19542882109 0.0233982938107952 -103.19542882109 0.972010202745493 167.721410608334 
21.35                          0.974216404837615 163.251208170409 0.0218444555055721 -104.908785551848 0.0218444555055717 -104.908785551848 0.973061952968275 166.127870439044 
21.4                           0.975024616054756 161.786276419123 0.0204249926518337 -106.571524936982 0.0204249926518333 -106.571524936982 0.974029402311556 164.582424648814 
21.45                          0.975773014099153 160.359173471443 0.0191260110354774 -108.186698040006 0.0191260110354771 -108.186698040006 0.974920569715462 163.081817534912 
21.5                           0.976466818444872 158.967612610767 0.0179352682051706 -109.757092066296 0.0179352682051703 -109.757092066296 0.975742545213443 161.623089318013 
21.55                          0.977110678843646 157.609495564062 0.0168419537832139 -111.285258533482 0.0168419537832136 -111.285258533482 0.976501616498556 160.203543418184 
21.6                           0.977708750586384 156.2828933541   0.0158365017529958 -112.773537976425 0.0158365017529956 -112.773537976425 0.97720337580225 158.820717929512 
21.65                          0.978264758119467 154.986029435842 0.0149104297295403 -114.224081658573 0.0149104297295401 -114.224081658573 0.97785281049676 157.472360688564 
21.7                           0.978782049063533 153.71726480805  0.01405620103967 -115.638870692061 0.0140562010396698 -115.638870692061 0.978454380187052 156.156407427182 
21.75                          0.979263640283637 152.475084837168 0.0132671061200632 -117.019732910312 0.0132671061200631 -117.019732910312 0.979012082544045 154.870962579277 
21.8                           0.979712257345092 151.258087569218 0.012537160308072 -118.368357787396 0.0125371603080719 -118.368357787396 0.979529509719504 153.614282377375 
21.85                          0.980130368440014 150.064973337982 0.0118610155711185 -119.686309656527 0.0118610155711185 -119.686309656527 0.980009896852653 152.384759929726 
21.9                           0.98052021367106 148.894535505194 0.0112338841121989 -120.975039444615 0.011233884112199 -120.975039444615 0.980456163912318 151.180912014921 
21.95                          0.980883830420023 147.74565219162  0.01065147211513 -122.235895109644 0.0106514721151301 -122.235895109644 0.98087095190297 150.001367369641 
22                             0.981223075401286 146.617278877577 0.010109922165003 -123.470130942081 0.010109922165003 -123.470130942082 0.981256654288046 148.844856277621 
22.05                          0.981539643897073 145.508441768015 0.00960576310620824 -124.678915869638 0.00960576310620833 -124.678915869638 0.9816154443413  147.710201295326 
22.1                           0.981835086587776 144.418231831486 0.00913586629009517 -125.863340886086 0.00913586629009525 -125.863340886086 0.981949299020207 146.596308972961 
22.15                          0.982110824322584 143.34579943436  0.0086974073231896 -127.024425708866 0.00869740732318972 -127.024425708866 0.982260019859583 145.502162448975 
22.2                           0.98236816111983 142.290349501941 0.00828783256016715 -128.163124756521 0.00828783256016726 -128.163124756522 0.982549251304615 144.426814812898 
22.25                          0.98260829564074 141.251137146954 0.00790482969778976 -129.280332525221 0.00790482969778988 -129.280332525221 0.982818496837125 143.369383145414 
22.3                           0.982832331342445 140.22746371343  0.00754630192033056 -130.376888433518 0.00754630192033067 -130.376888433519 0.983069133194736 142.329043156686 
22.35                          0.983041285484821 139.218673190525 0.00721034512658198 -131.453581195722 0.00721034512658208 -131.453581195723 0.983302422937427 141.305024354214 
22.4                           0.983236097139735 138.224148956407 0.00689522783579912 -132.511152776719 0.00689522783579924 -132.51115277672 0.983519525578294 140.29660568036  
22.45                          0.9834176343295  137.243310817183 0.00659937342688911 -133.550301974524 0.0065993734268892 -133.550301974525 0.983721507463747 139.303111567233 
22.5                           0.983586700403195 136.275612310037 0.0063213444134888 -134.571687671188 0.00632134441348892 -134.571687671189 0.983909350561809 138.323908363165 
22.55                          0.983744039744172 135.320538243375 0.00605982849866166 -135.575931787737 0.00605982849866175 -135.575931787739 0.984083960294834 137.358401090642 
22.6                           0.983890342889202 134.377602449942 0.0058136261879422 -136.563621974553 0.00581362618794229 -136.563621974554 0.984246172534021 136.406030500404 
22.65                          0.984026251128766 133.44634573162  0.00558163976932443 -137.535314064856 0.0055816397693245 -137.535314064857 0.984396759857077 135.466270390664 
22.7                           0.984152360648744 132.526333977031 0.00536286349432474 -138.491534315729 0.00536286349432482 -138.491534315731 0.984536437156749 134.538625164019 
22.75                          0.984269226265856 131.617156435155 0.00515637481612516 -139.432781458248 0.00515637481612521 -139.432781458249 0.984665866676315 133.622627597874 
22.8                           0.984377364802453 130.718424130036 0.00496132655957057 -140.359528575811 0.0049613265595706 -140.359528575813 0.984785662538213 132.71783680689  
22.85                          0.984477258140512 129.829768403245 0.00477693991393196 -141.272224827626 0.00477693991393199 -141.272224827627 0.984896394823471 131.823836378472 
22.9                           0.984569355989671 128.950839572204 0.00460249815324385 -142.171297032335 0.00460249815324388 -142.171297032335 0.984998593252291 130.940232664372 
22.95                          0.984654078399941 128.081305693732 0.0044373410010138 -143.057151125178 0.00443734100101381 -143.057151125177 0.985092750509869 130.066653213381 
23                             0.984731818045968 127.220851423267 0.0042808595664629 -143.930173500561 0.00428085956646289 -143.930173500561 0.985179325256094 129.202745331691 
