! Touchstone file exported from HFSS 3D Layout Design 2026.1.0
!        File:           D:/Work/ADS/HFSS_VERDICT/hfss_sma_connector_cpw.aedt
!        Generated:      01:20:38 PM Aug  4, 2026
!        Design:         IDEAL_50R_CPW_100MM
!        Project:        hfss_sma_connector_cpw
!
# GHz S MA R 50.000000
! Terminal data exported
! Port[1] = Port1
! Port[2] = Port2
0.5                            0.0776502944536296 159.566303630271 0.964094286882895 -109.486526424518 0.964094286882894 -109.486526424518 0.0776819080412687 162.397813531714 
0.6                            0.0625321221884967 138.044509397307 0.96030480730909 -131.1221030753  0.960304807309071 -131.122103075302 0.0625838747361585 142.050851819346 
0.7                            0.0391305340259872 117.449695116842 0.956744699321588 -152.779479272455 0.956744699321574 -152.779479272455 0.0392879385668452 123.901094217427 
0.8                            0.0109126973074075 104.39706550924  0.952806481191499 -174.454032317321 0.952806481191501 -174.454032317321 0.0119555983436775 123.128223187083 
0.9                            0.0188172046627985 -116.287235863286 0.948162461875198 163.882248899886 0.948162461875205 163.882248899886 0.0197225541201665 -123.885851196547 
1                              0.0449673243650028 -133.752348026681 0.942940322764926 142.262320331547 0.942940322764929 142.262320331547 0.0454121521581331 -135.024652110163 
1.1                            0.0645396190850757 -154.194511845705 0.937623959515035 120.703968058528 0.937623959515036 120.703968058528 0.0648333887737174 -153.393126610255 
1.2                            0.0749886825993263 -174.997935695988 0.932762963438036 99.1997400451573 0.932762963438037 99.1997400451575 0.0751878044788946 -172.828814070828 
1.3                            0.0750926466660498 164.241660115272 0.928673232371568 77.7214049066837 0.92867323237157 77.7214049066838 0.0752374272054945 167.69552206601  
1.4                            0.0649969496402154 143.780146255953 0.925284348913491 56.2350895346302 0.925284348913493 56.2350895346302 0.0651597313413989 148.802770552676 
1.5                            0.046188807537534 124.244935782357 0.922192813325398 34.7185329275311 0.922192813325398 34.718532927531  0.0465298263800162 131.832643615187 
1.6                            0.0214413958577049 109.365094342019 0.918881105905147 13.1717588687003 0.918881105905147 13.1717588687002 0.0225706290103037 123.996551182172 
1.7                            0.00791938117933468 -136.547818450632 0.91498895704005 -8.38400053513963 0.91498895704005 -8.38400053513963 0.0114198452594228 -152.712165077743 
1.8                            0.0333828129601253 -131.938268902824 0.910495631057813 -29.9183869262665 0.910495631057814 -29.9183869262666 0.0345247662465068 -135.405956713418 
1.9                            0.0550046462594554 -149.935318549812 0.905716762407985 -51.4084183083467 0.905716762407984 -51.4084183083468 0.0556838540895849 -149.388922034634 
2                              0.0691390279814537 -169.745789273943 0.901124392243488 -72.8505040785073 0.901124392243487 -72.8505040785073 0.0696026113444478 -166.891970264169 
2.1                            0.0739925974454276 170.045922338977 0.897096295779491 -94.2618842731447 0.897096295779489 -94.2618842731447 0.0743686683603572 174.934312870254 
2.2                            0.0690623987297889 149.855177982128 0.893727520608384 -115.671328808258 0.893727520608383 -115.671328808258 0.0695042947004352 157.117184929922 
2.3                            0.0551348193329946 130.076848504738 0.890792593604094 -137.104281914608 0.890792593604094 -137.104281914608 0.055913127376658 140.891091379715 
2.4                            0.0342136486320761 111.933462438701 0.887870235157255 -158.570055901947 0.887870235157253 -158.570055901947 0.0360463416273696 130.052638783765 
2.5                            0.00971894574852335 109.181345213285 0.884566099610783 179.942425334315 0.884566099610778 179.942425334315 0.0164911868220044 148.013504260302 
2.6                            0.0174850809545577 -130.08322432545 0.880717704712863 158.458100796833 0.880717704712857 158.458100796833 0.022854316088603 -151.855763172382 
2.7                            0.0401391696548004 -143.077402157879 0.876470372349007 137.002023121615 0.876470372349002 137.002023121615 0.0429352206992909 -151.538076141174 
2.8                            0.05705307000682 -161.853965331906 0.87218531563379 115.586010452301 0.872185315633786 115.586010452301 0.0589699466316404 -164.797013788355 
2.9                            0.0658540939610015 178.443053885998 0.868238631883494 94.202867298486  0.868238631883493 94.2028672984859 0.0673457035098212 179.080842485702 
3                              0.0654382909506083 158.599728179933 0.864824942634543 72.8307737500198 0.864824942634542 72.8307737500197 0.0667977963244435 162.548511659067 
3.1                            0.0559348609640526 139.040465627326 0.86186421492347 51.4449905010317 0.861864214923468 51.4449905010316 0.0575390219975339 147.168934277884 
3.2                            0.0386799942818149 120.638007776406 0.85905055000354 30.0306796886729 0.859050550003539 30.0306796886728 0.0413438161652864 136.080673152596 
3.3                            0.0162281481035275 109.09652806466  0.856013958790129 8.59043978167924 0.856013958790128 8.59043978167942 0.0230545957698901 142.555295775009 
3.4                            0.0103983329787183 -130.562282564455 0.85251334012181 -12.8571845565938 0.85251334012181 -12.8571845565937 0.0208973882207727 -167.237763037152 
3.5                            0.0338888624728619 -133.902466229118 0.848561114834015 -34.2874388147096 0.848561114834016 -34.2874388147095 0.0389642253721541 -154.399995487934 
3.6                            0.0537007662585098 -151.250950246824 0.844414016987116 -55.682222705527 0.844414016987119 -55.6822227055269 0.0570686091847384 -164.08683395544 
3.7                            0.0668157435065318 -169.998924685579 0.840438180389776 -77.0393270356256 0.840438180389776 -77.0393270356257 0.0692637482452477 -179.089533565963 
3.8                            0.0716151016955905 171.193112509878 0.836923776041897 -98.3734191560993 0.836923776041892 -98.3734191560994 0.0733864842359446 164.299401210439 
3.9                            0.0676439157510477 152.971347096227 0.833944257866479 -119.708587453716 0.833944257866475 -119.708587453716 0.0688154735010164 147.454915891156 
4                              0.0556596497993585 136.341193446577 0.831325878366089 -141.066383221887 0.831325878366087 -141.066383221887 0.0562264232245933 131.57843937518  
4.1                            0.0377743829029172 124.382310627668 0.828738703686564 -162.455306138887 0.828738703686568 -162.455306138887 0.0376143260762876 119.53064201821  
4.2                            0.0190432423095485 133.083789838338 0.825863740127117 176.133046144784 0.825863740127134 176.133046144784 0.0175239008442433 127.150899066942 
4.3                            0.0192241880829103 -169.761480642152 0.822550922352238 154.719265166402 0.822550922352289 154.719265166401 0.0173676191380178 -164.31615086441 
4.4                            0.0367352428237818 -162.220068799888 0.818885384569496 133.323607485806 0.818885384569557 133.323607485814 0.0359695214799713 -156.830866246489 
4.5                            0.0521226955320594 -174.090189361099 0.815144521549459 111.960549848921 0.815144521549461 111.960549848922 0.0518901498728634 -168.494087087014 
4.6                            0.0610148649325857 169.759793606578 0.811611120651322 90.6247975268504 0.811611120651325 90.6247975268507 0.0612041451167635 176.332268754322 
4.7                            0.0619823421721172 152.385453419823 0.808466723717356 69.3005462791135 0.808466723717357 69.3005462791133 0.062652709482774 160.625204089175 
4.8                            0.054969339804279 135.036276265912 0.805688929449806 47.9679628530224 0.805688929449804 47.9679628530223 0.0563524984807857 145.959321476185 
4.9                            0.0411055661871897 119.188438675289 0.803079622857858 26.6136243205    0.803079622857856 26.6136243205    0.0437948320960938 134.796908451348 
5                              0.0228038435026845 110.222169179559 0.800375214720394 5.23700492488017 0.800375214720393 5.23700492488034 0.0285427060993511 134.545660084736 
5.1                            0.00880782349446586 160.673402335831 0.797384993059691 -16.1498705440813 0.797384993059691 -16.1498705440811 0.0203914852344787 163.881152121567 
5.2                            0.0229079623066237 -153.817614250086 0.794086638171582 -37.5292289449097 0.794086638171583 -37.5292289449096 0.0295665884225382 -170.60566474199 
5.3                            0.0393893992248699 -163.248001236627 0.790630162134643 -58.8871280521737 0.790630162134644 -58.8871280521735 0.0433623066517883 -172.596294890048 
5.4                            0.0506026526689067 -179.013327539977 0.787251097172833 -80.220734079755 0.787251097172834 -80.220734079755 0.0533539068594053 176.311815261493 
5.5                            0.0547196805311472 163.898812447165 0.784142025438039 -101.539557994511 0.78414202543804 -101.539557994511 0.0568446174147662 162.620555509177 
5.6                            0.0512227706314275 147.003659935874 0.781350558340989 -122.860151596929 0.781350558340987 -122.860151596929 0.0531369709692474 148.903009177397 
5.7                            0.0407642579485212 131.911837747712 0.778755321346151 -144.197092639147 0.778755321346149 -144.197092639146 0.0429934338064368 137.681611875629 
5.8                            0.0253913566044762 123.70780420941  0.77613206382619 -165.554922639871 0.776132063826193 -165.554922639871 0.0290561475436627 135.245618515362 
5.9                            0.0120248936694121 154.432814483911 0.773279853701237 173.074694532647 0.773279853701235 173.074694532647 0.0193085715203797 160.712497533898 
6                              0.021387395277346 -155.485066017565 0.770142878536526 151.707694572506 0.770142878536532 151.707694572506 0.0267324038086915 -167.337803220618 
6.1                            0.0379769688293699 -159.234058745612 0.766812751668438 130.358108358951 0.766812751668441 130.358108358951 0.0414445648589897 -166.322339732041 
6.2                            0.050972213643927 -173.241254472403 0.763490185202494 109.033094480385 0.763490185202493 109.033094480386 0.0536589723289447 -176.379522155159 
6.3                            0.0576683249042169 170.242282725665 0.760392091966367 87.7270669141209 0.76039209196637 87.7270669141211 0.0601037277162478 170.417189392201 
6.4                            0.0569848520129805 153.174302719756 0.757620252198088 66.4247691119127 0.757620252198091 66.4247691119127 0.0596066289323203 156.840644435382 
6.5                            0.0489369982144105 136.671705167503 0.755112353388834 45.1097661460919 0.75511235338883 45.1097661460918 0.0524232485015989 144.96769777666  
6.6                            0.0346725512663622 122.873322909836 0.752678833111598 23.7728705235286 0.752678833111595 23.7728705235288 0.0404326253986811 138.467801448833 
6.7                            0.0170414721373537 122.515038492738 0.750100611330507 2.41662957554231 0.750100611330503 2.41662957554246 0.0285969696957663 146.501451854351 
6.8                            0.0121829215220485 -163.9020060485  0.747238109626929 -18.9461026994048 0.747238109626929 -18.9461026994049 0.0275472116219879 172.83353334067  
6.9                            0.029656601932722 -148.87086778953 0.744098302739866 -40.2985806482957 0.744098302739865 -40.2985806482961 0.0391234199862036 -175.62196665129 
7                              0.0463542294577488 -160.215753486196 0.740829179847082 -61.628291473869 0.740829179847082 -61.628291473869 0.0526549305868706 179.275674318082 
7.1                            0.0579260452352464 -175.561749645034 0.737647921314338 -82.9328941896745 0.737647921314338 -82.9328941896742 0.0622683940896295 167.747884592606 
7.2                            0.0627379071196455 168.369260179404 0.734739536110932 -104.22134621519 0.734739536110944 -104.221346215189 0.0655919036413782 153.937790184204 
7.3                            0.0603298797783717 152.919224894173 0.732172318478829 -125.50987159881 0.732172318478855 -125.509871598808 0.0619111253559914 139.735089495276 
7.4                            0.0513942308371913 139.606794751584 0.729866058934196 -146.81458435414 0.72986605893423 -146.814584354139 0.0517401172797697 126.807493415171 
7.5                            0.0380010913460112 131.918544087247 0.727627373136478 -168.143934761971 0.727627373136517 -168.143934761971 0.0368937903220133 118.635348502482 
7.6                            0.0250225262830778 140.320868078832 0.725240262895684 170.505571567333 0.725240262895709 170.505571567332 0.0219387692714493 127.740668129705 
7.7                            0.0236008139872196 171.49873876418  0.722573538554542 149.147966041738 0.72257353855455 149.147966041738 0.0202325993714555 169.104619317161 
7.8                            0.0348753487333796 -176.142049426533 0.719650654917743 127.800777712726 0.719650654917743 127.800777712726 0.0331756549102803 -177.347611577861 
7.9                            0.0470096810019019 178.229318026358 0.716638251613268 106.475611782325 0.716638251613266 106.475611782327 0.0460835263036329 175.606678633731 
8                              0.0546535769788164 166.77323359633  0.713752339263999 85.1716150805538 0.713752339264   85.171615080555  0.0538783558185797 162.948589683219 
8.1                            0.056036993630769 153.952031370985 0.711133564873312 63.8760086859187 0.711133564873312 63.8760086859186 0.0549697980724916 148.798638482991 
8.2                            0.0511109212786634 142.21785280217  0.708767097260851 42.5716780851934 0.708767097260842 42.571678085193  0.0491910520903557 135.087964258502 
8.3                            0.0413199997085957 134.73436491492  0.706496474255444 21.2471690662969 0.706496474255431 21.2471690662966 0.0375434155553696 124.400136829665 
8.4                            0.0304459781877854 138.448072274558 0.704119764985074 -0.0971561053540391 0.704119764985064 -0.0971561053539634 0.0228751562262481 125.414755715486 
8.5                            0.0268973426914382 159.766251743963 0.70150417315433 -21.4502407672038 0.70150417315433 -21.4502407672038 0.0158257293698845 166.926614506619 
8.6                            0.0355788947251385 174.559455700267 0.698649992191759 -42.797202883178 0.698649992191766 -42.7972028831782 0.0279370782194909 -165.838001560847 
8.7                            0.0483106920117472 172.071077220889 0.695676479805192 -64.1271996098694 0.695676479805197 -64.1271996098705 0.0436010878316839 -170.027434984509 
8.8                            0.0585359008814261 161.587269904447 0.692752841652797 -85.438039527707 0.6927528416528  -85.4380395277076 0.0558382564167881 178.263177387334 
8.9                            0.0634692324678933 148.011298220011 0.690019833239091 -106.736176483752 0.690019833239085 -106.736176483751 0.0625133215126629 164.620636802718 
9                              0.0621260181004358 133.398584184633 0.687536691238408 -128.033344865287 0.687536691238404 -128.033344865286 0.0628989635433575 150.946035508945 
9.1                            0.0546265344161866 119.048989043492 0.685264298954383 -149.342043223275 0.685264298954382 -149.342043223274 0.0573153782835319 138.663625707241 
9.2                            0.0420762137136186 106.849462606329 0.683077887103534 -170.671584608958 0.68307788710353 -170.671584608957 0.0472790598324233 129.968535768748 
9.3                            0.026931184526695 102.249712317612 0.680797287168585 167.97457861098  0.680797287168584 167.97457861098  0.0359846670724925 129.209981582147 
9.4                            0.0155297762100826 125.870877671281 0.678226660592178 146.600347861369 0.678226660592174 146.600347861369 0.0290725523624166 141.617837427837 
9.5                            0.020158744390668 165.087669707537 0.675203036179387 125.217633018805 0.675203036179388 125.217633018805 0.0313937884902111 157.4375269673   
9.6                            0.0316905363436379 167.611258489048 0.671658682796972 103.84618795401  0.671658682796976 103.84618795401  0.0391000716830949 161.052940790659 
9.7                            0.0404898091279249 157.035966859855 0.667702585168911 82.5119569196939 0.667702585168892 82.511956919695  0.0459560709748596 155.102685654484 
9.8                            0.0435100595391594 142.49475909108  0.663720420564319 61.2425939543677 0.663720420564269 61.2425939543698 0.0484502648845159 144.732001344756 
9.9                            0.0396717045326528 127.830445882675 0.660484865012522 40.0585617696374 0.66048486501244 40.0585617696414 0.0450778661681091 133.443675217255 
10                             0.0306647342010618 117.477995724785 0.659267783663945 18.9584305607046 0.659267783663946 18.9584305607046 0.0366341758732262 125.144935635406 
