! Touchstone file exported from HFSS 3D Layout Design 2026.1.0
!        File:           D:/Work/SIM/ADS_AUTO_SIM/projects/RFSOC_RF/TX_Fillter.aedt
!        Generated:      05:14:54 AM Aug 31, 2026
!        Design:         TX_BAND1_MCFIL_R52_CNN013
!        Project:        TX_Fillter
!
# GHz S MA R 50.000000
! Terminal data exported
! Port[1] = Port1
! Port[2] = Port2
14                             0.972227528400201 -166.607672474943 0.0037126354611781 -178.46500115551 0.0037126354611781 -178.46500115551 0.974661531726353 -161.091085960869 
14.05                          0.971712235185145 -167.508687156489 0.00378487611099181 -178.879854079653 0.00378487611099179 -178.879854079652 0.974212104607488 -161.945856511847 
14.1                           0.971180809969235 -168.416066115456 0.00386050056129531 -179.275172159772 0.00386050056129529 -179.275172159772 0.973749031706231 -162.806046943588 
14.15                          0.970632466309771 -169.330007932569 0.00393977062393627 -179.650550193587 0.00393977062393623 -179.650550193586 0.973271655893082 -163.671818036238 
14.2                           0.970066366119411 -170.250721520118 0.00402297340802116 179.994381059682 0.00402297340802108 179.994381059684 0.972779277202121 -164.54333896679 
14.25                          0.969481615411172 -171.178426792458 0.00411042406607345 179.659947680217 0.00411042406607339 179.659947680217 0.97227114932548 -165.420787852987 
14.3                           0.968877259619717 -172.113355389579 0.00420246886012198 179.346424619631 0.00420246886012191 179.346424619632 0.971746475760944 -166.304352339918 
14.35                          0.9682522784492  -173.055751458812 0.00429948858681541 179.054026936543 0.00429948858681532 179.054026936543 0.971204405572238 -167.194230233304 
14.4                           0.967605580191249 -174.005872500266 0.00440190240572738 178.782900218922 0.00440190240572729 178.782900218923 0.970644028716087 -168.090630183941 
14.45                          0.966935995448866 -174.963990282245 0.00451017212082244 178.53311019046  0.00451017212082235 178.533110190461 0.970064370883868 -168.993772428235 
14.5                           0.966242270193053 -175.930391833597 0.00462480697173599 178.304631515462 0.0046248069717359 178.304631515463 0.969464387798381 -169.903889590345 
14.55                          0.965523058068555 -176.905380520757 0.00474636899923817 178.097335837628 0.00474636899923808 178.097335837629 0.968842958897878 -170.821227552069 
14.6                           0.96477691185302 -177.88927721815 0.00487547905820441 177.910979112399 0.00487547905820432 177.910979112399 0.968198880329692 -171.746046397305 
14.65                          0.964002273959784 -178.882421581668 0.00501282356184296 177.745188320359 0.00501282356184287 177.74518832036  0.967530857164475 -172.67862143875 
14.7                           0.96319746585807 -179.885173436102 0.00515916205313121 177.599447679833 0.00515916205313114 177.599447679834 0.966837494728737 -173.61924433538 
14.75                          0.962360676265142 179.10208571127  0.00531533571374487 177.473084509744 0.0053153357137448 177.473084509745 0.96611728893793 -174.568224310294 
14.8                           0.961489947942414 178.078951017197 0.00548227693767262 177.365254927858 0.00548227693767256 177.365254927859 0.965368615494112 -175.525889479693 
14.85                          0.960583162900994 177.044992493599 0.00566102011672528 177.274929603088 0.00566102011672522 177.274929603089 0.964589717790864 -176.492588305049 
14.9                           0.959638025790861 175.999753025933 0.00585271380892639 177.200879811853 0.00585271380892633 177.200879811855 0.963778693342969 -177.468691182084 
14.95                          0.958652045210931 174.942746199049 0.00605863448909867 177.141664075011 0.00605863448909862 177.141664075012 0.96293347852861 -178.454592181856 
15                             0.957622512633397 173.873453908275 0.00628020211479308 177.095615671039 0.00628020211479304 177.09561567104  0.962051831396599 -179.450710961239 
15.05                          0.956546478583681 172.791323730497 0.00651899778119548 177.060831329988 0.00651899778119546 177.060831329988 0.961131312249265 179.542505137696 
15.1                           0.955420725655138 171.69576602657  0.00677678378718307 177.035161408145 0.00677678378718306 177.035161408146 0.960169261661707 178.524578777318 
15.15                          0.954241737863388 170.586150742558 0.00705552649296408 177.016201822646 0.00705552649296408 177.016201822646 0.95916277553846 177.495000078113 
15.2                           0.953005665755994 169.461803872781 0.00735742241974571 177.001287985815 0.00735742241974574 177.001287985816 0.958108676737051 176.453223808078 
15.25                          0.951708286585909 168.322003542523 0.00768492812608575 176.987490919263 0.00768492812608574 176.987490919264 0.957003482701903 175.398666275707 
15.3                           0.950344958727653 167.165975662364 0.00804079449695872 176.971615646759 0.00804079449695874 176.971615646759 0.955843368448168 174.330701890115 
15.35                          0.948910569358297 165.992889099304 0.00842810620371734 176.950201863259 0.00842810620371736 176.950201863259 0.95462412410939 173.248659346917 
15.4                           0.947399474234788 164.801850302104 0.0088503272404586 176.919526757003 0.00885032724045861 176.919526757003 0.953341106110244 172.151817392837 
15.45                          0.945805428166793 163.591897309352 0.00931135362020519 176.875609725409 0.00931135362020524 176.875609725409 0.951989180839531 171.039400115738 
15.5                           0.944121504500068 162.36199305866  0.00981557452942313 176.81421857827  0.00981557452942316 176.81421857827  0.950562659471201 169.910571699551 
15.55                          0.942340001576541 161.111017903874 0.010367943499893 176.730876668691 0.010367943499893 176.730876668691 0.9490552223021  168.76443057566  
15.6                           0.940452333707811 159.837761234182 0.0109740614729498 176.620870239239 0.0109740614729498 176.620870239239 0.947459830631755 167.60000289344  
15.65                          0.938448903668063 158.540912074564 0.0116402740151096 176.479255123513 0.0116402740151096 176.479255123513 0.945768623785324 166.41623522304  
15.7                           0.936318953054611 157.219048530978 0.0123737854115777 176.300861806509 0.0123737854115778 176.300861806509 0.94397279835545 165.211986393284 
15.75                          0.934050386046381 155.870625926528 0.0131827929341765 176.080297723891 0.0131827929341765 176.080297723891 0.942062466085722 163.986018357019 
15.8                           0.931629561070515 154.493963456773 0.0140766452763026 175.811945571524 0.0140766452763026 175.811945571524 0.940026486004585 162.73698596609  
15.85                          0.929041043611717 153.087229174549 0.0150660299983019 175.489956300557 0.0150660299983019 175.489956300557 0.93785226540144 161.463425529253 
15.9                           0.926267311799849 151.648423098583 0.0161631958668018 175.108235385296 0.0161631958668018 175.108235385296 0.935525522962742 160.163742020621 
15.95                          0.923288404403018 150.175358228795 0.0173822172424477 174.660420863421 0.0173822172424477 174.660420863421 0.933030005787457 158.836194806318 
16                             0.920081498327975 148.665639248957 0.0187393092203957 174.139851550489 0.0187393092203957 174.139851550489 0.93034714999344 157.478881767315 
16.05                          0.916620399552861 147.116638711925 0.0202532041112607 173.539523710772 0.0202532041112607 173.539523710772 0.92745567210434 156.089721723802 
16.1                           0.912874927424907 145.525470545816 0.0219456021249358 172.852034310671 0.0219456021249358 172.852034310671 0.924331075242732 154.666435121653 
16.15                          0.908810167251943 143.888960810537 0.0238417118409901 172.069508775533 0.0238417118409902 172.069508775533 0.920945050199169 153.206523041337 
16.2                           0.904385559878547 142.203615803016 0.0259708992569686 171.183510903726 0.0259708992569685 171.183510903726 0.91726474653025 151.7072447601   
16.25                          0.89955378923198 140.465587904563 0.0283674678998769 170.184932255739 0.0283674678998769 170.184932255739 0.913251882791293 150.165594379924 
16.3                           0.894259419447056 138.670640060843 0.0310715965825778 169.06385793201  0.0310715965825778 169.06385793201  0.90886165769538 148.578277489945 
16.35                          0.888437222051004 136.814110604736 0.0341304656391541 167.809405198423 0.0341304656391542 167.809405198423 0.904041415389035 146.941689561098 
16.4                           0.882010121028294 134.890881466552 0.0375996063353384 166.409530958681 0.0375996063353384 166.409530958681 0.898729008393677 145.251898926317 
16.45                          0.874886670261094 132.895354969979 0.0415445105408483 164.850803703479 0.0415445105408483 164.850803703479 0.892850791897324 143.504639021108 
16.5                           0.866957966029391 130.821447872265 0.0460425366578508 163.11813546847  0.0460425366578508 163.11813546847  0.886319174931484 141.695317419229 
16.55                          0.858093891645601 128.662616849418 0.0511851396241271 161.194469832386 0.0511851396241271 161.194469832386 0.879029651608155 139.819053674181 
16.6                           0.848138601272375 126.411938486654 0.0570804313022042 159.060423651739 0.0570804313022042 159.060423651738 0.870857247042712 137.870764956487 
16.65                          0.836905193447432 124.062280967302 0.0638560321727831 156.693884025141 0.0638560321727831 156.693884025141 0.861652352982297 135.845329302368 
16.7                           0.824169634875136 121.606627127606 0.0716620886706003 154.069569507322 0.0716620886706003 154.069569507322 0.851236025096082 133.737872938798 
16.75                          0.809664230732505 119.038644080198 0.0806741754382916 151.158578417736 0.0806741754382916 151.158578417735 0.839395016069274 131.5442533944   
16.8                           0.793071400990975 116.353650222492 0.091095537542731 147.927971159903 0.0910955375427311 147.927971159903 0.825877208703115 129.261847470268 
16.85                          0.7740193806291  113.550215916929 0.103157699208467 144.340473464012 0.103157699208467 144.340473464012 0.810388823697478 126.890806170537 
16.9                           0.752082970897545 110.632761340723 0.117117811778033 140.354450618234 0.117117811778033 140.354450618234 0.792596001519836 124.436008279259 
16.95                          0.726794970375491 107.615693518246 0.133250201272033 135.924395985519 0.133250201272033 135.924395985518 0.772135332142042 121.910021355681 
17                             0.697677737296011 104.529846725928 0.15182849029653 131.002301041415 0.151828490296529 131.002301041415 0.748640786943708 119.337426989433 
17.05                          0.664309442856143 101.432190188398 0.17309380363133 125.540408974861 0.17309380363133 125.540408974861 0.721798001626633 116.760785421936 
17.1                           0.626444682391126 98.4197168663282 0.197204928165657 119.495932845267 0.197204928165656 119.495932845267 0.69143937210022 114.248072854346 
17.15                          0.584209946993348 95.6475040116795 0.224169771475902 112.838194431502 0.224169771475901 112.838194431502 0.657690573362399 111.900184230459 
17.2                           0.538381307233475 93.3476530476458 0.253766439179698 105.558073487143 0.253766439179698 105.558073487143 0.621162299502279 109.854434185753 
17.25                          0.49070775285463 91.8371948399313 0.285477425473561 97.6784273873054 0.285477425473561 97.6784273873055 0.583139300485821 108.275649246795 
17.3                           0.44414897825057 91.4854037924211 0.318476152258762 89.2623710512913 0.318476152258762 89.2623710512914 0.545651140200571 107.322436683696 
17.35                          0.402749971228291 92.5897658177787 0.351705991913362 80.4149215647828 0.351705991913362 80.4149215647829 0.51125281719874 107.080285044499 
17.4                           0.370774549262873 95.1325131638579 0.384060649113254 71.274194548261  0.384060649113254 71.274194548261  0.48239769025524 107.477989242454 
17.45                          0.351010022149838 98.5512999817728 0.41461595314553 61.9921596576761 0.414615953145531 61.9921596576761 0.460546899067997 108.245890334179 
17.5                           0.343146178101163 101.854286275431 0.442818169507537 52.7103563526621 0.442818169507538 52.7103563526621 0.445504579934854 108.980587806521 
17.55                          0.343772558020444 104.138802703701 0.468548918538072 43.5389914699003 0.468548918538074 43.5389914699002 0.435467069334268 109.297837046342 
17.6                           0.348116233601126 105.002044030075 0.49205565431414 34.5458891942346 0.492055654314141 34.5458891942344 0.427745247763817 108.963123897311 
17.65                          0.351884427420127 104.509646267147 0.513801736727083 25.7565528056024 0.513801736727083 25.7565528056022 0.419627484796893 107.920930029869 
17.7                           0.352086509966922 102.955434641119 0.534306775390546 17.1621633684055 0.534306775390546 17.1621633684053 0.408929954312317 106.247108024538 
17.75                          0.347018554162928 100.683132661084 0.554023227221721 8.73095773353759 0.55402322722172 8.7309577335374  0.394166190972927 104.088756031926 
17.8                           0.335956013108205 98.020576532336  0.573262210722914 0.419474922331659 0.573262210722913 0.41947492233151 0.374495716873034 101.628463838346 
17.85                          0.318872654707909 95.2832843719703 0.592161650991703 -7.81808855123583 0.592161650991703 -7.81808855123595 0.349616394173999 99.0787620065081 
17.9                           0.29628436625631 92.8111837281874 0.610685001674312 -16.0228636666197 0.610685001674312 -16.0228636666197 0.319692195758242 96.7029661334982 
17.95                          0.269225732970673 91.0247766934317 0.628641767544458 -24.2264796325569 0.628641767544459 -24.2264796325569 0.285353487989607 94.8636635543877 
18                             0.239353443094454 90.4970865391584 0.645725147436307 -32.4481649385277 0.645725147436308 -32.4481649385277 0.247793418609664 94.1118219306568 
18.05                          0.209180829625231 92.019173078411  0.661563801826833 -40.6936315279257 0.661563801826834 -40.6936315279257 0.209014105607751 95.34085666993   
18.1                           0.182403445607484 96.5348842334249 0.675783262768866 -48.9556870964089 0.675783262768868 -48.955687096409 0.172347605612947 99.9924085031701 
18.15                          0.163938216925236 104.571937302816 0.688069057991154 -57.2164758064293 0.688069057991156 -57.2164758064294 0.143316374119056 109.93200980751  
18.2                           0.158509227240133 114.951913833677 0.698220671698653 -65.45105379578  0.698220671698655 -65.4510537957801 0.12958993040617 125.435007643274 
18.25                          0.167401191245068 124.556499588775 0.706185545928194 -73.6317487221195 0.706185545928197 -73.6317487221196 0.136016218382185 141.731960412073 
18.3                           0.187233003474517 130.860340452098 0.712066499159922 -81.7325711492586 0.712066499159924 -81.7325711492587 0.158601816592432 153.058796855927 
18.35                          0.2128632994761  133.504650614882 0.716102868735658 -89.7329519630978 0.716102868735659 -89.7329519630979 0.189269993221614 158.70282445256  
18.4                           0.240082976124131 133.268350906208 0.7186323323969  -97.6202899881357 0.718632332396901 -97.6202899881358 0.222067510089796 160.425397377138 
18.45                          0.266149251496604 131.009945611164 0.720043946579681 -105.391120126843 0.720043946579681 -105.391120126843 0.253679030725403 159.773080846544 
18.5                           0.2894362021045  127.358152699162 0.720732568531513 -113.051024016589 0.720732568531513 -113.051024016589 0.282373954647313 157.701422651917 
18.55                          0.309049909820447 122.721115888745 0.721061637566557 -120.613604818836 0.721061637566557 -120.613604818836 0.307290320908573 154.76589184298  
18.6                           0.324567705288507 117.351400913213 0.721337276313019 -128.098909019675 0.721337276313019 -128.098909019675 0.328062480475648 151.291174103684 
18.65                          0.335877076660245 111.399571590132 0.721793439803628 -135.531633939373 0.721793439803628 -135.531633939372 0.344624374936548 147.46969634053  
18.7                           0.343078673699405 104.950003730746 0.722586047262895 -142.939365674687 0.722586047262895 -142.939365674687 0.357098742131607 143.415301404929 
18.75                          0.346430512912299 98.0438722735133 0.723793546230154 -150.350996017102 0.723793546230154 -150.350996017102 0.365731864287971 139.192404245748 
18.8                           0.346319508242487 90.6942743994411 0.725421685497371 -157.795395207031 0.725421685497373 -157.795395207031 0.370854449415264 134.831641732118 
18.85                          0.3432509494982  82.8970408829877 0.727410897918444 -165.300377381703 0.727410897918446 -165.300377381702 0.372857721727825 130.337603695367 
18.9                           0.337848390251687 74.6397652765799 0.729645240551316 -172.891981737332 0.729645240551318 -172.891981737332 0.372177531393528 125.691498677649 
18.95                          0.330856796181416 65.9110071759923 0.731962093771069 179.405907153494 0.731962093771072 179.405907153494 0.369281523063343 120.850319004524 
19                             0.323141493066606 56.7111812785925 0.734161707030987 171.571576071566 0.734161707030988 171.571576071566 0.364656629197678 115.743569450054 
19.05                          0.315675281514481 47.065815782615  0.736015241499082 163.585127226505 0.736015241499082 163.585127226505 0.358797213167471 110.268599279172 
19.1                           0.309507436577169 37.040012586073  0.737269363923527 155.427781030394 0.737269363923526 155.427781030394 0.352198438225057 104.285871697409 
19.15                          0.305713080194747 26.7497637386728 0.737644980254873 147.080945363992 0.737644980254871 147.080945363992 0.345364505296286 97.6160597014064 
19.2                           0.305330562883801 16.3624048040026 0.736827763400526 138.525273085003 0.736827763400522 138.525273085003 0.338845676604   90.041788400149  
19.25                          0.309304691951947 6.07829256128038 0.734449218421224 129.74007469336  0.734449218421219 129.74007469336  0.333317964159171 81.3185438207539 
19.3                           0.318455125787598 -3.90758889539723 0.730059694429804 120.703611075511 0.730059694429799 120.703611075511 0.329708586810591 71.2020864281302 
19.35                          0.333471958014109 -13.4533334511625 0.723099538211277 111.394921851879 0.723099538211272 111.394921851879 0.329338945336512 59.5021489131096 
19.4                           0.354908858946232 -22.5072528210488 0.712881696772717 101.797864719516 0.712881696772713 101.797864719516 0.333997848461505 46.1669895203233 
19.45                          0.383123302335358 -31.1165185207851 0.698607394810822 91.9077969492708 0.69860739481082 91.9077969492714 0.345794259312903 31.3771371142095 
19.5                           0.418131658636507 -39.4018302132359 0.679441684354608 81.7406057261436 0.679441684354607 81.7406057261442 0.366664808056051 15.5824206971544 
19.55                          0.459407836344559 -47.508024644958 0.654668499118293 71.3424437991881 0.654668499118293 71.3424437991885 0.397632645602016 -0.587035278808194 
19.6                           0.505725246841139 -55.5509074854795 0.623914494367373 60.7968162626394 0.623914494367374 60.7968162626396 0.438207670415401 -16.5075823175665 
19.65                          0.555168798363483 -63.5810102703911 0.58737831386339 50.2246418510678 0.587378313863389 50.2246418510676 0.486319395504309 -31.7159751864969 
19.7                           0.605385150117976 -71.5755247485424 0.545957031879835 39.7741446757473 0.545957031879832 39.7741446757469 0.538820116213443 -45.9453031003628 
19.75                          0.654011360503555 -79.4560473373243 0.501175528509623 29.6015075499597 0.501175528509617 29.6015075499592 0.592272474778394 -59.0777458756919 
19.8                           0.699110500734692 -87.1196513070221 0.454916294141668 19.8481127892582 0.45491629414166 19.8481127892577 0.643675940318964 -71.0854401791469 
19.85                          0.739440180199572 -94.4687425354995 0.40905763301146 10.6222112040335 0.40905763301145 10.6222112040332 0.690905777957741 -81.9921573153307 
19.9                           0.774487033282361 -101.430270835623 0.365167106330475 1.99027482503616 0.365167106330464 1.99027482503604 0.732811672850507 -91.8536069874787 
19.95                          0.804322765805181 -107.962387251844 0.32434144157741 -6.02168133951372 0.324341441577398 -6.02168133951352 0.769065340425177 -100.746091144729 
20                             0.829390284474454 -114.051892531498 0.287194940114355 -13.4202309259343 0.287194940114344 -13.4202309259338 0.799900447942393 -108.757679710838 
20.05                          0.850307574292799 -119.707278100717 0.253942449828209 -20.2343726444339 0.2539424498282  -20.234372644433 0.825859955884451 -115.980637288312 
20.1                           0.867728740047166 -124.951067551727 0.22451599379985 -26.5061290523982 0.224515993799842 -26.506129052397 0.847606675535621 -122.505489065161 
20.15                          0.882264097280102 -129.813393551099 0.198674289149214 -32.2833039579165 0.198674289149207 -32.283303957915 0.865805339635098 -128.41703558167 
20.2                           0.894444457537917 -134.327381428846 0.176087548319142 -37.6145876318982 0.176087548319137 -37.6145876318966 0.881061469156678 -133.792165890758 
20.25                          0.904712578123156 -138.526189846135 0.156395268531466 -42.5466129311564 0.156395268531462 -42.5466129311546 0.893897436984185 -138.699042572386 
20.3                           0.913428663565842 -142.441309660484 0.139241659821157 -47.1224134930462 0.139241659821154 -47.1224134930444 0.904749565019634 -143.19718795635 
20.35                          0.920881632158368 -146.10171703354 0.1242950207405  -51.3807940062588 0.124295020740499 -51.3807940062571 0.91397541249195 -147.338082783657 
20.4                           0.92730161213223 -149.533560899357 0.111256630053477 -55.3562460967894 0.111256630053476 -55.3562460967878 0.921864891647144 -151.166003755787 
20.45                          0.93287152544892 -152.760160673385 0.0998632972487066 -59.0791623908352 0.0998632972487061 -59.0791623908337 0.92865187943226 -154.718928360187 
20.5                           0.93773696096809 -155.802168819876 0.0898863689186324 -62.5761932113496 0.0898863689186322 -62.5761932113483 0.934524804285902 -158.029410082074 
20.55                          0.942014213357957 -158.67780926304 0.0811289571335293 -65.8706538475108 0.0811289571335294 -65.8706538475097 0.939635670195376 -161.125376110828 
20.6                           0.945796658758669 -161.403139934026 0.0734224448639116 -68.9829312607731 0.0734224448639118 -68.9829312607724 0.944107465873061 -164.030829225147 
20.65                          0.949159736031897 -163.99231117707 0.0666228638950848 -71.9308641782258 0.066622863895085 -71.9308641782253 0.948040117394056 -166.766452052632 
20.7                           0.952164807785051 -166.457805867992 0.0606074572485855 -74.7300852472085 0.0606074572485857 -74.7300852472083 0.951515211556824 -169.350120261701 
20.75                          0.954862143246621 -168.810655302061 0.0552715702398728 -77.3943221752633 0.0552715702398731 -77.3943221752633 0.954599719252234 -171.797334817883 
20.8                           0.957293222385649 -171.060629469409 0.050525918946522 -79.9356591276787 0.0505259189465222 -79.935659127679 0.957348922558691 -174.121584359765 
20.85                          0.959492519353145 -173.216402722047 0.046294233546901 -82.3647617248133 0.0462942335469011 -82.3647617248139 0.959808715570309 -176.334648311469 
20.9                           0.961488887823105 -175.285696958809 0.0425112486363443 -84.6910697664118 0.0425112486363443 -84.6910697664125 0.962017415964454 -178.446850293166 
20.95                          0.963306642072529 -177.275404866257 0.0391210021010637 -86.9229619027942 0.0391210021010637 -86.9229619027952 0.964007195488537 179.532729871027 
21                             0.964966405140592 -179.191695782888 0.0360754017328123 -89.0678962182392 0.0360754017328121 -89.0678962182404 0.965805213770703 177.596078504469 
21.05                          0.966485778134532 178.959893408112 0.0333330205601929 -91.132530285896 0.0333330205601927 -91.1325302858971 0.967434520875128 175.736098895206 
21.1                           0.967879871640366 177.174380197424 0.0308580855939295 -93.1228238033943 0.0308580855939293 -93.1228238033954 0.968914779151482 173.94648569072  
21.15                          0.969161730308779 175.447269287958 0.0286196290752528 -95.0441264796466 0.0286196290752524 -95.0441264796479 0.970262843409971 172.221618837253 
21.2                           0.970342674249599 173.774494722681 0.0265907757108721 -96.9012534424075 0.0265907757108718 -96.9012534424086 0.97149322958858 170.556473745814 
21.25                          0.971432575276981 172.152369910572 0.0247481434474564 -98.6985500829213 0.0247481434474561 -98.6985500829225 0.972618495277532 168.946544958493 
21.3                           0.972440081838484 170.577544370632 0.0230713389475126 -100.439947949668 0.0230713389475123 -100.439947949669 0.973649550251612 167.387781074649 
21.35                          0.973372803285088 169.046966196609 0.0215425320454471 -102.129013044768 0.0215425320454468 -102.129013044769 0.974595911160458 165.876529094088 
21.4                           0.97423746173443 167.557849401096 0.0201460961091232 -103.768987659065 0.0201460961091229 -103.768987659066 0.975465911451891 164.409486659028 
21.45                          0.975040017951578 166.107645429623 0.0188683034543324 -105.362826699832 0.0188683034543321 -105.362826699832 0.976266875233345 162.983660941519 
21.5                           0.975785776276094 164.694018246402 0.0176970668116439 -106.913229313165 0.0176970668116437 -106.913229313165 0.977005261943896 161.596333139209 
21.55                          0.97647947255351 163.314822486531 0.0166217193813302 -108.42266647659 0.01662171938133 -108.42266647659 0.977686787287192 160.245027719026 
21.6                           0.977125348204069 161.968084247498 0.0156328272825796 -109.893405132034 0.0156328272825795 -109.893405132035 0.978316524767498 158.927485692905 
21.65                          0.977727212922055 160.651984158091 0.0147220292522442 -111.327529341516 0.0147220292522442 -111.327529341516 0.978898991304083 157.641641328293 
21.7                           0.978288498000994 159.364842417498 0.013881899313956 -112.726958874613 0.0138818993139561 -112.726958874613 0.979438219718061 156.385601793594 
21.75                          0.978812301890015 158.105105543251 0.0131058288526959 -114.09346557552 0.013105828852696 -114.09346557552 0.979937820348194 155.157629319046 
21.8                           0.97930142927978 156.87133460506  0.0123879251196249 -115.428687806174 0.0123879251196251 -115.428687806174 0.980401033626209 153.95612551984  
21.85                          0.979758424773569 155.662194753991 0.0117229236793793 -116.734143218773 0.0117229236793796 -116.734143218772 0.980830775102972 152.779617583303 
21.9                           0.980185602006055 154.476445883638 0.0111061127153782 -118.01124007473 0.0111061127153784 -118.01124007473 0.98122967414581 151.626746067584 
21.95                          0.980585068917988 153.312934282967 0.0105332674429917 -119.261287296393 0.010533267442992 -119.261287296393 0.981600107309521 150.496254097381 
22                             0.980958749771079 152.170585159949 0.0100005931579811 -120.485503411867 0.0100005931579814 -120.485503411866 0.98194422720816 149.386977774009 
22.05                          0.981308404387341 151.048395931621 0.00950467567847565 -121.685024531218 0.00950467567847607 -121.685024531218 0.982263987572541 148.297837643777 
22.1                           0.981635645016017 149.945430190239 0.00904243813115993 -122.86091147353 0.00904243813116037 -122.860911473529 0.982561165062922 147.227831090998 
22.15                          0.981941951165166 148.860812267142 0.00861110319300093 -124.014156148202 0.00861110319300141 -124.014156148201 0.982837378312044 146.176025540874 
22.2                           0.982228682680839 147.79372232616  0.00820816003428752 -125.145687280175 0.00820816003428802 -125.145687280174 0.98309410459648 145.141552373394 
22.25                          0.982497091312357 146.74339192715  0.00783133532147682 -126.256375556952 0.00783133532147734 -126.256375556952 0.983332694470725 144.123601462929 
22.3                           0.982748330965478 145.709100007751 0.0074785677330627 -127.347038265147 0.00747856773306323 -127.347038265146 0.983554384646026 143.121416269659 
22.35                          0.982983466814812 144.690169237899 0.00714798552143372 -128.418443475576 0.00714798552143422 -128.418443475576 0.983760309352535 142.134289418792 
22.4                           0.983203483421528 143.685962707227 0.00683788672098295 -129.471313828359 0.00683788672098345 -129.471313828359 0.983951510387276 141.161558711819 
22.45                          0.983409291981235 142.695880910269 0.00654672165962916 -130.506329962998 0.00654672165962963 -130.506329962998 0.984128946020277 140.202603521271 
22.5                           0.98360173680918 141.719358998587 0.00627307747911798 -131.52413363276 0.00627307747911845 -131.524133632761 0.984293498906054 139.25684152653  
22.55                          0.983781601154958 140.755864272522 0.00601566441039992 -132.52533053781 0.00601566441040037 -132.525330537811 0.984445983126476 138.323725753562 
22.6                           0.983949612426343 139.804893888454 0.00577330358519992 -133.510492907308 0.00577330358520032 -133.510492907309 0.984587150473216 137.402741885966 
22.65                          0.984106446891128 138.865972760184 0.00554491619457294 -134.480161857008 0.0055449161945733 -134.480161857008 0.984717696062963 136.493405818693 
22.7                           0.98425273391681 137.938651635449 0.0053295138305885 -135.434849545691 0.00532951383058884 -135.434849545691 0.984838263365831 135.595261429183 
22.75                          0.984389059800164 137.022505330681 0.00512618986897878 -136.375041150991 0.00512618986897906 -136.375041150992 0.984949448716559 134.707878543648 
22.8                           0.984515971232163 136.117131108991 0.00493411176918227 -137.301196682755 0.00493411176918251 -137.301196682756 0.985051805368893 133.830851078775 
22.85                          0.984633978437978 135.222147187906 0.00475251418419073 -138.213752649945 0.00475251418419093 -138.213752649946 0.985145847145654 132.963795341406 
22.9                           0.984743558026922 134.337191364912 0.00458069278635436 -139.113123595277 0.00458069278635447 -139.113123595278 0.985232051730263 132.106348470681 
22.95                          0.984845155582969 133.461919750012 0.0044179987271523 -139.99970351016 0.00441799872715238 -139.999703510161 0.985310863639691 131.258167008871 
23                             0.984939188022826 132.596005595687 0.00426383365917214 -140.873867141104 0.00426383365917216 -140.873867141104 0.985382696913842 130.418925588623 
