! Touchstone file exported from HFSS 3D Layout Design 2026.1.0
!        File:           D:/Work/ADS/HFSS_VERDICT/hfss_sma_connector_cpw.aedt
!        Generated:      12:40:07 PM Aug  6, 2026
!        Design:         SINGLE_END_SMA_CPW_30MM
!        Project:        hfss_sma_connector_cpw
!
! Variables:
!        $sma_Base_D = 6.25mm
!        $sma_Base_L = 8mm
!        $sma_Feet_L = 4mm
!        $sma_Feet_W = 1mm
!        $sma_Front_L = 1.5mm
!        $sma_Front_W = 6.5mm
!        $sma_Hole_D = 1.25mm
!        $sma_PTFE_D = 4.2mm
!        $sma_Pin_D = 0.95mm
!        $sma_Pin_P = 1.7mm
!
# GHz S MA R 50.000000
! Terminal data exported
! Port[1] = Port1
! Port[2] = S1_1_Pin_T1
0.5                            0.0687741491791286 -132.20353020816 0.987658212534196 -41.6801273513938 0.987658212534195 -41.6801273513938 0.0690503187532958 -133.087486961478 
0.6                            0.0799304133511482 -140.67663146959 0.985235073670205 -49.9168774543783 0.985235073670205 -49.9168774543785 0.0801560235466658 -141.547237652807 
0.7                            0.089887732700583 -149.120156702948 0.982878232157529 -58.1321401098253 0.98287823215753 -58.1321401098255 0.0900183227432613 -149.860109877938 
0.8                            0.0985423287370714 -157.567392653702 0.980613027833342 -66.3291032770449 0.980613027833342 -66.329103277045 0.0985388175702883 -158.033003808241 
0.9                            0.1058085418268  -166.046538898528 0.978463784435613 -74.5103081827806 0.978463784435613 -74.5103081827807 0.105639480215257 -166.063600461758 
1                              0.111620903715504 -174.584653159202 0.976454577916456 -82.6781871637447 0.976454577916457 -82.6781871637447 0.111264125154808 -173.94231691522 
1.1                            0.115935631293826 176.789626396403 0.974606613660111 -90.8353171086124 0.974606613660111 -90.8353171086124 0.115379737335665 178.347107204749 
1.2                            0.118731725407845 168.043886088537 0.972935205263279 -98.9844775701283 0.97293520526328 -98.9844775701282 0.11797760093697 170.828041644651 
1.3                            0.120012074186449 159.139800793839 0.971447437484857 -107.128593875953 0.971447437484858 -107.128593875953 0.119074550623257 163.532289702575 
1.4                            0.119804969533089 150.030674849341 0.970140797129498 -115.270620369505 0.970140797129499 -115.270620369505 0.11871477475503 156.5022938124   
1.5                            0.118166434523163 140.658297243989 0.969002754727273 -123.413399102515 0.969002754727274 -123.413399102515 0.116972628308102 149.794295625275 
1.6                            0.115183806132568 130.948731639946 0.968011179141329 -131.559516498214 0.968011179141329 -131.559516498214 0.113956960796023 143.482558319691 
1.7                            0.110981159189433 120.80665762065  0.967135441060068 -139.711172583235 0.967135441060068 -139.711172583235 0.109817570135416 137.664663713402 
1.8                            0.105727410582531 110.108017568749 0.966338059660468 -147.87007239062 0.966338059660467 -147.87007239062 0.104754534404017 132.467465499627 
1.9                            0.0996482703642277 98.691348474524  0.965576750418426 -156.037345787344 0.965576750418426 -156.037345787344 0.0990311902186998 128.052039563285 
2                              0.093043369568726 86.3501447829884 0.964806734633419 -164.213499511147 0.964806734633419 -164.213499511147 0.0929909035613413 124.612995684174 
2.1                            0.0863090273298289 72.8337293169035 0.963983171822152 -172.398403168187 0.963983171822152 -172.398403168187 0.0870752046349209 122.361571988571 
2.2                            0.0799628081581165 57.8749934826449 0.963063576423469 179.408690898451 0.96306357642347 179.408690898451 0.0818338636260483 121.47366565377  
2.3                            0.074653543551227 41.2782701799347 0.962010083072674 171.209095713969 0.962010083072673 171.209095713969 0.0779043082387899 121.983679106971 
2.4                            0.0711176392895157 23.0943537637554 0.960791432978955 163.004609266634 0.960791432978955 163.004609266634 0.0759268213705861 123.642327182485 
2.5                            0.0700321808116817 3.81824455974965 0.959384569875832 154.797410626179 0.959384569875832 154.797410626179 0.0763848740123012 125.847251692569 
2.6                            0.0717827306060502 -15.6176096435207 0.957775758445826 146.589938871867 0.957775758445825 146.589938871866 0.0794399019383146 127.789476171328 
2.7                            0.0763029810333086 -34.2070917045984 0.955961170175007 138.384761978767 0.955961170175006 138.384761978767 0.0848854787670342 128.768981202831 
2.8                            0.0831373899510358 -51.3052764002326 0.95394691873749 130.184443182803 0.953946918737491 130.184443182803 0.0922573029100017 128.418275673063 
2.9                            0.0916555848712934 -66.7441210811147 0.951748565486119 121.991412175713 0.951748565486119 121.991412175713 0.100999438552158 126.694103233872 
3                              0.101237524160941 -80.6675882550805 0.949390151182141 113.807847784994 0.94939015118214 113.807847784994 0.110583295951911 123.742735932989 
3.1                            0.111357082738863 -93.3354619028067 0.946902838832697 105.635577652479 0.946902838832697 105.635577652479 0.120557702483217 119.776057702717 
3.2                            0.121594688476889 -105.010039268768 0.944323271612051 97.4759989737093 0.94432327161205 97.4759989737093 0.130555759971958 115.002856850344 
3.3                            0.131622416778008 -115.9142732597  0.941691758066695 89.3300227631337 0.941691758066694 89.3300227631338 0.140284709816443 109.602661339706 
3.4                            0.141184590540914 -126.225456173179 0.939050394539876 81.1980425339158 0.939050394539873 81.1980425339158 0.149512572788839 103.721235480877 
3.5                            0.150081512950174 -136.081546010754 0.936441223785911 73.0799268682516 0.93644122378591 73.0799268682517 0.158056499295982 97.4744406759278 
3.6                            0.158157447674908 -145.590061064794 0.933904511768501 64.9750342054779 0.933904511768499 64.9750342054781 0.165773806042637 90.9542126037121 
3.7                            0.16529208202643 -154.836087774633 0.931477204660149 56.8822473422674 0.931477204660148 56.8822473422675 0.172555369119226 84.2342668171324 
3.8                            0.171394496529307 -163.888623400295 0.929191607884596 48.8000246257146 0.929191607884594 48.8000246257147 0.178320799055695 77.3748526182538 
3.9                            0.176398885605365 -172.805374484212 0.927074310887157 40.7264645916002 0.927074310887155 40.7264645916004 0.183014911601983 70.4265242405709 
4                              0.180261530075542 178.363648759761 0.925145366616817 32.6593807968648 0.925145366616816 32.6593807968649 0.186605159532067 63.433097923105  
4.1                            0.182958717861553 169.573408557301 0.923417724093362 24.5963837462328 0.923417724093361 24.5963837462328 0.189079823844049 56.4339918652872 
4.2                            0.184485440874569 160.781716967583 0.921896905847908 16.5349670475756 0.921896905847906 16.5349670475757 0.190446860900866 49.4661175414436 
4.3                            0.184854780134932 151.947512728047 0.920580918869256 8.47259518833657 0.920580918869256 8.47259518833657 0.190733367613772 42.5654475687565 
4.4                            0.184097943938868 143.029393053021 0.919460387025545 0.4067905609395  0.919460387025546 0.406790560939406 0.189985664798526 35.7683395401328 
4.5                            0.182264956731871 133.984304904018 0.918518893661888 -7.66478244850922 0.918518893661889 -7.66478244850919 0.188270012172121 29.1126469781495 
4.6                            0.179426015087782 124.766348535671 0.917733524091107 -15.7442383654779 0.917733524091108 -15.744238365478 0.185673955854241 22.6385924375984 
4.7                            0.175673531563824 115.32570523498  0.917075597998787 -23.8333985048445 0.917075597998788 -23.8333985048446 0.182308263884587 16.3893056571619 
4.8                            0.171124868827168 105.607787433203 0.916511580588809 -31.9337277490056 0.916511580588811 -31.9337277490057 0.178309312941323 10.4108328780284 
4.9                            0.165925704444137 95.5528449032567 0.916004158104643 -40.0462820986698 0.916004158104645 -40.0462820986698 0.173841626935693 4.75129765983089 
5                              0.160253820736903 85.0964711330962 0.915513458031099 -48.1716687718916 0.915513458031099 -48.1716687718917 0.169100005050712 -0.541249669549694 
5.1                            0.154322817291332 74.1717542210186 0.914998387058187 -56.310020452031 0.914998387058187 -56.310020452031 0.164310288194324 -5.42286666830697 
5.2                            0.1483847064417  62.7141691169996 0.914418051414113 -64.4609850028212 0.914418051414114 -64.4609850028212 0.159727316706273 -9.8601627047377 
5.3                            0.142729506342533 50.6705304044156 0.913733215434447 -72.6237315620132 0.913733215434447 -72.6237315620132 0.155628165128526 -13.8392525682008 
5.4                            0.137678886238984 38.0129567661325 0.912907746450681 -80.796973395354 0.912907746450682 -80.796973395354 0.152298656509144 -17.3762666616851 
5.5                            0.133570179102268 24.7570756624509 0.911909988539612 -88.9790072615752 0.911909988539611 -88.9790072615751 0.150012047803264 -20.5267659025449 
5.6                            0.13072789803185 10.9800597876769 0.910714005511938 -97.1677683475887 0.91071400551194 -97.1677683475886 0.149001165057654 -23.389750384634 
5.7                            0.129423836335923 -3.17036218987124 0.909300635504143 -105.360899136482 0.909300635504143 -105.360899136482 0.149428861586302 -26.1019056869909 
5.8                            0.129833912518082 -17.4859191266294 0.90765830590211 -113.555829929856 0.907658305902112 -113.555829929856 0.151364673584731 -28.8207642475636 
5.9                            0.13200619765022 -31.729891580225 0.905783567685305 -121.749868215644 0.905783567685307 -121.749868215644 0.154775314854193 -31.7008238717066 
6                              0.135853477707493 -45.6811324534969 0.903681321695461 -129.940293691542 0.903681321695462 -129.940293691542 0.15953215682062 -34.8707393762812 
6.1                            0.141173289558768 -59.1713546652685 0.901364724489563 -138.12445553801 0.901364724489565 -138.12445553801 0.165432464762639 -38.4190547562063 
6.2                            0.14768585757491 -72.1019312073402 0.898854776915311 -146.299868474673 0.898854776915312 -146.299868474673 0.172226958203955 -42.3911460476567 
6.3                            0.155075181094692 -84.439636549737 0.896179613101857 -154.464304203023 0.896179613101858 -154.464304203023 0.179646246868674 -46.7950074974038 
6.4                            0.163022298712623 -96.2002261340474 0.893373520313755 -162.615875003982 0.893373520313753 -162.615875003983 0.18742159770258 -51.6112906120823 
6.5                            0.171226871515177 -107.429644795115 0.890475730621389 -170.753106495994 0.890475730621386 -170.753106495995 0.195298792681754 -56.8036212135025 
6.6                            0.179418393350905 -118.188627434225 0.887529033482036 -178.874996860534 0.887529033482035 -178.874996860534 0.203045976586929 -62.3270054868564 
6.7                            0.187360246439665 -128.542337676465 0.884578264134155 173.018939780656 0.884578264134153 173.018939780655 0.210457185111341 -68.1337042963232 
6.8                            0.194849636671069 -138.554419564777 0.881668726178799 164.928647675653 0.881668726178795 164.928647675653 0.217353182398304 -74.1768363249298 
6.9                            0.201715544565789 -148.284154992652 0.878844607725233 156.853522684187 0.878844607725233 156.853522684187 0.223580842307843 -80.4122783108802 
7                              0.207815967066652 -157.785529398828 0.876147448813205 148.792424985456 0.876147448813205 148.792424985456 0.229011885730675 -86.7994239482951 
7.1                            0.213035127275546 -167.107349093814 0.873614713397516 140.743710994032 0.873614713397512 140.743710994032 0.233541455637125 -93.301239281606 
7.2                            0.217280977206669 -176.2938742866  0.871278512204867 132.705283414719 0.871278512204866 132.705283414719 0.23708678966183 -99.8839150315381 
7.3                            0.220483133821989 174.614336468067 0.86916451388846 124.674657615794 0.86916451388846 124.674657615794 0.239586116890057 -106.516304321706 
7.4                            0.222591300768159 165.579527293713 0.867291072142153 116.649041881896 0.867291072142154 116.649041881896 0.240997834751693 -113.169254955467 
7.5                            0.223574190597044 156.565861795407 0.865668587016306 108.625428671181 0.865668587016307 108.625428671181 0.241299991305658 -119.814894174879 
7.6                            0.223418947825246 147.538578418094 0.864299110724181 100.600693756888 0.864299110724182 100.600693756888 0.240490091046061 -126.425893910062 
7.7                            0.222131067716726 138.463183487611 0.863176202477299 92.5717000536568 0.863176202477301 92.5717000536568 0.238585246174543 -132.974730422689 
7.8                            0.219734802045877 129.304672349717 0.862285033495759 84.5354029590314 0.862285033495761 84.5354029590313 0.235622699969579 -139.432950786434 
7.9                            0.216274037647978 120.026771144242 0.861602741830159 76.4889541154322 0.861602741830162 76.4889541154321 0.231660745391427 -145.770469014911 
8                              0.211813623637539 110.591204446639 0.861099035991408 68.4298005611775 0.86109903599141 68.4298005611774 0.226780041328253 -151.954938236627 
8.1                            0.206441105223948 100.957020501767 0.860737045263362 60.3557762578799 0.860737045263364 60.3557762578799 0.221085280904361 -157.951285447609 
8.2                            0.20026878956814 91.0800528929755 0.860474411548808 52.2651829552877 0.860474411548809 52.2651829552878 0.214707079160068 -163.721556483054 
8.3                            0.193436009930574 80.9126756566173 0.860264611463351 44.1568573166212 0.860264611463352 44.1568573166213 0.207803806924479 -169.225304089487 
8.4                            0.186111347281419 70.4041303893301 0.860058487420646 36.0302212393318 0.860058487420646 36.0302212393319 0.200562888618646 -174.420857203275 
8.5                            0.178494380868202 59.5018760723913 0.859805952633173 27.8853124469838 0.859805952633174 27.8853124469838 0.193200794938674 -179.267910808694 
8.6                            0.170816230175776 48.1546183409348 0.859457818131284 19.7227927787997 0.859457818131284 19.7227927787999 0.185960613630597 176.268091391819 
8.7                            0.16333769344326 36.317833712489  0.85896767181029 11.5439322300164 0.858967671810289 11.5439322300168 0.179105756243516 172.209471923095 
8.8                            0.156343232187853 23.9625095096916 0.858293722634862 3.3505677314892  0.858293722634862 3.35056773148947 0.172908264998978 168.557963539607 
8.9                            0.150128644039357 11.0871040112493 0.857400510381671 -4.85496311323862 0.857400510381669 -4.85496311323843 0.167630690179636 165.28576926336  
9                              0.14498058373691 -2.2689977922144 0.856260375556554 -13.0699116595721 0.856260375556551 -13.0699116595717 0.163502030641472 162.328726536125 
9.1                            0.141147961137628 -16.0148826562972 0.854854587621472 -21.2912279878362 0.854854587621471 -21.291227987836 0.160690832963021 159.585233940351 
9.2                            0.138809070465704 -30.0067889064627 0.853174043457091 -29.5156860629785 0.853174043457088 -29.5156860629786 0.159281364255463 156.923881911084 
9.3                            0.13804282311415 -44.0612862081451 0.851219471539666 -37.7400182691906 0.851219471539668 -37.7400182691903 0.15925993462926 154.199645317326 
9.4                            0.138814312642325 -57.9821058430851 0.849001108440191 -45.961052408227 0.849001108440192 -45.9610524082269 0.160516271059985 151.274319650164 
9.5                            0.140981100316632 -71.5918845299182 0.846537849411806 -54.1758438556082 0.846537849411807 -54.1758438556081 0.16285976822207 148.034536826167 
9.6                            0.144318307347654 -84.7568832459889 0.843855909740362 -62.3817957158815 0.843855909740361 -62.3817957158816 0.16604532841211 144.402100722457 
9.7                            0.148553411553691 -97.3972526270181 0.840987064007596 -70.5767604735222 0.840987064007601 -70.5767604735222 0.169801334410445 140.335364677671 
9.8                            0.1534001459104  -109.483430468506 0.837966553182888 -78.7591176966313 0.83796655318289 -78.7591176966313 0.173853668146864 135.823967071034 
9.9                            0.158584529330078 -121.024486003474 0.83483076275457 -86.9278236646729 0.834830762754568 -86.9278236646729 0.17794286342648 130.880584987038 
10                             0.163861026676085 -132.054616452198 0.831614778938101 -95.0824301891676 0.831614778938101 -95.0824301891676 0.181834383271486 125.532718838558 
