! Touchstone file exported from HFSS 3D Layout Design 2026.1.0
!        File:           D:/Work/ADS/HFSS_VERDICT/hfss_sma_connector_cpw.aedt
!        Generated:      02:01:03 PM Aug  6, 2026
!        Design:         SINGLE_END_SMA_CPW_30MM
!        Project:        hfss_sma_connector_cpw
!
! Variables:
!        $sma_Base_D = 6.25mm
!        $sma_Base_L = 8mm
!        $sma_Feet_L = 4mm
!        $sma_Feet_W = 1mm
!        $sma_Front_L = 1.5mm
!        $sma_Front_W = 6.5mm
!        $sma_Hole_D = 1.25mm
!        $sma_PTFE_D = 4.2mm
!        $sma_Pin_D = 0.95mm
!        $sma_Pin_P = 1.7mm
!
# GHz S MA R 50.000000
! Terminal data exported
! Port[1] = Port1
! Port[2] = S1_1_Pin_T1
0.5                            0.070940812081863 -133.059170314056 0.98750127256208 -41.7564159375731 0.987501272562081 -41.7564159375731 0.0712407026655127 -132.417071548993 
0.6                            0.0824444509991193 -141.697780552133 0.985029055065846 -50.0075360424162 0.985029055065862 -50.0075360424174 0.082693293914962 -140.719113759481 
0.7                            0.0927126132303884 -150.314145005833 0.982616336241685 -58.2359272154555 0.9826163362417  -58.235927215457 0.0928603520092689 -148.868113876142 
0.8                            0.101639400182357 -158.942378941848 0.980295976849852 -66.4450996921135 0.980295976849863 -66.4450996921147 0.10164410830763 -156.868958157474 
0.9                            0.109138298148041 -167.611912474095 0.978096656782853 -74.6379144721   0.978096656782857 -74.6379144721007 0.108968082035979 -164.717923696534 
1                              0.115144424787981 -176.351496473967 0.976044786414621 -82.8170763547331 0.976044786414622 -82.8170763547334 0.114778304535272 -172.403909551725 
1.1                            0.119616118217019 174.808036318409 0.974162620587062 -90.985388576358 0.974162620587062 -90.985388576358 0.119044958395977 -179.90867928509 
1.2                            0.122536172683102 165.831540489319 0.972465628513643 -99.1458228107275 0.972465628513642 -99.1458228107274 0.121764072091561 172.793700683295 
1.3                            0.123913192968936 156.677381156451 0.970960346185806 -107.301472209561 0.970960346185806 -107.301472209561 0.122959417963625 165.738200173026 
1.4                            0.123783522923261 147.294943100765 0.969643099201889 -115.455439663786 0.96964309920189 -115.455439663786 0.122684988770043 158.970959636008 
1.5                            0.122214184920793 137.621510901073 0.968499639863814 -123.610697018323 0.968499639863814 -123.610697018322 0.121028529850066 152.552247305135 
1.6                            0.119307311773025 127.578250279682 0.96750561411257 -131.769939050238 0.967505614112571 -131.769939050238 0.118116675369976 146.560200732625 
1.7                            0.115206677238527 117.065142176769 0.966627732145642 -139.935448154938 0.966627732145642 -139.935448154938 0.114122302319157 141.09505408563  
1.8                            0.11010710854698 105.955108691754 0.965825505924521 -148.108980529878 0.965825505924521 -148.108980529879 0.109274699424048 136.282845965396 
1.9                            0.104267654634961 94.0886518874739 0.965053414572853 -156.291681108874 0.965053414572852 -156.291681108874 0.103872771453619 132.27597746892  
2                              0.0980289310937704 81.2729646805018 0.964263356622148 -164.484031852945 0.964263356622147 -164.484031852946 0.0983000601174844 129.244790414878 
2.1                            0.0918328586351432 67.2949449867056 0.96340724457296 -172.685835791137 0.963407244572958 -172.685835791137 0.0930364900560526 127.349500316899 
2.2                            0.0862366009891253 51.9659129186918 0.962439593959171 179.103762832131 0.962439593959171 179.103762832131 0.0886539191299976 126.678899677269 
2.3                            0.0818994143337686 35.2191646219248 0.961319959166808 170.886223920795 0.961319959166806 170.886223920795 0.085772780974844 127.153910126684 
2.4                            0.0795071855705701 17.2527205289888 0.960015075038044 162.663525930047 0.960015075038045 162.663525930047 0.0849590980677723 128.437606239166 
2.5                            0.0796143656688607 -1.37669234820811 0.958500579370218 154.438054597047 0.958500579370218 154.438054597047 0.0865783671926336 129.946555501006 
2.6                            0.082460115296864 -19.8618227465735 0.956762217801655 146.212472760775 0.956762217801656 146.212472760775 0.0906839972902148 131.020802381813 
2.7                            0.0878909133228301 -37.4530039621618 0.954796468243811 137.989579066052 0.954796468243812 137.989579066052 0.0970217308563704 131.152726798363 
2.8                            0.0954540169079011 -53.7169044474111 0.952610563963663 129.772163816996 0.952610563963664 129.772163816996 0.105140897127616 130.103908665291 
2.9                            0.104572789257504 -68.5625297634403 0.950221938154341 121.562870087029 0.950221938154342 121.562870087029 0.11452745695779 127.869417407841 
3                              0.114684232788545 -82.1135752544427 0.947657153273247 113.364067420718 0.947657153273248 113.364067420718 0.124694103759392 124.576857083383 
3.1                            0.125302172088782 -94.5760172863454 0.944950410923536 105.177744172385 0.944950410923534 105.177744172385 0.135219236755711 120.400440298939 
3.2                            0.136029540841631 -106.160373321899 0.942141759286215 97.0054228775286 0.942141759286213 97.0054228775284 0.145753989108344 115.512624567295 
3.3                            0.146549169071913 -117.050410522056 0.939275123639265 88.8481012407786 0.939275123639263 88.8481012407784 0.156015686020988 110.064421650486 
3.4                            0.156609596533734 -127.396533543763 0.936396281869685 80.706219544854  0.93639628186968 80.706219544854  0.165777848672443 104.181059687587 
3.5                            0.166012184858683 -137.31903696141 0.933550893287875 72.5796537058004 0.93355089328787 72.5796537058003 0.174860797060461 97.9641292054989 
3.6                            0.174600979799974 -146.914047989447 0.930782668721909 64.4677319370709 0.930782668721904 64.4677319370708 0.183123955392707 91.4957312477559 
3.7                            0.182255114756979 -156.259347950724 0.9281317463629  56.3692720961042 0.928131746362896 56.3692720961042 0.190459856327702 84.8427335612296 
3.8                            0.188883189858626 -165.419231257187 0.925633314416892 48.2826362732261 0.925633314416887 48.2826362732262 0.196789548065047 78.0604864763125 
3.9                            0.194419123008514 -174.448322813707 0.923316500829612 40.2057990010298 0.923316500829609 40.2057990010299 0.20205910928537 71.1958746866163 
4                              0.198819117038845 176.605482772738 0.921203533794836 32.1364255415704 0.921203533794833 32.1364255415706 0.206237055176792 64.2897706764579 
4.1                            0.20205951814315 167.698753889453 0.919309165114648 24.071956965327  0.919309165114647 24.0719569653271 0.209312497090752 57.3790035128198 
4.2                            0.2041354349149  158.790743981381 0.9176403416484  16.0096990879985 0.9176403416484  16.0096990879986 0.211293977680182 50.4979499732085 
4.3                            0.205060048814805 149.841960732434 0.916196107395294 7.94691270795491 0.916196107395295 7.94691270795492 0.21220894025831 43.6798291444952 
4.4                            0.204864584202754 140.812981018391 0.914967719186833 -0.119097065712726 0.914967719186836 -0.119097065712868 0.2121038075171  36.9577492788735 
4.5                            0.203598925686468 131.66344961182  0.913938961350478 -8.19089432281146 0.913938961350482 -8.19089432281153 0.211044641678402 30.3655193750172 
4.6                            0.20133287506991 122.351240999559 0.913086647870599 -16.2708304288217 0.913086647870604 -16.2708304288217 0.209118333679566 23.9381959793594 
4.7                            0.198158027352455 112.831813848098 0.912381303439393 -24.3609682840634 0.912381303439395 -24.3609682840637 0.206434217243691 17.7122850964237 
4.8                            0.194190206392175 103.05785556766  0.911788016444469 -32.4630143388422 0.911788016444471 -32.4630143388423 0.203125914427032 11.7254581401456 
4.9                            0.189572318724799 92.9794099471276 0.911267456676226 -40.5782599464948 0.911267456676228 -40.578259946495 0.19935307880173 6.01557309162643 
5                              0.184477330389647 82.5448104696567 0.910777047898958 -48.7075336640408 0.910777047898959 -48.7075336640409 0.195302498221981 0.618733269204426 
5.1                            0.179110808051874 71.7028973459282 0.910272280239977 -56.8511661217079 0.910272280239977 -56.8511661217079 0.191187751932895 -4.43389514926821 
5.2                            0.173712055735264 60.4071300347479 0.909708139754525 -65.0089690401067 0.909708139754524 -65.0089690401068 0.187246326012997 -9.12067870881408 
5.3                            0.168552326703448 48.6221937170809 0.90904062301055 -73.1802298405492 0.90904062301055 -73.1802298405492 0.183732892954682 -13.4353748377152 
5.4                            0.163928027175922 36.3333026049528 0.908228293948686 -81.363723038177 0.908228293948684 -81.3637230381768 0.18090757994589 -17.3934915111139 
5.5                            0.160146633173927 23.5573318357811 0.90723382977435 -89.5577392066506 0.907233829774349 -89.5577392066504 0.179018785378118 -21.0375613451962 
5.6                            0.157503887181375 10.3530856908964 0.906025493637039 -97.7601317482928 0.906025493637039 -97.7601317482925 0.178281646168845 -24.4390694258656 
5.7                            0.156253396644789 -3.17389866343278 0.904578465852907 -105.968381003674 0.904578465852906 -105.968381003673 0.178855358329048 -27.6949051876045 
5.8                            0.156573823814944 -16.8768924131249 0.902875963837617 -114.179674419148 0.902875963837619 -114.179674419148 0.180824278407564 -30.9176639458467 
5.9                            0.15854246654426 -30.5856343276477 0.900910084812625 -122.3910006104  0.900910084812625 -122.3910006104  0.184187805263708 -34.2215839092414 
6                              0.162124060168165 -44.1319902176583 0.898682315239117 -130.599254283897 0.898682315239119 -130.599254283897 0.188861842677162 -37.7079963512804 
6.1                            0.167178665330176 -57.3747939747689 0.896203666586824 -138.801348187924 0.896203666586824 -138.801348187924 0.194691051797227 -41.4544165187832 
6.2                            0.17348516846528 -70.2155615382572 0.893494417405756 -146.994327645123 0.893494417405756 -146.994327645123 0.201468039398519 -45.5096222793878 
6.3                            0.180771986832329 -82.6020288335922 0.890583464933136 -155.175482844577 0.890583464933136 -155.175482844577 0.208954553509975 -49.8945440241386 
6.4                            0.18874650024728 -94.5220809583386 0.887507313295908 -163.342453997553 0.887507313295907 -163.342453997553 0.216900677850739 -54.6070406640243 
6.5                            0.197118071138231 -105.993107987963 0.884308747233932 -171.493324709729 0.884308747233931 -171.493324709729 0.225059872214479 -59.6282362918681 
6.6                            0.205613295620174 -117.051111226139 0.881035257855334 -179.626699479758 0.881035257855333 -179.626699479758 0.233199409358909 -64.9286481141766 
6.7                            0.213984534240739 -127.741893659969 0.877737298523409 172.25823795128  0.877737298523407 172.25823795128  0.241106798112663 -70.4731731259594 
6.8                            0.222013624504907 -138.114954446635 0.874466453708438 164.161687682466 0.874466453708438 164.161687682466 0.248593175379659 -76.2246752498209 
6.9                            0.229512578929811 -148.219769438868 0.871273601634362 156.08321937732  0.871273601634361 156.08321937732  0.255494637265608 -82.1462991991447 
7                              0.236322623793323 -158.103830561388 0.868207143821903 148.021780784285 0.868207143821902 148.021780784285 0.261672294325008 -88.2027856546286 
7.1                            0.24231247522049 -167.811841198178 0.865311362855362 139.975728257387 0.865311362855363 139.975728257387 0.267011621800889 -94.3610731157857 
7.2                            0.24737640195784 -177.385606126148 0.86262495590024 131.942877697019 0.862624955900243 131.942877697019 0.271421495976729 -100.590423645648 
7.3                            0.251432396664194 173.135696444624 0.860179777692179 123.920573744352 0.86017977769218 123.920573744352 0.274833177504365 -106.862248336504 
7.4                            0.254420640318019 163.715055470796 0.857999814620322 115.905774672729 0.857999814620325 115.905774672729 0.277199415463254 -113.149754356742 
7.5                            0.256302364673636 154.317094096931 0.856100402341866 107.895150196266 0.856100402341871 107.895150196266 0.278493789188482 -119.427495435924 
7.6                            0.257059170564675 144.907526306787 0.854487693664606 99.8851893101314 0.854487693664607 99.8851893101313 0.278710365917969 -125.670881801525 
7.7                            0.256692828683733 135.452638132409 0.853158381152447 91.8723152286693 0.853158381152444 91.8723152286692 0.277863720418146 -131.855692046823 
7.8                            0.255225563837625 125.91881601831  0.852099679386248 83.8530044373224 0.85209967938625 83.8530044373223 0.275989329357275 -137.957626243468 
7.9                            0.252700796740944 116.272144728755 0.851289573901266 75.8239067736135 0.851289573901264 75.8239067736135 0.273144311236973 -143.951945415289 
8                              0.249184283839594 106.478107544423 0.850697346020505 67.781963272179  0.850697346020504 67.781963272179  0.269408426196047 -149.813256321509 
8.1                            0.244765550117868 96.5014425801507 0.850284383416651 59.7245182468008 0.850284383416652 59.7245182468008 0.26488517407483 -155.515521279913 
8.2                            0.239559445920988 86.3062418623658 0.850005283574289 51.649421767201  0.850005283574289 51.6494217672009 0.259702730637711 -161.032398109494 
8.3                            0.233707568555697 75.8564245455488 0.84980924994455 43.5551183807801 0.84980924994455 43.5551183807801 0.25401434128615 -166.338039565059 
8.4                            0.227379164220784 65.1167686065606 0.849641767562968 35.4407177186501 0.849641767562967 35.4407177186502 0.247997656889403 -171.408493267639 
8.5                            0.220770960542214 54.0547332556994 0.849446526134135 27.3060426195623 0.849446526134135 27.3060426195622 0.241852369473887 -176.223821637788 
8.6                            0.214105183299242 42.6433159556563 0.849167535048202 19.1516507168415 0.849167535048204 19.1516507168412 0.235795431536703 179.229023169754 
8.7                            0.207624824968103 30.86510622946   0.848751348679902 10.978826157026  0.848751348679904 10.9788261570255 0.230053197746662 174.952714079441 
8.8                            0.201585160722137 18.717443518586  0.848149294979704 2.78953930796201 0.848149294979706 2.78953930796149 0.224850114289637 170.935886018415 
8.9                            0.196240732392553 6.21809199023943 0.847319579946662 -5.41362604222744 0.847319579946662 -5.41362604222796 0.22039419212188 167.150076862222 
9                              0.191827769732812 -6.58984985669133 0.846229129363851 -13.6275764856619 0.846229129363852 -13.6275764856623 0.216860436920125 163.548323718096 
9.1                            0.188543412271665 -19.635715706125 0.844855030738182 -21.8488400825994 0.844855030738183 -21.8488400825999 0.214374472389219 160.066431070244 
9.2                            0.18652488658643 -32.8236688336766 0.843185454631885 -30.0737188612519 0.843185454631881 -30.0737188612523 0.212999347697694 156.627403322939 
9.3                            0.185833187687928 -46.0406513859607 0.841219965086489 -38.2984549911247 0.841219965086486 -38.2984549911247 0.212728441904011 153.148574869797 
9.4                            0.186445734771174 -59.1687901813756 0.838969170651738 -46.5194015709272 0.838969170651735 -46.5194015709269 0.213486215358426 149.549971751573 
9.5                            0.18826038646893 -72.0991611445287 0.836453715506385 -54.7331883679734 0.836453715506381 -54.7331883679726 0.215136634133293 145.761950691187 
9.6                            0.191109843747685 -84.7431469659254 0.833702657955697 -62.9368730270497 0.833702657955695 -62.9368730270484 0.217497224446411 141.730482642873 
9.7                            0.194782544046784 -97.0387757642676 0.830751324974631 -71.1280691812283 0.83075132497463 -71.1280691812266 0.22035570107398 137.419375948983 
9.8                            0.199045061496394 -108.951577287554 0.827638761605089 -79.3050443841032 0.827638761605091 -79.3050443841014 0.223486236365107 132.809736164692 
9.9                            0.203661896030777 -120.471295813653 0.82440491043765 -87.4667826075829 0.824404910437651 -87.4667826075816 0.226663375811206 127.897582600422 
10                             0.208410412172187 -131.606500569998 0.821087659364691 -95.6130079526238 0.821087659364692 -95.6130079526238 0.229672778124149 122.690662711732 
