! Touchstone file exported from HFSS 3D Layout Design 2026.1.0
!        File:           F:/1.Hardware/HFSS/SP8T/SP8T_HFSS.aedt
!        Generated:      10:48:17 PM Aug  6, 2026
!        Design:         RF_IN_cutout
!        Project:        SP8T_HFSS
!
! Variables:
!        BendModel = 0
!
# GHz S MA R 50.000000
! Terminal data exported
! Port[1] = Port1
! Port[2] = S1_1_Pin_T1
0.5                            0.0416046345627311 -106.651837905764 0.994481416806743 -20.6485902635384 0.994481416806742 -20.6485902635384 0.0414417190107635 -120.539594588009 
0.55                           0.0454758742845119 -108.099431237926 0.993889967985914 -22.6950394936805 0.993889967985914 -22.6950394936804 0.0453046851337277 -123.384092209341 
0.6                            0.0492932592859335 -109.527635901806 0.993294824221768 -24.7392493337672 0.993294824221769 -24.739249333767 0.0491064462040042 -126.221278810991 
0.65                           0.0530568712359308 -110.938942178193 0.992696841301258 -26.7814884622663 0.992696841301261 -26.7814884622661 0.0528465698881612 -129.051260455271 
0.7                            0.0567664015364052 -112.335438509512 0.992096216342864 -28.8219716135868 0.992096216342869 -28.8219716135867 0.0565247876348044 -131.874769431936 
0.75                           0.0604211988825897 -113.7187914643  0.991492800698427 -30.8608661693454 0.991492800698432 -30.8608661693453 0.0601408911198757 -134.692892412291 
0.8                            0.064020337528918 -115.090274315391 0.990886311128165 -32.8983003367293 0.990886311128171 -32.8983003367292 0.0636946633882459 -137.506894102264 
0.85                           0.067562690315526 -116.450816973336 0.990276463445248 -34.9343713471927 0.990276463445255 -34.9343713471926 0.0671858385900813 -140.318103555236 
0.9                            0.0710469976580655 -117.801061835282 0.989663050454421 -36.969152886551 0.989663050454428 -36.969152886551 0.0706140838060788 -143.12784266567 
0.95                           0.0744719283565741 -119.141417449991 0.989045981678464 -39.0027014436466 0.989045981678471 -39.0027014436466 0.0739789969234107 -145.937383305444 
1                              0.0778361308594566 -120.472106272184 0.988425297946347 -41.0350615304309 0.988425297946354 -41.035061530431 0.0772801154276978 -148.747923823409 
1.05                           0.0811382751366816 -121.793205252509 0.987801170162869 -43.0662698586673 0.987801170162876 -43.0662698586674 0.0805169320152735 -151.560578434429 
1.1                            0.0843770860476592 -123.104679314221 0.987173888673727 -45.0963586126369 0.987173888673733 -45.0963586126371 0.0836889139250371 -154.376374963354 
1.15                           0.0875513693630728 -124.406408383571 0.986543847513489 -47.1253579689918 0.986543847513494 -47.1253579689919 0.0867955237508196 -157.196257785287 
1.2                            0.0906600316268946 -125.698208869437 0.985911526325499 -49.1532980058403 0.985911526325504 -49.1532980058405 0.0898362401926854 -160.021093789799 
1.25                           0.0937020949518956 -126.979850511518 0.985277471715357 -51.1802101255439 0.98527747171536 -51.180210125544 0.0928105777422189 -162.851679903709 
1.3                            0.0966767077014042 -128.251069441923 0.98464227911018 -53.2061280960723 0.984642279110183 -53.2061280960725 0.0957181046924976 -165.688751210267 
1.35                           0.0995831518603625 -129.511578191419 0.984006575741627 -55.231088797276 0.984006575741629 -55.2310887972762 0.0985584591438288 -168.532989057201 
1.4                            0.102420847758569 -130.761073250544 0.983371005076365 -57.2551327423964 0.983371005076366 -57.2551327423966 0.101331362866994 -171.38502879259 
1.45                           0.105189356685928 -131.999240682111 0.982736212830393 -59.2783044318972 0.982736212830395 -59.2783044318974 0.104036633009073 -174.245466936448 
1.5                            0.10788838183528 -133.225760181714 0.98210283458665 -61.3006525861383 0.982102834586651 -61.3006525861384 0.106674191701274 -177.114867709702 
1.55                           0.110517767921795 -134.440307897985 0.981471484963886 -63.3222302952305 0.981471484963886 -63.3222302952306 0.109244073667687 -179.993768917733 
1.6                            0.113077499756642 -135.642558253513 0.980842748242228 -65.3430951182683 0.980842748242227 -65.3430951182684 0.111746431949185 177.117312765006 
1.65                           0.115567699994111 -136.832184948724 0.980217170326085 -67.3633091597216 0.980217170326085 -67.3633091597217 0.114181541855194 174.217877030687 
1.7                            0.117988626222922 -138.008861282098 0.979595251910684 -69.3829391478388 0.979595251910683 -69.3829391478388 0.116549803242977 171.307435594141 
1.75                           0.120340667531924 -139.172259878678 0.978977442709589 -71.4020565382954 0.978977442709588 -71.4020565382954 0.118851741202511 168.385508153928 
1.8                            0.122624340645764 -140.322051882645 0.978364136593603 -73.4207376659276 0.978364136593603 -73.4207376659275 0.121088005196674 165.451618530304 
1.85                           0.124840285695625 -141.457905636624 0.977755667483783 -75.4390639682048 0.977755667483782 -75.4390639682047 0.12325936667161 162.505290838876 
1.9                            0.126989261662296 -142.579484838426 0.977152305830755 -77.4571223062189 0.977152305830755 -77.4571223062189 0.125366715109828 159.546045543059 
1.95                           0.129072141502101 -143.686446132788 0.976554255496816 -79.4750054125778 0.976554255496815 -79.4750054125778 0.127411052446699 156.573395208082 
2                              0.131089906939   -144.778436059125 0.975961650833673 -81.4928125010374 0.975961650833673 -81.4928125010374 0.129393485705532 153.586839751816 
2.05                           0.133043642876606 -145.855087233395 0.975374553713744 -83.510650080495 0.975374553713744 -83.510650080495 0.131315217621422 150.585860950534 
2.1                            0.13493453134942 -146.916013589206 0.974792950221383 -85.5286330268704 0.974792950221383 -85.5286330268703 0.133177534910216 147.569915907299 
2.15                           0.136763844889836 -147.960804435249 0.974216746635024 -87.5468859815662 0.974216746635024 -87.5468859815661 0.134981793682222 144.538429122528 
2.2                            0.138532939131135 -148.989016995934 0.973645764220389 -89.5655451663192 0.973645764220389 -89.5655451663192 0.136729401278946 141.490782714014 
2.25                           0.140243244388668 -150.000166979237 0.973079732191086 -91.584760733857 0.973079732191087 -91.5847607338569 0.138421793491435 138.426304208486 
2.3                            0.141896255848694 -150.993716544609 0.972518277947978 -93.6046998157208 0.972518277947978 -93.6046998157208 0.140060405646846 135.344251156248 
2.35                           0.143493521825601 -151.969058799995 0.971960913337056 -95.6255504888207 0.971960913337056 -95.6255504888207 0.141646635338773 132.243791586579 
2.4                            0.145036629287598 -152.925497601969 0.971407015091713 -97.6475269700916 0.971407015091713 -97.6475269700916 0.143181793482267 129.123978999187 
2.45                           0.146527185437036 -153.86222090355 0.97085579672005 -99.6708764790264 0.97085579672005 -99.6708764790264 0.144667038652124 125.983720139376 
2.5                            0.147966793456068 -154.778265084187 0.970306267634714 -101.695888405609 0.970306267634714 -101.695888405609 0.146103286886978 122.82173318035  
2.55                           0.149357019396772 -155.672466420181 0.969757172889843 -103.722906728222 0.969757172889843 -103.722906728222 0.147491084548832 119.636493063964 
2.6                            0.150699345246811 -156.543393775707 0.969206902710674 -105.752347115861 0.969206902710674 -105.752347115861 0.148830424003386 116.426159539428 
2.65                           0.151995099752913 -157.389253078987 0.968653353548187 -107.784720954455 0.968653353548187 -107.784720954455 0.150120468112433 113.188481790069 
2.7                            0.153245352296793 -158.207747931449 0.968093708506676 -109.820669909043 0.968093708506676 -109.820669909043 0.151359124359232 109.920671417005 
2.75                           0.154450743303579 -158.995869120158 0.967524077777419 -111.861017065848 0.96752407777742 -111.861017065848 0.152542361423134 106.619233241187 
2.8                            0.155611201789752 -159.749562891312 0.966938883081088 -113.906845213468 0.966938883081088 -113.906845213468 0.153663064831548 103.279742377034 
2.85                           0.156725455214154 -160.463179125945 0.96632974361712 -115.959621654672 0.96632974361712 -115.959621654672 0.154709024176773 99.8965620645793 
2.9                            0.157790145455858 -161.12848778666 0.965683313352853 -118.021407262958 0.965683313352853 -118.021407262958 0.155659180950754 96.4625310227467 
2.95                           0.158798187853775 -161.732763105873 0.964976689945984 -120.095227963705 0.964976689945986 -120.095227963705 0.156476127477648 92.9687929872734 
3                              0.159735747062349 -162.25459916324 0.964166476228633 -122.185781281098 0.964166476228636 -122.185781281098 0.157089782827869 89.4055378437731 
3.05                           0.160577565829188 -162.653322049164 0.963158465280163 -124.300870715762 0.963158465280168 -124.300870715762 0.157358081167205 85.7671489813993 
3.1                            0.161289784086867 -162.836783310893 0.961705064493503 -126.454281193258 0.96170506449351 -126.454281193258 0.156962014897868 82.08016669337   
3.15                           0.161969539896232 -162.543078150963 0.958960835488371 -128.66709761109 0.958960835488376 -128.66709761109 0.155141096161602 78.5781970971739 
3.2                            0.164841681010171 -161.073846575246 0.95157895773688 -130.858009885631 0.951578957736878 -130.858009885629 0.151849123075064 76.9208544744753 
3.25                           0.176765536913357 -161.49478158662 0.946991652913354 -132.305188308476 0.946991652913456 -132.305188308479 0.164967603625534 75.8348559994437 
3.3                            0.178562404773974 -163.592420236579 0.953551340797577 -134.450894869657 0.953551340797553 -134.450894869661 0.171436685714234 67.9604221088283 
3.35                           0.180146798784697 -163.523279982401 0.952930940438459 -136.924598919555 0.952930940438423 -136.924598919556 0.170513206416113 60.8982134749531 
3.4                            0.185657906367666 -162.514163743985 0.94756236913696 -139.526894567615 0.947562369136931 -139.526894567615 0.167614071206491 53.0480204658588 
3.45                           0.199315170225803 -161.041572742868 0.93344418990419 -142.354784164002 0.933444189904179 -142.354784164002 0.159015195696601 42.1716430774224 
3.5                            0.232756066256505 -162.031164130425 0.894091113426236 -144.955312992363 0.894091113426248 -144.955312992365 0.126498189313819 24.1373273231634 
3.55                           0.267158731913873 -175.065210068186 0.845646660915162 -143.020679563704 0.845646660915087 -143.020679563706 0.0346599483182511 42.1581212986956 
3.6                            0.232570185459182 173.508457605245 0.896953879991153 -141.756391464082 0.896953879991133 -141.756391464079 0.106889961142839 90.5796943977259 
3.65                           0.204880183632604 172.496619698986 0.930692455391477 -144.309178824927 0.930692455391482 -144.309178824925 0.14397871052314 76.2827789479749 
3.7                            0.193187721358461 173.422269025804 0.943283964280392 -146.988757393786 0.943283964280396 -146.988757393785 0.157932122457448 66.8255373954935 
3.75                           0.188055025029387 174.163744062353 0.948617085600319 -149.459240418932 0.94861708560032 -149.459240418932 0.164794795662686 59.9888543330425 
3.8                            0.185676657101995 174.541750980058 0.951159891739236 -151.783566429007 0.951159891739235 -151.783566429007 0.168952437111195 54.4679546668357 
3.85                           0.184607381699773 174.633986776194 0.9524423913134  -154.016571899683 0.952442391313399 -154.016571899683 0.171868554880639 49.6783118212244 
3.9                            0.184232072672191 174.521604252111 0.953079056414902 -156.190897753391 0.953079056414901 -156.190897753391 0.174133580584474 45.3335501599328 
3.95                           0.184257666402993 174.262527881928 0.953351749054115 -158.325815296204 0.953351749054114 -158.325815296204 0.176021775146885 41.2795784211583 
4                              0.184530790378224 173.895789608915 0.953403857463329 -160.433142435993 0.953403857463327 -160.433142435993 0.177674479765836 37.4269033867283 
4.05                           0.184964735425924 173.447718444141 0.953314502415548 -162.5204428615  0.953314502415549 -162.5204428615  0.179170399979944 33.7203003059664 
4.1                            0.185507194442087 172.936363774125 0.953130288900788 -164.592751220358 0.953130288900788 -164.592751220358 0.180555969863532 30.1239983173831 
4.15                           0.186124781132145 172.374341530732 0.952880187636489 -166.653535759597 0.952880187636489 -166.653535759598 0.181859760418643 26.6138985353039 
4.2                            0.186795070004099 171.770638096062 0.952583047379074 -168.705257645496 0.952583047379076 -168.705257645496 0.183099853178998 23.1732310425924 
4.25                           0.187502259863488 171.13176584092  0.952251627294552 -170.74970886625 0.952251627294556 -170.74970886625 0.184287855572581 19.7900049273841 
4.3                            0.188234693201925 170.462517493914 0.951894875703302 -172.788223755574 0.951894875703305 -172.788223755574 0.185431204494881 16.4554454220848 
4.35                           0.188983377129155 169.766469133871 0.951519275315819 -174.821815684196 0.951519275315823 -174.821815684196 0.186534548054379 13.1630002431169 
4.4                            0.18974106956271 169.046322648244 0.951129667702322 -176.851267932422 0.951129667702327 -176.851267932422 0.187600607166502 9.9076875137195  
4.45                           0.190501696903727 168.304143514623 0.950729775266616 -178.877195649175 0.950729775266622 -178.877195649175 0.188630731594896 6.68565589945389 
4.5                            0.191259972438334 167.541528909692 0.950322541224524 179.099910934743 0.95032254122453 179.099910934743 0.189625270069168 3.49388064042143 
4.55                           0.192011139344482 166.75972856796  0.949910356671443 177.079655744691 0.94991035667145 177.07965574469  0.1905838236539  0.329948962338333 
4.6                            0.192750792212101 165.95973313324  0.949495215698475 175.061714550602 0.949495215698481 175.061714550602 0.191505423636011 -2.80809432363443 
4.65                           0.193474748000942 165.142340059448 0.949078823588815 173.045818499423 0.949078823588821 173.045818499422 0.192388659180251 -5.92185982739609 
4.7                            0.194178947383092 164.308204360776 0.94866267382342 171.031741752475 0.948662673823425 171.031741752475 0.193231770473797 -9.01269756850602 
4.75                           0.194859373975963 163.457880119079 0.948248104033264 169.01929203701  0.948248104033269 169.019292037009 0.194032717193288 -12.0817602389869 
4.8                            0.195511984840686 162.591858322341 0.947836337561762 167.008303269212 0.947836337561767 167.008303269211 0.194789228338121 -15.1300513356824 
4.85                           0.196132654065062 161.710606987842 0.947428515006599 164.998629621115 0.947428515006602 164.998629621114 0.195498836964024 -18.1584618663119 
4.9                            0.196717146714821 160.814619603723 0.947025718328713 162.99014052239  0.947025718328715 162.990140522389 0.196158901802122 -21.167797862216 
4.95                           0.197261166617987 159.904474771727 0.946628988140134 160.98271612777  0.946628988140134 160.982716127769 0.196766617356649 -24.1587996144622 
5                              0.197760550789915 158.980897494346 0.946239331445201 158.976242756935 0.946239331445198 158.976242756934 0.197319015737211 -27.1321522766255 
5.05                           0.198211672432763 158.044785146276 0.945857710100971 156.97060778547  0.945857710100965 156.970607785469 0.197812968893973 -30.0884865113558 
5.1                            0.198611973885445 157.097131761462 0.945484985447947 154.965693695436 0.94548498544794 154.965693695436 0.198245210560254 -33.0283683203187 
5.15                           0.198960260861982 156.138809422102 0.945121768548144 152.961372400998 0.945121768548136 152.961372400997 0.198612409944044 -35.9522814233307 
5.2                            0.19925626209477 155.170299114612 0.944768106829693 150.957505883355 0.944768106829686 150.957505883355 0.198911327792395 -38.8606155028718 
5.25                           0.199499473366647 154.191595354803 0.944423042758706 148.953969778068 0.944423042758705 148.953969778068 0.199139039954435 -41.7536846326996 
5.3                            0.199688108787867 153.2024018499   0.94408457164314 146.950719353675 0.944084571643144 146.950719353674 0.199293119747685 -44.6317946861654 
5.35                           0.199818928626767 152.202455898918 0.943751104590992 144.947858832828 0.943751104591   144.947858832827 0.199371617535158 -47.4953413652848 
5.4                            0.199887817600983 151.191739586931 0.943423981259606 142.945574476258 0.943423981259608 142.945574476257 0.199372791344708 -50.3448789092804 
5.45                           0.199890482238504 150.170509493509 0.943107436072959 140.94392999717  0.943107436072956 140.943929997169 0.199294759266103 -53.1811120401682 
5.5                            0.19982287745405 149.139225532273 0.942805466171546 138.942794140077 0.942805466171537 138.942794140076 0.199135302849486 -56.0048276289411 
5.55                           0.19968134794022 148.098467061015 0.942519954971352 136.941958593324 0.942519954971342 136.941958593323 0.198891887987139 -58.8168220358658 
5.6                            0.199462612584984 147.048874104944 0.942251220303304 134.941243295632 0.942251220303295 134.941243295632 0.198561806787891 -61.6178612550858 
5.65                           0.199163697999138 145.991116114695 0.941999027618188 132.940517321231 0.941999027618182 132.940517321231 0.198142324581785 -64.4086747399314 
5.7                            0.19878187277462 144.925879384148 0.941763111312934 130.939683216554 0.94176311131293 130.939683216554 0.197630778763358 -67.1899672001049 
5.75                           0.198314598490194 143.853864655471 0.94154331358935 128.938660314299 0.941543313589347 128.938660314299 0.197024628588562 -69.9624347764812 
5.8                            0.197759498052699 142.775789526383 0.941339575705079 126.937374770789 0.941339575705077 126.937374770789 0.196321473385407 -72.7267791111936 
5.85                           0.197114337448913 141.692392824172 0.941151896446001 124.935754705384 0.941151896446   124.935754705384 0.195519055325612 -75.4837177847613 
5.9                            0.19637701676567 140.604439646825 0.94098029402608 122.933728096817 0.94098029402608 122.933728096817 0.19461525665606 -78.2339916902003 
5.95                           0.195545567306817 139.512726569789 0.940824778099571 120.931221995941 0.940824778099572 120.931221995941 0.193608096208319 -80.9783703882705 
6                              0.194618152662825 138.41808689283  0.940685330495515 118.928162332574 0.940685330495515 118.928162332574 0.19249572706539 -83.7176563511161 
6.05                           0.193593072375319 137.321395962871 0.940561892093642 116.924473982317 0.940561892093643 116.924473982317 0.191276435863702 -86.4526887412023 
6.1                            0.192468767374416 136.223576669965 0.940454353756628 114.920080944915 0.940454353756628 114.920080944915 0.189948643651642 -89.1843471543599 
6.15                           0.191243826712381 135.125605231709 0.940362549906912 112.914906570173 0.940362549906913 112.914906570173 0.18851090806557 -91.9135556097193 
6.2                            0.189916995334975 134.028517383622 0.940286253852447 110.908873804793 0.940286253852448 110.908873804793 0.186961926585347 -94.641286983153 
6.25                           0.188487182768615 132.933415091165 0.940225174308511 108.901905449675 0.940225174308514 108.901905449674 0.185300540685718 -97.3685680360177 
6.3                            0.186953472688507 131.841473898207 0.940178952778516 106.893924423933 0.940178952778518 106.893924423933 0.18352574076297 -100.096485172863 
6.35                           0.185315133390314 130.753951028685 0.940147161589816 104.884854034531 0.940147161589819 104.884854034531 0.181636671773035 -102.826191060815 
6.4                            0.183571629228468 129.672194363447 0.940129302462186 102.874618251189 0.940129302462188 102.874618251189 0.179632639564425 -105.558912253962 
6.45                           0.181722633115745 128.597652422844 0.940124805536597 100.863141986366 0.9401248055366  100.863141986366 0.177513117928626 -108.295957985429 
6.5                            0.179768040206342 127.531885497334 0.940133028822718 98.8503513799075 0.940133028822719 98.8503513799074 0.175277756424296 -111.038730316663 
6.55                           0.177707982911814 126.476578082988 0.940153258042172 96.836174087681  0.940153258042173 96.836174087681  0.172926389062786 -113.788735867827 
6.6                            0.175542847428161 125.433552796175 0.940184706856004 94.8205395732805 0.940184706856006 94.8205395732805 0.170459043973528 -116.547599395702 
6.65                           0.173273291984989 124.404785961452 0.940226517471305 92.8033794016487 0.940226517471308 92.8033794016486 0.167875954201224 -119.317079537615 
6.7                            0.17090026706549 123.392425088587 0.940277761625554 90.784627533281  0.940277761625557 90.784627533281  0.165177569824731 -122.099087103443 
6.75                           0.168425037890495 122.398808477947 0.940337441948797 88.7642206175352 0.940337441948799 88.7642206175352 0.162364571632591 -124.895706375303 
6.8                            0.16584920951239 121.426487217339 0.940404493704105 86.7420982834598 0.940404493704107 86.7420982834597 0.159437886645003 -127.709219969271 
6.85                           0.163174754926722 120.478249856293 0.940477786906117 84.71820342648   0.940477786906118 84.71820342648   0.156398705839908 -130.542137929442 
6.9                            0.160404046682309 119.557150063407 0.940556128816302 82.6924824892328 0.940556128816305 82.6924824892328 0.153248504525852 -133.397231866749 
6.95                           0.157539892556063 118.666537585167 0.940638266811976 80.6648857348145 0.940638266811978 80.6648857348145 0.149989065911423 -136.277575129345 
7                              0.154585575957705 117.810092825392 0.940722891624209 78.6353675107054 0.940722891624211 78.6353675107054 0.146622508556889 -139.186590205436 
7.05                           0.151544901843212 116.991865345166 0.940808640937753 76.6038865016517 0.940808640937753 76.6038865016517 0.143151318566633 -142.128104821962 
7.1                            0.148422249044034 116.216316532412 0.940894103343852 74.5704059698136 0.940894103343853 74.5704059698136 0.139578387602043 -145.106418524   
7.15                           0.145222630060941 115.48836659143  0.940977822634632 72.5348939805442 0.940977822634632 72.5348939805442 0.135907058078015 -148.126381911523 
7.2                            0.141951759522941 114.813445832009 0.941058302425438 70.4973236122163 0.941058302425437 70.4973236122163 0.132141177270776 -151.193491184517 
7.25                           0.138616132665872 114.197549961514 0.941134011089248 68.4576731485973 0.94113401108925 68.4576731485973 0.1282851625346  -154.314001215127 
7.3                            0.13522311532839 113.647298654681 0.941203386985043 66.4159262523483 0.941203386985043 66.4159262523483 0.124344080431365 -157.495061032732 
7.35                           0.131781047072383 113.169996030295 0.9412648439598  64.3720721183235 0.9412648439598  64.3720721183234 0.120323743359778 -160.744876369044 
7.4                            0.128299359073188 112.773690714902 0.94131677710171 62.3261056054448 0.941316777101709 62.3261056054449 0.116230828280163 -164.072904735828 
7.45                           0.12478870833435 112.467231807661 0.941357568720144 60.2780273460385 0.941357568720143 60.2780273460385 0.112073023426125 -167.490089320247 
7.5                            0.121261129473734 112.260315134955 0.941385594525998 58.2278438316329 0.941385594525997 58.227843831633  0.107859210544217 -171.009138616538 
7.55                           0.117730204672337 112.163511529788 0.941399229984227 56.1755674743431 0.941399229984227 56.1755674743431 0.103599692274334 -174.64485884133 
7.6                            0.114211251187852 112.188265310285 0.941396856808731 54.1212166430869 0.941396856808732 54.1212166430869 0.0993064768227407 -178.414545192918 
7.65                           0.1107215238561  112.346846513757 0.941376869568183 52.0648156740131 0.941376869568181 52.0648156740132 0.094993635063119 177.661565190895 
7.7                            0.107280426901643 112.652234727602 0.941337682370082 50.0063948546487 0.941337682370079 50.0063948546488 0.0906777484402412 173.559783081012 
7.75                           0.103909724753552 113.117905764154 0.941277735589101 47.9459903814114 0.9412777355891  47.9459903814114 0.0863784690028754 169.252419120609 
7.8                            0.100633734994732 113.757485673012 0.941195502604788 45.8836442902669 0.941195502604789 45.8836442902669 0.0821192143091946 164.707244854647 
7.85                           0.0974794777496328 114.584231248016 0.941089496512868 43.8194043604477 0.941089496512866 43.8194043604477 0.0779280172560554 159.887058603342 
7.9                            0.0944767447694866 115.61029513482  0.940958276773844 41.753323991291  0.940958276773842 41.7533239912912 0.073838539177942 154.749533737718 
7.95                           0.0916580389951751 116.845741403783 0.940800455762191 39.6854620523863 0.940800455762189 39.6854620523864 0.0698912251828135 149.247655302355 
8                              0.0890583235793296 118.297300130636 0.940614705179323 37.6158827073623 0.940614705179321 37.6158827073625 0.0661345198129117 143.331234075968 
8.05                           0.0867145122783823 119.966893651563 0.940399762293622 35.5446552117801 0.94039976229362 35.5446552117803 0.0626259500755251 136.95020687023  
8.1                            0.0846646370320316 121.850036586522 0.940154435971199 33.471853685729  0.940154435971198 33.4718536857291 0.0594327049113193 130.06059914325  
8.15                           0.0829466511253163 123.934302211521 0.939877612461674 31.3975568618553 0.939877612461673 31.3975568618555 0.0566311023801278 122.633913267013 
8.2                            0.0815968740821304 126.198140449509 0.93956826090419 29.3218478096818 0.939568260904188 29.3218478096819 0.0543041154675831 114.669908332378 
8.25                           0.0806481578738291 128.61039091074  0.939225438520015 27.2448136371973 0.939225438520012 27.2448136371974 0.0525361291168787 106.210834462566 
8.3                            0.0801279420615104 131.130810531716 0.938848295459535 25.1665451708173 0.938848295459535 25.1665451708174 0.0514046451519216 97.3523455686543 
8.35                           0.0800564429968177 133.711793549644 0.938436079273155 23.087136614928  0.938436079273153 23.0871366149281 0.0509699402797174 88.2441980664498 
8.4                            0.0804452556479838 136.301209189289 0.937988138977547 21.0066851923323 0.937988138977546 21.0066851923324 0.0512653265198332 79.075456676052  
8.45                           0.081296609265229 138.84598923583  0.93750392869095 18.9252907670207 0.937503928690949 18.9252907670208 0.0522914810045518 70.0457508367236 
8.5                            0.0826034080505535 141.295876848823 0.93698301081359 16.8430554507735 0.936983010813589 16.8430554507735 0.0540171713567183 61.3324348145377 
8.55                           0.0843500357798502 143.606698261319 0.936425058731995 14.760083195194  0.936425058731994 14.7600831951941 0.0563859689792406 53.0662207656082 
8.6                            0.0865137600584603 145.74266386284  0.935829859028789 12.6764793708352 0.935829859028789 12.6764793708352 0.0593261301609431 45.3223638265942 
8.65                           0.0890664836493534 147.677477434056 0.935197313182571 10.5923503351531 0.935197313182569 10.5923503351532 0.062760304458819 38.1259323291462 
8.7                            0.0919765762044757 149.394317291011 0.934527438745601 8.50780299106992 0.934527438745599 8.50780299106987 0.0666129011161381 31.4646788592766 
8.75                           0.0952105677687197 150.884954336315 0.933820369990299 6.42294433796723 0.933820369990298 6.42294433796728 0.0708145286769449 25.3031342770805 
8.8                            0.0987345653895242 152.148351750024 0.933076358018827 4.33788101696496 0.933076358018827 4.33788101696501 0.0753039707182496 19.5942372296484 
8.85                           0.102515335385401 153.189067587363 0.932295770333413 2.25271885235085 0.932295770333412 2.25271885235075 0.0800285127339082 14.2874032799729 
8.9                            0.106521056702778 154.01570035337  0.931479089868408 0.167562391034705 0.931479089868406 0.167562391034657 0.0849433581306182 9.33340321075926 
8.95                           0.11072178889173 154.639522570403 0.930626913488334 -1.91748555810861 0.930626913488333 -1.9174855581088 0.0900106491287434 4.68690997910207 
9                              0.115089714352005 155.073366206275 0.929739949959479 -4.00232438316738 0.929739949959477 -4.00232438316747 0.09519839743102 0.30754554104895 
9.05                           0.119599215372444 155.330767310868 0.928819017405592 -6.08685612457858 0.928819017405589 -6.08685612457857 0.100479479498726 -3.83994533162719 
9.1                            0.124226838945301 155.425344664558 0.927865040261256 -8.17098592520981 0.927865040261255 -8.17098592520981 0.105830760193712 -7.7859786839315 
9.15                           0.128951191536919 155.370372933286 0.926879045739254 -10.2546224734265 0.926879045739254 -10.2546224734265 0.111232359456929 -11.5566199464522 
9.2                            0.133752795099304 155.178508190083 0.925862159830754 -12.3376784375012 0.925862159830753 -12.3376784375012 0.116667053336367 -15.1741346614148 
9.25                           0.138613926173021 154.861627333875 0.924815602859442 -14.4200708897988 0.92481560285944 -14.420070889799 0.122119791564133 -18.6575266827511 
9.3                            0.14351845247843 154.430749255613 0.923740684612748 -16.5017217192555 0.923740684612749 -16.5017217192555 0.127577311976136 -22.0230290122676 
9.35                           0.148451675868851 153.896012408737 0.922638799075042 -18.5825580307565 0.922638799075039 -18.5825580307564 0.133027833423655 -25.284534557319 
9.4                            0.153400186627548 153.266689643061 0.921511418788996 -20.6625125301239 0.921511418788994 -20.662512530124 0.138460811385017 -28.4539656641698 
9.45                           0.15835173146816 152.551226329141 0.920360088872542 -22.7415238935197 0.92036008887254 -22.7415238935199 0.143866743250621 -31.5415868157259 
9.5                            0.163295095909454 151.75729186999  0.91918642071946 -24.8195371201792 0.91918642071946 -24.8195371201791 0.149237012792982 -34.5562671003512 
9.55                           0.168220000664246 150.891837778113 0.917992085412133 -26.8965038674984 0.917992085412133 -26.8965038674984 0.154563765495508 -37.505699538887 
9.6                            0.173117011098456 149.961157759744 0.91677880687511 -28.9723827676046 0.916778806875109 -28.9723827676046 0.159839808182693 -40.3965839903238 
9.65                           0.177977458526207 148.970946871836 0.91554835479782 -31.0471397246505 0.915548354797817 -31.0471397246506 0.165058527808636 -43.2347796299557 
9.7                            0.18279337200322 147.926357957176 0.914302537354346 -33.1207481921729 0.914302537354344 -33.120748192173 0.170213825376427 -46.0254321634152 
9.75                           0.187557419290158 146.832054346677 0.91304319374726 -35.1931894299621 0.913043193747259 -35.1931894299619 0.175300061834479 -48.7730801326018 
9.8                            0.192262855731461 145.692258344904 0.911772186601458 -37.2644527399835 0.91177218660146 -37.2644527399835 0.180312013477432 -51.4817439413012 
9.85                           0.196903479902113 144.51079536     0.910491394232582 -39.3345356809815 0.910491394232584 -39.3345356809815 0.185244834910398 -54.1550005981207 
9.9                            0.20147359499512 143.291133757433 0.909202702813085 -41.4034442614794 0.909202702813084 -41.4034442614795 0.190094028049484 -56.7960466423423 
9.95                           0.205967975044166 142.036420648119 0.907907998457145 -43.4711931109615 0.907907998457145 -43.4711931109616 0.194855415955135 -59.4077512759522 
10                             0.210381835192372 140.749513893691 0.906609159243826 -45.537805629091 0.906609159243827 -45.537805629091 0.199525120548245 -61.9927013608438 
