! Touchstone file exported from HFSS 3D Layout Design 2026.1.0
!        File:           D:/Work/SIM/ADS_AUTO_SIM/projects/RFSOC_RF/TX_Fillter.aedt
!        Generated:      09:51:31 PM Aug 30, 2026
!        Design:         TX_BAND1_MCFIL_R2_CNN002
!        Project:        TX_Fillter
!
# GHz S MA R 50.000000
! Terminal data exported
! Port[1] = Port1
! Port[2] = Port2
14                             0.962270629678983 169.372529929686 0.00668238825843542 137.941990318575 0.00668238825843542 137.941990318575 0.965826208914821 72.8650924414444 
14.05                          0.961513589350002 168.311371563897 0.00682516943702322 137.438301556447 0.00682516943702322 137.438301556447 0.965518895186448 71.9424781006591 
14.1                           0.960732101712987 167.240371102991 0.00697497723823516 136.941639671587 0.00697497723823515 136.941639671587 0.965206157399869 71.019677720765  
14.15                          0.9599250142466  166.159196727774 0.00713227558568739 136.451580587658 0.00713227558568734 136.451580587658 0.9648877723785  70.0966317274624 
14.2                           0.959091102848095 165.067500593807 0.00729756384806431 135.967657734161 0.00729756384806425 135.967657734161 0.964563500527434 69.1732784303332 
14.25                          0.958229066300129 163.964917856761 0.00747137989990581 135.489360244413 0.00747137989990576 135.489360244413 0.964233084591622 68.2495538962083 
14.3                           0.957337520222662 162.851065624844 0.00765430348104757 135.016131195593 0.00765430348104752 135.016131195592 0.963896248289393 67.3253918120115 
14.35                          0.956414990453621 161.725541831726 0.00784695988808171 134.547365901685 0.00784695988808165 134.547365901685 0.96355269480673 66.4007233360951 
14.4                           0.955459905794902 160.587924022728 0.00805002403546971 134.082410269443 0.00805002403546964 134.082410269443 0.963202105135728 65.4754769369741 
14.45                          0.954470590052167 159.43776804625  0.00826422492881092 133.620559226411 0.00826422492881084 133.62055922641  0.962844136238419 64.5495782182497 
14.5                           0.953445253287586 158.274606641528 0.00849035059834095 133.161055228537 0.00849035059834087 133.161055228537 0.962478419014549 63.6229497283798 
14.55                          0.952381982194003 157.097947912868 0.00872925354711386 132.703086852929 0.00872925354711379 132.703086852929 0.962104556048866 62.6955107538062 
14.6                           0.95127872948674 155.907273679362 0.00898185677563457 132.245787478785 0.0089818567756345 132.245787478785 0.961722119110025 61.767177093783  
14.65                          0.950133302195098 154.70203768788  0.00924916045310427 131.788234056527 0.00924916045310418 131.788234056527 0.961330646369123 60.8378608150641 
14.7                           0.948943348719325 153.481663675707 0.00953224931508873 131.329445961569 0.00953224931508864 131.329445961569 0.960929639301199 59.907469984399  
14.75                          0.947706344499898 152.245543267613 0.00983230087852632 130.868383924986 0.00983230087852626 130.868383924986 0.960518559227546 58.9759083765544 
14.8                           0.946419576124131 150.993033690341 0.0101505945777881 130.403949028626 0.0101505945777881 130.403949028626 0.960096823450216 58.0430751553156 
14.85                          0.945080123669641 149.723455285446 0.0104885219402743 129.934981746894 0.0104885219402743 129.934981746894 0.959663800922648 57.1088645246266 
14.9                           0.943684841054621 148.436088799107 0.0108475979370983 129.460261011565 0.0108475979370982 129.460261011565 0.959218807391452 56.1731653467023 
14.95                          0.942230334130302 147.130172424865 0.0112294736641689 128.97850326953  0.0112294736641689 128.97850326953  0.958761099934046 55.2358607235734 
15                             0.940712936210538 145.804898572227 0.0116359505318825 128.48836149645  0.0116359505318825 128.48836149645  0.958289870804546 54.296827538115  
15.05                          0.939128680686064 144.459410330622 0.0120689961682242 127.988424121741 0.0120689961682242 127.988424121741 0.957804240485849 53.3559359501473 
15.1                           0.937473270315205 143.092797594235 0.0125307622709981 127.47721381233  0.0125307622709981 127.47721381233  0.957303249828632 52.4130488426852 
15.15                          0.935742042717174 141.704092808702 0.0130236046809114 126.953186054044 0.0130236046809114 126.953186054044 0.95678585113761 51.4680212128415 
15.2                           0.933929931516495 140.292266295466 0.013550105989243 126.414727460388 0.013550105989243 126.414727460388 0.956250898041018 50.5206995012583 
15.25                          0.932031422495207 138.856221103583 0.0141131010428939 125.860153728759 0.0141131010428939 125.860153728759 0.955697133950275 49.5709208532488 
15.3                           0.9300405040004  137.394787331858 0.0147157057670417 125.287707153719 0.0147157057670417 125.287707153719 0.955123178881926 48.6185123040672 
15.35                          0.927950610724767 135.906715856296 0.0153613497928978 124.695553595734 0.0153613497928978 124.695553595734 0.954527514372223 47.6632898799135 
15.4                           0.925754559822824 134.390671388579 0.0160538134570263 124.081778791549 0.0160538134570264 124.081778791549 0.953908466164325 46.7050576053926 
15.45                          0.923444478139946 132.845224780771 0.0167972698314493 123.44438387889  0.0167972698314494 123.44438387889  0.953264184287444 45.7436064072399 
15.5                           0.921011719108789 131.268844479093 0.0175963325528916 122.78127999317  0.0175963325528917 122.78127999317  0.952592620073696 44.7787129031838 
15.55                          0.918446767599914 129.659887015477 0.0184561103480083 122.090281776867 0.0184561103480083 122.090281776867 0.951891499569302 43.8101380639055 
15.6                           0.915739130690501 128.01658640914  0.0193822693028441 121.369099622789 0.0193822693028441 121.369099622789 0.951158292688314 42.8376257352273 
15.65                          0.912877211924604 126.337042331466 0.0203811041032466 120.615330449941 0.0203811041032466 120.615330449941 0.95039017732479 41.8609010070103 
15.7                           0.909848166165201 124.619206865489 0.021459619683353 119.826446784348 0.021459619683353 119.826446784348 0.949583997477795 40.8796684149094 
15.75                          0.906637731563401 122.860869666027 0.0226256249671742 118.999783886199 0.0226256249671742 118.999783886199 0.948736214245664 39.8936099613354 
15.8                           0.903230034470352 121.059641297418 0.0238878406800823 118.132524627926 0.0238878406800823 118.132524627926 0.947842848303169 38.902382942999  
15.85                          0.899607362263778 119.212934492575 0.0252560235497466 117.221681784165 0.0252560235497467 117.221681784165 0.946899412176771 37.9056175747303 
15.9                           0.895749898018156 117.31794303931  0.0267411096174332 116.264077342587 0.0267411096174332 116.264077342587 0.945900830265881 36.9029144034957 
15.95                          0.891635409671988 115.371617957455 0.0283553798484298 115.256318382688 0.0283553798484299 115.256318382688 0.944841344105711 35.8938415136413 
16                             0.887238884784091 113.370640583267 0.0301126517720944 114.194768996194 0.0301126517720945 114.194768996195 0.94371439981019 34.8779315356919 
16.05                          0.882532100059694 111.311392126718 0.032028501503258 113.075517635783 0.032028501503258 113.075517635783 0.942512513947691 33.8546784885139 
16.1                           0.877483112489858 109.189919214054 0.0341205211992649 111.894339176617 0.0341205211992649 111.894339176617 0.941227113259968 32.8235345110918 
16.15                          0.872055656096046 107.001894875588 0.0364086177851352 110.64665085608  0.0364086177851352 110.64665085608  0.939848342603669 31.7839065796637 
16.2                           0.866208424805792 104.742574392725 0.0389153596144208 109.327461119965 0.0389153596144208 109.327461119966 0.938364834238945 30.735153364359  
16.25                          0.859894217800231 102.40674538827  0.0416663785839788 107.931310248557 0.0416663785839788 107.931310248558 0.936763430076471 29.6765824653014 
16.3                           0.853058918670473 99.9886715462639 0.0446908360086694 106.452201465768 0.0446908360086694 106.452201465768 0.935028846694234 28.6074483936127 
16.35                          0.845640273828386 97.4820294082441 0.0480219611478766 104.883521055539 0.0480219611478766 104.883521055539 0.933143270840222 27.5269518456612 
16.4                           0.837566428844325 94.879837854754  0.0516976714240552 103.21794583523  0.0516976714240552 103.21794583523  0.931085870780112 26.4342410847898 
16.45                          0.828754173892251 92.1743802129092 0.0557612826953757 101.447336190721 0.0557612826953757 101.447336190721 0.928832206348109 25.3284166305063 
16.5                           0.819106841733869 89.3571195436963 0.0602623158119614 99.562612805892  0.0602623158119614 99.5626128058921 0.926353518188406 24.208541013452  
16.55                          0.808511794675482 86.4186087339468 0.065257401100623 97.5536152935632 0.065257401100623 97.5536152935632 0.923615874989029 23.0736561603142 
16.6                           0.796837432653143 83.3483988330522 0.0708112738260501 95.4089412769837 0.0708112738260501 95.4089412769838 0.920579157553602 21.9228121312134 
16.65                          0.783929656662085 80.1349520931905 0.0769978386652167 93.1157652756424 0.0769978386652167 93.1157652756425 0.917195862208655 20.7551125869902 
16.7                           0.769607736533348 76.7655711380665 0.0839012561777465 90.6596383252623 0.0839012561777465 90.6596383252624 0.913409716575889 19.5697847059352 
16.75                          0.753659570504404 73.2263638105115 0.0916169638093492 88.0242720874954 0.0916169638093492 88.0242720874955 0.909154123686142 18.3662845362967 
16.8                           0.735836404308249 69.5022765248077 0.100252480513986 85.191316002972  0.100252480513986 85.191316002972  0.904350494877565 17.1444532244091 
16.85                          0.715847228946464 65.5772506901353 0.109927747353558 82.1401438691863 0.109927747353558 82.1401438691864 0.898906612369995 15.9047454090518 
16.9                           0.693353344521942 61.4345926000777 0.120774613813354 78.8476785545706 0.120774613813354 78.8476785545707 0.892715300782216 14.6485582857649 
16.95                          0.667964029906006 57.0577069052193 0.132934878305881 75.2883022851896 0.132934878305881 75.2883022851897 0.885653914135575 13.378697707822  
17                             0.639234986922442 52.4314452016795 0.146556025087277 71.4339271491237 0.146556025087277 71.4339271491237 0.877585499510148 12.1000239364368 
17.05                          0.606672344040487 47.5444985692337 0.161783483776575 67.2543376645254 0.161783483776575 67.2543376645254 0.868363015538629 10.8203188380333 
17.1                           0.569746608981043 42.3935868272628 0.178747938347365 62.7179634949122 0.178747938347365 62.7179634949123 0.857838662267749 9.55139717539198 
17.15                          0.527923076245987 36.9908279732861 0.19754609719421 57.7932884630587 0.19754609719421 57.7932884630587 0.845881105776413 8.31042655565243 
17.2                           0.480717681917463 31.3770087577678 0.218213735927693 52.4511321548347 0.218213735927693 52.4511321548348 0.832403789889084 7.1212913993595  
17.25                          0.427789907460128 25.6466288472211 0.240691269088496 46.6680124896074 0.240691269088496 46.6680124896074 0.817406798221486 6.01559801058149 
17.3                           0.369087755750935 19.9989674168365 0.264785210080729 40.4306476183452 0.264785210080728 40.4306476183453 0.801031463664601 5.03255605577341 
17.35                          0.305071136101391 14.8548577790437 0.290133876243816 33.7413107799668 0.290133876243816 33.7413107799668 0.783619506002327 4.2165708762633  
17.4                           0.237098728177915 11.1684824294753 0.316191496479403 26.6231871816132 0.316191496479403 26.6231871816132 0.765756666308232 3.61124574548187 
17.45                          0.168385876249929 11.4310253074092 0.342248040733002 19.1242227858384 0.342248040733002 19.1242227858384 0.748268858132281 3.2492109165938  
17.5                           0.107845083881726 23.2616968247061 0.367497258912052 11.3175637534219 0.367497258912052 11.3175637534219 0.732138077391518 3.13933928308095 
17.55                          0.0841949998536013 59.6990514122039 0.391149163578444 3.29707252574981 0.391149163578444 3.29707252574982 0.718329656166913 3.25608678049386 
17.6                           0.119567365665043 88.8516920685175 0.412560197677777 -4.83216451046227 0.412560197677777 -4.83216451046229 0.707572140490741 3.53757702378395 
17.65                          0.177094296563303 95.2402026591951 0.431338887036216 -12.9664168774752 0.431338887036216 -12.9664168774752 0.700176502160906 3.89644654686946 
17.7                           0.235275908928679 92.7610645954547 0.447390801197835 -21.0156241524514 0.447390801197835 -21.0156241524514 0.695977969530851 4.24036918629553 
17.75                          0.287995997528369 86.8890132423466 0.460893013751271 -28.9122170506706 0.460893013751271 -28.9122170506706 0.694421122879452 4.4929947618155  
17.8                           0.333174934094056 79.4688354559388 0.472217422223489 -36.6148115768455 0.472217422223489 -36.6148115768455 0.694734307067801 4.60650178489489 
17.85                          0.370200933440925 71.2316801971944 0.481836292189883 -44.1071255624244 0.481836292189884 -44.1071255624245 0.696110253613959 4.56316359948388 
17.9                           0.399185599198147 62.4965800142425 0.490238637964824 -51.3937521761884 0.490238637964824 -51.3937521761885 0.697834554655031 4.36924881858712 
17.95                          0.420622791369206 53.4004887120796 0.497871741758252 -58.4946705968168 0.497871741758252 -58.4946705968169 0.699347259371454 4.04636175547887 
18                             0.435190672435432 43.9884600244269 0.505108919922344 -65.4399128108611 0.505108919922344 -65.4399128108611 0.700252657868483 3.62383160172266 
18.05                          0.443633984703742 34.2542236940002 0.512237460561143 -72.2651435481149 0.512237460561143 -72.2651435481149 0.700300755463579 3.13353110816693 
18.1                           0.446700722641741 24.1601603281147 0.519458969767916 -79.0083748525185 0.519458969767916 -79.0083748525185 0.699359443531818 2.60702851085856 
18.15                          0.445116273782739 13.6475394320008 0.526895661388804 -85.7077236426122 0.526895661388804 -85.7077236426122 0.697388518528732 2.07440719941242 
18.2                           0.439582623015031 2.64172502602594 0.534598275831162 -92.3999919265184 0.534598275831162 -92.3999919265184 0.694420386717395 1.56405445295134 
18.25                          0.43079401902521 -8.94525249050844 0.542553213591523 -99.1198309264752 0.542553213591523 -99.1198309264752 0.690548558005764 1.10287613924476 
18.3                           0.419463608769618 -21.2131906714181 0.550687795631797 -105.899280752865 0.550687795631797 -105.899280752865 0.685923264239254 0.716555136796155 
18.35                          0.40635755473296 -34.2717964450854 0.55887337605502 -112.767519075776 0.55887337605502 -112.767519075776 0.680752837674192 0.429575696468278 
18.4                           0.392333578395845 -48.2364335382791 0.566926514433382 -119.75068764366 0.566926514433382 -119.75068764366 0.675309152104884 0.264782094041039 
18.45                          0.378378948159691 -63.2187740617023 0.574608750474672 -126.871688892456 0.574608750474672 -126.871688892456 0.669935002197459 0.242251228262458 
18.5                           0.36563759716991 -79.3088253798348 0.581625863819229 -134.149857715231 0.581625863819229 -134.149857715231 0.66505050133758 0.377275294881379 
18.55                          0.355407047575817 -96.5455490953543 0.587627953112826 -141.60042171472 0.587627953112826 -141.60042171472 0.661154323739764 0.677332430667658 
18.6                           0.349076876340485 -114.878277515097 0.592212271876496 -149.233676726553 0.592212271876496 -149.233676726553 0.658814112928397 1.13814996549788 
18.65                          0.347983703982551 -134.1322571305  0.594931441902145 -157.053836162208 0.594931441902146 -157.053836162208 0.65863936053568 1.7394070890524  
18.7                           0.353190113427025 -154.003259087928 0.595310173164   -165.05757705131 0.595310173164   -165.05757705131 0.661230945092284 2.44125957594905 
18.75                          0.365253867290831 -174.10134142054 0.592873464329617 -173.232412230456 0.592873464329617 -173.232412230456 0.667106095559035 3.18345979112205 
18.8                           0.384091331538015 165.967329580758 0.587187781719723 178.444838662461 0.587187781719723 178.444838662461 0.67660668810055 3.88888639176468 
18.85                          0.409000504848517 146.52366944605  0.577913394967753 170.009060672325 0.577913394967753 170.009060672325 0.689810453906915 4.47226424082367 
18.9                           0.438818656721902 127.781511356304 0.564861085358111 161.506837490266 0.564861085358111 161.506837490266 0.706472933688268 4.85277627376007 
18.95                          0.472133613627993 109.857857550707 0.548041356339864 152.994995623385 0.548041356339864 152.994995623385 0.726025615110227 4.9671453977325  
19                             0.507480106508811 92.8039684929846 0.527691833672345 144.537535360332 0.527691833672345 144.537535360332 0.747639966045974 4.77906626470027 
19.05                          0.543491794718368 76.6349778270039 0.504271417498124 136.201214323799 0.504271417498124 136.201214323799 0.770344059574696 4.282258406317   
19.1                           0.579004586438973 61.3487576847935 0.478418309066089 128.050484802019 0.47841830906609 128.050484802019 0.793160025101903 3.4970421645177  
19.15                          0.613113950613485 46.9345946719952 0.450880104091374 120.14272542371  0.450880104091375 120.14272542371  0.815226059121185 2.46258748635204 
19.2                           0.645190510308826 33.3756959438847 0.42243245513559 112.524626570807 0.42243245513559 112.524626570807 0.835876907115303 1.22780609303352 
19.25                          0.674861312857624 20.6492176132858 0.393804478631531 105.230228281574 0.393804478631531 105.230228281574 0.854674370201229 -0.156679914867884 
19.3                           0.70196792536367 8.7260271756492  0.365624163377592 98.2806463770044 0.365624163377592 98.2806463770044 0.871395249441038 -1.64422203979033 
19.35                          0.726513987311962 -2.42891885062005 0.338388925961031 91.68515073272   0.338388925961031 91.68515073272   0.885992554646863 -3.19529100829003 
19.4                           0.748613092942022 -12.8555109057332 0.312459165342833 85.4430828074525 0.312459165342833 85.4430828074525 0.898546390327774 -4.77855035528253 
19.45                          0.768444072489671 -22.5970063614154 0.288068493581837 79.5461090361116 0.288068493581837 79.5461090361116 0.909216692762684 -6.37055155234404 
19.5                           0.786216721959998 -31.698452527975 0.265343390997067 73.9804280843323 0.265343390997067 73.9804280843323 0.918204449610684 -7.95469147314152 
19.55                          0.802148020596715 -40.205249319063 0.244326215465952 68.7287027757392 0.244326215465952 68.7287027757392 0.925723468114615 -9.519901554473  
19.6                           0.816447209729864 -48.1619782020244 0.224997474515992 63.7716191124113 0.224997474515992 63.7716191124112 0.931981945607916 -11.0593558913598 
19.65                          0.82930754088833 -55.6115347741576 0.207295150181425 59.0890648699383 0.207295150181425 59.0890648699383 0.93717184564659 -12.5693421956641 
19.7                           0.840902604712005 -62.5945462839152 0.191130258446435 54.6609700357245 0.191130258446435 54.6609700357245 0.941463856034935 -14.0483454749073 
19.75                          0.851385552699589 -69.1490282375875 0.176398680405422 50.4678713800273 0.176398680405422 50.4678713800273 0.945005993299633 -15.4963414602884 
19.8                           0.860889983897951 -75.3102265254516 0.162989732507204 46.4912652744102 0.162989732507204 46.4912652744102 0.94792437825419 -16.9142723238415 
19.85                          0.869531671866129 -81.1105946651441 0.150792094128746 42.7138055494091 0.150792094128746 42.7138055494091 0.95032515586425 -18.3036696162836 
19.9                           0.87741061567002 -86.5798637254032 0.139697704592542 39.1193925536339 0.139697704592542 39.1193925536339 0.952296896058223 -19.6663904935341 
19.95                          0.884613114661552 -91.7451716402439 0.129604162540319 35.6931888595867 0.129604162540319 35.6931888595867 0.953913077020554 -21.0044381586611 
20                             0.891213708294383 -96.6312271116886 0.120416058273412 32.4215877248916 0.120416058273412 32.4215877248916 0.955234431815329 -22.3198432705283 
20.05                          0.897276909665421 -101.260490390559 0.112045570209763 29.2921529151982 0.112045570209763 29.2921529151983 0.956311053445699 -23.6145885357888 
20.1                           0.902858712354541 -105.653358781627 0.104412571123633 26.2935427707451 0.104412571123633 26.2935427707452 0.957184222140087 -24.8905632954972 
20.15                          0.908007877614078 -109.828348884971 0.0974444213207672 23.4154271869925 0.0974444213207671 23.4154271869925 0.957887957240003 -26.1495385464466 
20.2                           0.912767022161051 -113.802270603827 0.0910755734155226 20.6484031652904 0.0910755734155225 20.6484031652904 0.958450315712772 -27.3931555913378 
20.25                          0.917173531739385 -117.590390074403 0.0852470744277575 17.9839124800094 0.0852470744277575 17.9839124800094 0.958894467597924 -28.6229235455225 
20.3                           0.921260326008726 -121.206580129047 0.0799060227021325 15.4141635617651 0.0799060227021324 15.4141635617652 0.959239580520633 -29.8402224002401 
20.35                          0.925056498450602 -124.663457872605 0.0750050171094408 12.9320587238209 0.0750050171094407 12.9320587238209 0.959501543819743 -31.0463093919591 
20.4                           0.928587852174599 -127.972509573205 0.070501621996101 10.5311272194103 0.0705016219961009 10.5311272194103 0.959693559668464 -32.2423271667808 
20.45                          0.931877349478839 -131.144203447862 0.0663578617408109 8.20546420893089 0.0663578617408109 8.20546420893097 0.959826624859427 -33.4293127441145 
20.5                           0.934945490138126 -134.188091136619 0.0625397522994352 5.94967546443192 0.0625397522994352 5.94967546443198 0.959909923248334 -34.6082066393425 
20.55                          0.937810630823966 -137.11289876113 0.0590168728432768 3.75882749299871 0.0590168728432768 3.75882749299878 0.959951145479907 -35.7798617479953 
20.6                           0.940489255854541 -139.926608493049 0.0557619778504832 1.62840268475093 0.0557619778504833 1.62840268475098 0.959956749668724 -36.9450517578676 
20.65                          0.942996207622902 -142.636531541204 0.0527506483156045 -0.445740939408499 0.0527506483156046 -0.445740939408425 0.959932174196891 -38.1044789646386 
20.7                           0.945344883523959 -145.249373422495 0.0499609797592495 -2.46740580716672 0.0499609797592495 -2.46740580716668 0.959882011695174 -39.2587814379181 
20.75                          0.947547404951645 -147.771292322204 0.0473733042111259 -4.44008711287269 0.047373304211126 -4.44008711287271 0.959810151548192 -40.4085395301378 
20.8                           0.949614762922184 -150.207951283081 0.044969943140946 -6.36700176078575 0.0449699431409461 -6.36700176078575 0.95971989685515 -41.5542817486806 
20.85                          0.951556944056771 -152.564564894489 0.0427349883096567 -8.25111428997828 0.0427349883096568 -8.25111428997831 0.959614060634429 -42.6964900278387 
20.9                           0.953383039991527 -154.8459410863  0.040654107631317 -10.0951601056133 0.0406541076313172 -10.0951601056133 0.959495045136718 -43.835604445594 
20.95                          0.955101342744123 -157.056518569217 0.0387143733219789 -11.901666309777 0.038714373321979 -11.901666309777 0.959364907387169 -44.9720274335634 
21                             0.956719428130366 -159.200400404619 0.0369041098319728 -13.6729703948785 0.0369041098319729 -13.6729703948785 0.959225413478282 -46.1061275285888 
21.05                          0.958244228969966 -161.28138413356 0.0352127592898763 -15.4112370344853 0.0352127592898764 -15.4112370344853 0.959078083653963 -47.2382427126397 
21.1                           0.959682099532525 -163.30298884612 0.0336307624162201 -17.1184731806485 0.0336307624162202 -17.1184731806486 0.958924229838099 -48.3686833847843 
21.15                          0.961038872439503 -165.268479528872 0.0321494530843042 -18.7965416533713 0.0321494530843043 -18.7965416533713 0.958764986949829 -49.4977350055046 
21.2                           0.962319909044986 -167.180888989438 0.0307609649096803 -20.4471733868449 0.0307609649096804 -20.4471733868449 0.958601339097052 -50.6256604499648 
21.25                          0.963530144159482 -169.043037622658 0.0294581484367083 -22.0719784782995 0.0294581484367084 -22.0719784782996 0.95843414153772 -51.7527021031972 
21.3                           0.964674125849879 -170.85755125234 0.0282344976594868 -23.67245616861  0.0282344976594869 -23.67245616861  0.958264139135419 -52.879083726684 
21.35                          0.965756050939968 -172.626877255607 0.0270840847657055 -25.2500038690091 0.0270840847657056 -25.2500038690091 0.958091981903899 -54.0050121225699 
21.4                           0.966779796745462 -174.353299153007 0.0260015021265305 -26.8059253351682 0.0260015021265306 -26.8059253351683 0.95791823812836 -55.1306786187658 
21.45                          0.96774894950165 -176.038949826585 0.0249818106747187 -28.3414380783586 0.0249818106747187 -28.3414380783586 0.957743405464648 -56.2562603955126 
21.5                           0.968666829878279 -177.685823509591 0.024020493918161 -29.8576800932177 0.024020493918161 -29.8576800932178 0.957567920346975 -57.381921671561 
21.55                          0.969536515922631 -179.295786675222 0.0231134169283685 -31.355715972667 0.0231134169283685 -31.3557159726671 0.95739216597729 -58.5078147659759 
21.6                           0.970360863726384 179.129412062546 0.0222567897244074 -32.8365424726108 0.0222567897244074 -32.8365424726108 0.957216479122504 -59.6340810496649 
21.65                          0.971142526073273 177.588132935651 0.0214471345437448 -34.3010935820755 0.0214471345437448 -34.3010935820755 0.957041155907305 -60.7608517990557 
21.7                           0.971883969291711 176.078836806894 0.0206812565535606 -35.7502451482954 0.0206812565535606 -35.7502451482955 0.9568664567588  -61.8882489628571 
21.75                          0.972587488508365 174.600077673697 0.0199562176103903 -37.1848191008273 0.0199562176103903 -37.1848191008274 0.956692610633235 -63.0163858515438 
21.8                           0.973255221474545 173.150495819917 0.0192693127234457 -38.6055873139899 0.0192693127234457 -38.6055873139899 0.956519818633734 -64.1453677580569 
21.85                          0.973889161116443 171.728811552583 0.01861804891847 -40.0132751426932 0.01861804891847 -40.0132751426931 0.956348257110285 -65.2752925172144 
21.9                           0.974491166942264 170.333819467212 0.0180001262352832 -41.4085646629834 0.0180001262352833 -41.4085646629834 0.956178080318629 -66.4062510104425 
21.95                          0.975062975423749 168.964383191328 0.0174134206239161 -42.7920976453215 0.017413420623916 -42.7920976453213 0.956009422702557 -67.5383276216727 
22                             0.97560620945601 167.619430561115 0.0168559685320092 -44.1644782856786 0.0168559685320092 -44.1644782856786 0.955842400854038 -68.6716006495704 
22.05                          0.976122386987828 166.297949190818 0.0163259530004745 -45.5262757169405 0.0163259530004745 -45.5262757169404 0.955677115197234 -69.8061426806737 
22.1                           0.976612928904257 164.99898239868  0.0158216911057221 -46.8780263207936 0.015821691105722 -46.8780263207934 0.955513651435378 -70.9420209274971 
22.15                          0.977079166234357 163.721625456901 0.0153416226054332 -48.2202358582292 0.0153416226054332 -48.220235858229 0.955352081793687 -72.0792975352009 
22.2                           0.977522346748969 162.465022136377 0.0148842996612531 -49.5533814349673 0.0148842996612531 -49.5533814349671 0.955192466086513 -73.2180298600278 
22.25                          0.977943641006489 161.228361519925 0.0144483775261683 -50.8779133164831 0.0144483775261682 -50.8779133164828 0.955034852632824 -74.3582707223549 
22.3                           0.978344147898464 160.010875060301 0.014032606096985 -52.1942566058692 0.0140326060969849 -52.1942566058689 0.954879279040605 -75.5000686368986 
22.35                          0.978724899741426 158.811833861622 0.0136358222434573 -53.5028127964744 0.0136358222434573 -53.5028127964741 0.954725772877858 -76.6434680223394 
22.4                           0.979086866956582 157.630546164908 0.0132569428354141 -54.8039612101032 0.013256942835414 -54.8039612101029 0.954574352245368 -77.7885093923906 
22.45                          0.979430962374764 156.4663550203   0.0128949583978734 -56.0980603305292 0.0128949583978734 -56.0980603305289 0.954425026264316 -78.9352295301251 
22.5                           0.979758045200238 155.318636130173 0.0125489273317622 -57.3854490411472 0.0125489273317621 -57.3854490411469 0.95427779549004 -80.0836616471837 
22.55                          0.980068924663668 154.186795848843 0.0122179706445867 -58.6664477747602 0.0122179706445866 -58.6664477747598 0.954132652261718 -81.233835529325 
22.6                           0.980364363391522 153.070269325921 0.0119012671413604 -59.9413595827536 0.0119012671413604 -59.9413595827533 0.953989580996472 -82.3857776696282 
22.65                          0.980645080516561 151.968518781535 0.0115980490313625 -61.2104711302363 0.0115980490313625 -61.2104711302359 0.953848558435272 -83.5395113905311 
22.7                           0.980911754551688 150.88103190275  0.0113075979109705 -62.4740536231302 0.0113075979109705 -62.4740536231297 0.95370955384709 -84.6950569557683 
22.75                          0.981165026047301 149.807320351442 0.0110292410869552 -63.7323636726438 0.0110292410869551 -63.7323636726434 0.953572529196981 -85.8524316731724 
22.8                           0.981405500050394 148.746918374807 0.0107623482082992 -64.98564410208  0.0107623482082991 -64.9856441020796 0.953437439282988 -87.0116499892095 
22.85                          0.981633748381963 147.699381510417 0.010506328177873 -66.2341247004842 0.0105063281778729 -66.234124700484 0.953304231846305 -88.1727235760385 
22.9                           0.981850311747739 146.664285378482 0.0102606263182069 -67.4780229272442 0.0102606263182069 -67.478022927244 0.953172847658506 -89.3356614118101 
22.95                          0.982055701695878 145.641224554601 0.01002472176819 -68.7175445713883 0.01002472176819 -68.7175445713882 0.95304322058929 -90.5004698548572 
23                             0.982250402434033 144.629811516864 0.00979812508983281 -69.9528843690089 0.00979812508983282 -69.9528843690089 0.952915277657751 -91.6671527123695 
