! Touchstone file exported from HFSS 3D Layout Design 2026.1.0
!        File:           D:/Work/SIM/ADS_AUTO_SIM/projects/RFSOC_RF/TX_Fillter.aedt
!        Generated:      02:32:54 AM Aug 31, 2026
!        Design:         TX_BAND1_MCFIL_R31_CNN049
!        Project:        TX_Fillter
!
# GHz S MA R 50.000000
! Terminal data exported
! Port[1] = Port1
! Port[2] = Port2
14                             0.972885763170994 -163.887881232683 0.00367648548603505 -176.476537264202 0.00367648548603506 -176.476537264202 0.974423115143978 -160.273612419197 
14.05                          0.972382446541279 -164.78842594276 0.00374955713634844 -176.87924666311 0.00374955713634845 -176.87924666311 0.973958669159575 -161.142357918907 
14.1                           0.971863390368866 -165.69526339649 0.00382609291684522 -177.261840651371 0.00382609291684526 -177.261840651371 0.973479989023702 -162.016814673196 
14.15                          0.971327823157095 -166.608584770028 0.00390636465835653 -177.62391525196 0.00390636465835657 -177.623915251961 0.972986384652101 -162.897149288167 
14.2                           0.970774922333225 -167.528591343008 0.00399067074792946 -177.965107413057 0.0039906707479295 -177.965107413057 0.972477120490976 -163.783537107383 
14.25                          0.970203810010749 -168.455495163194 0.00407933902538738 -178.28510289154 0.00407933902538745 -178.285102891541 0.971951411749862 -164.676162785107 
14.3                           0.969613548327309 -169.38951976411 0.00417273001722524 -178.583644943615 0.00417273001722529 -178.583644943615 0.971408420257038 -165.575220905104 
14.35                          0.969003134308173 -170.33090094072 0.00427124054892835 -178.860543842604 0.00427124054892842 -178.860543842605 0.970847249892902 -166.480916649364 
14.4                           0.968371494198445 -171.279887588775 0.00437530778212513 -179.115687230234 0.00437530778212521 -179.115687230234 0.970266941550646 -167.393466521568 
14.45                          0.96771747719932 -172.236742614084 0.00448541372908892 -179.349051290613 0.00448541372908896 -179.349051290614 0.96966646756658 -168.313099130676 
14.5                           0.967039848534585 -173.20174391869 0.00460209030414565 -179.560712715321 0.0046020903041457 -179.560712715322 0.96904472555426 -169.240056040609 
14.55                          0.966337281763062 -174.175185471727 0.00472592497969272 -179.750861403458 0.00472592497969278 -179.750861403459 0.96840053156722 -170.174592692716 
14.6                           0.965608350240396 -175.157378473668 0.00485756712401139 -179.919813812393 0.00485756712401145 -179.919813812394 0.967732612504081 -171.116979408491 
14.65                          0.964851517619339 -176.148652623696 0.00499773510912685 179.931973156509 0.00499773510912689 179.931973156509 0.967039597657047 -172.067502480885 
14.7                           0.964065127261014 -177.149357501112 0.00514722428995953 179.803887886854 0.00514722428995957 179.803887886853 0.966320009289886 -173.026465363584 
14.75                          0.963247390410122 -178.159864073047 0.00530691597131807 179.695149576074 0.00530691597131809 179.695149576073 0.965572252113962 -173.994189968754 
14.8                           0.962396372964152 -179.18056634224 0.00547778749739162 179.604793784929 0.00547778749739162 179.604793784929 0.964794601510366 -174.971018085069 
14.85                          0.96150998063971 179.788116849587 0.00566092361989465 179.531658262025 0.00566092361989465 179.531658262024 0.963985190321993 -175.957312929311 
14.9                           0.960585942307302 178.745739845281 0.00585752932661529 179.47436932717  0.00585752932661531 179.474369327169 0.963141994010876 -176.953460846535 
14.95                          0.959621791228277 177.691828002967 0.0060689443426764 179.431329119799 0.00606894434267638 179.431329119799 0.962262813942265 -177.959873175711 
15                             0.958614843883023 176.625875311585 0.00629665955338184 179.400704031084 0.00629665955338182 179.400704031084 0.961345258516808 -178.976988299961 
15.05                          0.957562176026434 175.54734176594  0.00654233564133478 179.38041463758  0.00654233564133476 179.380414637579 0.960386721824437 179.994726096947 
15.1                           0.956460595543303 174.455650472596 0.00680782428308956 179.368127437295 0.00680782428308951 179.368127437295 0.959384359436476 178.954770543344 
15.15                          0.955306611600502 173.350184454022 0.00709519231374852 179.361248653256 0.00709519231374852 179.361248653256 0.958335060884154 177.902611033779 
15.2                           0.954096399501788 172.230283113966 0.00740674934382593 179.356920312969 0.00740674934382594 179.356920312969 0.957235418289627 176.837675992933 
15.25                          0.952825760541469 171.095238321933 0.00774507940401513 179.352018733778 0.00774507940401512 179.352018733778 0.956081690516608 175.759352913357 
15.3                           0.95149007602078 169.944290068767 0.00811307730342249 179.343155444148 0.00811307730342246 179.343155444148 0.954869762088061 174.666984626176 
15.35                          0.950084254430299 168.776621638682 0.00851399051926998 179.326680451157 0.00851399051926998 179.326680451157 0.953595095973275 173.559865158216 
15.4                           0.948602670606651 167.591354235397 0.00895146759579128 179.298687628193 0.00895146759579125 179.298687628193 0.952252679169912 172.437235122606 
15.45                          0.947039095433636 166.387540991348 0.00942961422290965 179.2550218485   0.00942961422290964 179.2550218485   0.950836959790882 171.298276582605 
15.5                           0.945386614366535 165.164160279051 0.0099530583985068 179.191287335588 0.00995305839850684 179.191287335588 0.949341774101528 170.142107320167 
15.55                          0.94363753270046 163.920108232561 0.0105270263605774 179.102856546779 0.0105270263605774 179.10285654678  0.947760261627526 168.967774431552 
15.6                           0.941783265062612 162.654190374493 0.0111574313183517 178.984878757497 0.0111574313183518 178.984878757497 0.946084766052965 167.77424716204  
15.65                          0.939814206063156 161.365112230348 0.0118509774282071 178.832287376801 0.0118509774282071 178.832287376802 0.944306719131778 166.560408880652 
15.7                           0.937719578363329 160.05146879698  0.0126152819677559 178.639804902939 0.0126152819677559 178.639804902939 0.942416504219521 165.32504808387  
15.75                          0.935487253578437 158.711732716332 0.0134590192807139 178.401944323089 0.013459019280714 178.401944323089 0.940403295265031 164.06684830507  
15.8                           0.933103540384345 157.344240989799 0.0143920908215319 178.113005672991 0.014392090821532 178.113005672992 0.938254866142905 162.784376794476 
15.85                          0.930552932884168 155.94718005386  0.0154258265533998 177.767066395782 0.0154258265533999 177.767066395782 0.935957364007258 161.47607182417  
15.9                           0.927817810647829 154.518569026196 0.0165732240834844 177.357964068103 0.0165732240834845 177.357964068103 0.933495038840587 160.140228466045 
15.95                          0.924878079773588 153.056240926687 0.0178492332993747 176.879269985601 0.0178492332993748 176.879269985601 0.930849919477558 158.774982690986 
16                             0.921710741728636 151.557821685142 0.019271095951651 176.32425200717  0.0192710959516511 176.32425200717  0.928001424000519 157.378293650283 
16.05                          0.918289373471144 150.02070677619  0.0208587516656141 175.685824934261 0.0208587516656142 175.685824934261 0.924925889405866 155.947924033712 
16.1                           0.914583498276819 148.442035385561 0.0226353243183343 174.956486533972 0.0226353243183344 174.956486533972 0.921596001676001 154.481418466156 
16.15                          0.910557821600914 146.818662133398 0.0246277056361928 174.128237089522 0.0246277056361928 174.128237089522 0.917980102682376 152.976080026737 
16.2                           0.90617129999599 145.147126594203 0.0268672562802681 173.192480068729 0.0268672562802682 173.192480068729 0.914041344494749 151.42894518371  
16.25                          0.901376003378812 143.423621215056 0.0293906485648326 172.139901136284 0.0293906485648327 172.139901136283 0.909736654487768 149.83675778554  
16.3                           0.896115721663474 141.64395883091  0.0322408791597636 170.960322306401 0.0322408791597637 170.960322306401 0.905015465980915 148.195943313238 
16.35                          0.89032425600173 139.80354194577  0.0354684843132544 169.642527566584 0.0354684843132544 169.642527566584 0.899818159045572 146.502585505791 
16.4                           0.883923323056749 137.897337508773 0.0391329935692331 168.174055864328 0.0391329935692331 168.174055864328 0.894074144958223 144.752408914958 
16.45                          0.87681998919258 135.919863408695 0.043304659246067 166.540957061903 0.043304659246067 166.540957061903 0.887699516735556 142.940773234643 
16.5                           0.868903543152144 133.865196883027 0.0480664955342572 164.72750656072  0.0480664955342572 164.72750656072  0.880594179929211 141.062688864063 
16.55                          0.86004171680386 131.727021347307 0.0535166484511024 162.715875184753 0.0535166484511023 162.715875184753 0.872638377915251 139.112868852861 
16.6                           0.850076185668798 129.49873814534  0.0597710883226711 160.485753295642 0.059771088322671 160.485753295642 0.863688545072368 137.085841300497 
16.65                          0.838817346255705 127.173685497688 0.0669665570379606 158.013933171424 0.0669665570379605 158.013933171424 0.853572479714249 134.976160210251 
16.7                           0.826038515646623 124.745531682403 0.0752635921841748 155.273863346617 0.0752635921841746 155.273863346617 0.842083963052445 132.77877435392  
16.75                          0.811470000179366 122.208947934877 0.0848492571042044 152.2352059308   0.0848492571042044 152.2352059308   0.828977224948218 130.48964659432  
16.8                           0.794794051917378 119.560725231419 0.0959388834511784 148.863457467538 0.0959388834511783 148.863457467538 0.813962179327005 128.106765098324 
16.85                          0.775642759813592 116.801585935093 0.108775621826544 145.119741971326 0.108775621826544 145.119741971326 0.796702291207127 125.63175779844  
16.9                           0.753602673134478 113.939062728983 0.123625840818003 140.960958759156 0.123625840818003 140.960958759156 0.776818532431549 123.072413670644 
16.95                          0.728232736325429 110.991969193539 0.140767414593022 136.340572889953 0.140767414593022 136.340572889953 0.753905401165774 120.446516703914 
17                             0.699106090508108 107.997129111825 0.160466873062774 131.210467062105 0.160466873062774 131.210467062106 0.72756852516258 117.787460835395 
17.05                          0.665890944601894 105.019030338018 0.182940851939547 125.52439608056  0.182940851939547 125.52439608056  0.697497348581374 115.151996848558 
17.1                           0.628488635203896 102.162566914952 0.208298606598917 119.243603991938 0.208298606598918 119.243603991938 0.663588381782264 112.629841577255 
17.15                          0.587241902308578 99.5872222193689 0.236467729997469 112.344895304623 0.236467729997469 112.344895304623 0.626128398721702 110.353127707222 
17.2                           0.543201260069271 97.5164074615706 0.267116742560372 104.830644609465 0.267116742560373 104.830644609465 0.586021866399032 108.499877364374 
17.25                          0.498376209759407 96.2263358917338 0.29960472202653 96.7387497026677 0.299604722026531 96.7387497026676 0.544990793523322 107.279448520249 
17.3                           0.45579552740496 95.9861933451332 0.333000223919711 88.1487741220059 0.333000223919711 88.1487741220058 0.505592412469042 106.882406820776 
17.35                          0.419103826911376 96.9223173482533 0.366201465566588 79.1797624060583 0.366201465566588 79.1797624060582 0.470847376754231 107.38515457442  
17.4                           0.391498703609475 98.8378165452064 0.398145283243435 69.977103142018  0.398145283243435 69.977103142018  0.443381932102374 108.64101536861  
17.45                          0.37430445683962 101.145075917714 0.428032948988282 60.6905699096865 0.428032948988281 60.6905699096865 0.42436525688637 110.251433039705 
17.5                           0.366163308442273 103.076618839802 0.455476062991107 51.4505659776384 0.455476062991107 51.4505659776384 0.412921291981413 111.696179314187 
17.55                          0.363630965312822 104.048023688805 0.480506005566742 42.3507356319783 0.480506005566741 42.3507356319784 0.406504373457911 112.551541654688 
17.6                           0.362665078892322 103.844317781686 0.503464969362661 33.4414912255246 0.503464969362661 33.4414912255246 0.401934949526456 112.624738946823 
17.65                          0.35984075091584 102.548855524287 0.524845020767267 24.7337065937406 0.524845020767267 24.7337065937407 0.396351719584336 111.940836621149 
17.7                           0.352804578978658 100.388298594966 0.545139111849531 16.2085316604302 0.545139111849531 16.2085316604303 0.387675838654112 110.658482558875 
17.75                          0.340207102000983 97.6281843355171 0.564736595470866 7.82902986784962 0.564736595470866 7.8290298678497  0.374666949484218 108.998585405919 
17.8                           0.321472863914643 94.5390102731136 0.583866858312029 -0.449170043295613 0.583866858312029 -0.449170043295585 0.356808822926398 107.213776842968 
17.85                          0.296607202910964 91.4114771588888 0.602581299762433 -8.66938200848438 0.602581299762432 -8.66938200848436 0.334194502590334 105.592623692398 
17.9                           0.266105194041749 88.6085811660946 0.620762930408778 -16.8676932763643 0.620762930408777 -16.8676932763643 0.30748558658909 104.487134190925 
17.95                          0.230980830836878 86.6666681436302 0.638156675399073 -25.0689168641177 0.638156675399071 -25.0689168641177 0.277967642220751 104.354010156714 
18                             0.192961599130992 86.4933177721303 0.654416490640359 -33.2844769850837 0.654416490640357 -33.2844769850836 0.247702333824924 105.790138308937 
18.05                          0.155017228887185 89.7486322396385 0.66916533436838 -41.5121472366638 0.669165334368378 -41.5121472366638 0.219736080647919 109.493784343571 
18.1                           0.122618184683614 99.2700389656214 0.682061157748596 -49.7375801493441 0.682061157748594 -49.737580149344 0.198145530269461 115.970569054899 
18.15                          0.105266424027579 117.24466606495  0.692858466597407 -57.937424139493 0.692858466597404 -57.9374241394928 0.187278783698438 124.814555775787 
18.2                           0.11145842144443 137.63626226298  0.701453513557177 -66.0835642583937 0.701453513557176 -66.0835642583936 0.189637528213652 134.182218644298 
18.25                          0.136840176920957 150.676218535988 0.707903818077156 -74.1477773191337 0.707903818077154 -74.1477773191335 0.203999982877224 141.800009190662 
18.3                           0.170730549560108 155.902650881584 0.712419171066047 -82.1060037545672 0.712419171066047 -82.106003754567 0.226377203560182 146.568068196817 
18.35                          0.206188605575003 156.403801458931 0.715328868624612 -89.9415753078048 0.715328868624611 -89.9415753078046 0.252475331834471 148.647250515644 
18.4                           0.239764332940248 154.286850222648 0.717035261850982 -97.6470482620132 0.717035261850982 -97.6470482620131 0.279020017625945 148.669722014043 
18.45                          0.269732657146976 150.666391337841 0.71796491111566 -105.224644775398 0.71796491111566 -105.224644775398 0.303866434846011 147.244448320369 
18.5                           0.295220891759949 146.125944956992 0.718526144912571 -112.685572003533 0.718526144912571 -112.685572003533 0.325721425563856 144.827019112905 
18.55                          0.315824875138317 140.978599244291 0.719077618603967 -120.048609255231 0.719077618603966 -120.048609255231 0.343868250184856 141.730707869548 
18.6                           0.331421028810559 135.393164391919 0.719908563699581 -127.338341296946 0.719908563699581 -127.338341296946 0.357969494216285 138.164881751154 
18.65                          0.342063666627559 129.456261609381 0.721228928063226 -134.583326147014 0.721228928063225 -134.583326147014 0.367937717980921 134.268401309624 
18.7                           0.347927150566282 123.20431547375  0.723166666502184 -141.814375802591 0.723166666502182 -141.814375802591 0.3738543301117  130.133302233683 
18.75                          0.349276515929843 116.640655486319 0.725769619878659 -149.063036720567 0.725769619878656 -149.063036720567 0.37592188899298 125.820432686839 
18.8                           0.346458553672839 109.744711805832 0.729010159660947 -156.360299733196 0.729010159660944 -156.360299733196 0.374439475488531 121.369221778919 
18.85                          0.339908438723183 102.476721484628 0.732791620386057 -163.73554678814 0.732791620386054 -163.73554678814 0.369793372048935 116.803060503489 
18.9                           0.330168179615096 94.7798672031844 0.736956198883093 -171.215746367109 0.73695619888309 -171.215746367109 0.362456515329038 112.131039564857 
18.95                          0.317913443791668 86.5813834334439 0.741294292526985 -178.824928698307 0.741294292526983 -178.824928698307 0.352990648148982 107.346246881367 
19                             0.303984831068521 77.7946416323386 0.745555090038683 173.416008096346 0.745555090038682 173.416008096346 0.342045398791699 102.420573504763 
19.05                          0.289418029864218 68.3256087299605 0.749457613001599 165.489104422748 0.749457613001599 165.489104422748 0.330349500058194 97.2961727478409 
19.1                           0.27546352098334 58.0891453564031 0.752700452539642 157.378726482495 0.752700452539643 157.378726482495 0.3186921459826  91.8746233383897 
19.15                          0.263579560421356 47.0416462982891 0.754967439310225 149.070570002104 0.754967439310228 149.070570002104 0.307898103030632 86.00668613886   
19.2                           0.25537396750913 35.231406884536  0.755925888531159 140.55043114623  0.755925888531163 140.55043114623  0.298808410673538 79.4881669768128 
19.25                          0.252471959824384 22.8497565567629 0.755214462361314 131.803052532808 0.755214462361318 131.803052532807 0.292285743045137 72.0698860780469 
19.3                           0.256319232054902 10.2395634180857 0.752419708665784 122.811532851484 0.752419708665787 122.811532851484 0.289261121924401 63.4903081260247 
19.35                          0.267989759417139 -2.18065408303287 0.747044524006673 113.557957596093 0.747044524006674 113.557957596092 0.290815120079959 53.5354890767309 
19.4                           0.288090472502481 -14.0559429225834 0.738478483860678 104.026003050061 0.738478483860679 104.02600305006  0.298238134313082 42.119282890409  
19.45                          0.316774462884458 -25.2071942707796 0.725988754886375 94.2061702591501 0.725988754886373 94.2061702591495 0.312964556366363 29.3552579621209 
19.5                           0.353765084257005 -35.6460605345451 0.708758526129354 84.1038304504171 0.708758526129352 84.1038304504165 0.336287416974928 15.5720750282315 
19.55                          0.398297441924419 -45.5058709436737 0.686000574485414 73.749194556376  0.686000574485412 73.7491945563756 0.368886344823459 1.24020386814539 
19.6                           0.449000090648589 -54.9483474220299 0.657155207279147 63.2066544301348 0.657155207279146 63.2066544301347 0.410375874989745 -13.1570983789396 
19.65                          0.503844532092898 -64.0930961692635 0.622136489624984 52.5793151918618 0.622136489624985 52.5793151918618 0.459129981973264 -27.2273852629279 
19.7                           0.56029241643152 -72.9867350579272 0.581532733323733 42.0044067692582 0.581532733323737 42.0044067692583 0.512502090076215 -40.7001808573956 
19.75                          0.615663541830385 -81.6076032508529 0.536643783129288 31.6380333565933 0.536643783129295 31.6380333565934 0.567362634714073 -53.4061877096146 
19.8                           0.667601448451539 -89.8920502242871 0.489295299585911 21.6328001656045 0.489295299585921 21.6328001656044 0.620741787049367 -65.2466571149721 
19.85                          0.714440543985065 -97.7660436747736 0.441489433289639 12.1159230384337 0.44148943328965 12.1159230384332 0.670339473662295 -76.1737649404154 
19.9                           0.755340642580088 -105.169625822792 0.395039696061974 3.17512611432255 0.395039696061984 3.17512611432175 0.714755509785735 -86.1807392861856 
19.95                          0.790192116644944 -112.069005239235 0.351324635341107 -5.14475373412522 0.351324635341117 -5.14475373412639 0.753442487349406 -95.2945159033392 
20                             0.819393920204809 -118.45767418049 0.311207139015401 -12.8364254846363 0.311207139015409 -12.8364254846378 0.786492198825835 -103.567217118135 
20.05                          0.843617106982281 -124.351082158939 0.275083952359821 -19.9203848330633 0.275083952359827 -19.9203848330652 0.814382707876283 -111.066767261813 
20.1                           0.863620677514274 -129.779232996081 0.242999058201372 -26.4346421784284 0.242999058201377 -26.4346421784304 0.837767421347686 -117.868319537645 
20.15                          0.880136781187469 -134.779909625654 0.214766080980146 -32.4261812924206 0.214766080980149 -32.4261812924228 0.857333330137561 -124.047674375553 
20.2                           0.893813776170658 -139.393601478185 0.190070381138401 -37.9448536979075 0.190070381138403 -37.9448536979098 0.873721882271662 -129.676961245093 
20.25                          0.905197497364574 -143.660204723913 0.16854223614621 -43.0395123544173 0.16854223614621 -43.0395123544195 0.887494072984063 -134.822255648792 
20.3                           0.914733618353274 -147.61714148186 0.149803663098681 -47.7558505130331 0.149803663098681 -47.7558505130352 0.899121972255703 -139.542593365654 
20.35                          0.922779525345082 -151.298464479092 0.133495298718874 -52.1353955692745 0.133495298718873 -52.1353955692764 0.908993824386219 -143.889873673011 
20.4                           0.929619030819536 -154.734580681687 0.119289790087355 -56.2152182798579 0.119289790087354 -56.2152182798595 0.917424796617957 -147.909263615879 
20.45                          0.935476599537431 -157.952329883574 0.106896789970863 -60.0280486117756 0.106896789970862 -60.0280486117769 0.924669062702726 -151.639842222225 
20.5                           0.940529721131343 -160.975245436527 0.0960631148770507 -63.6025987267085 0.0960631148770499 -63.6025987267096 0.93093115671354 -155.115324573101 
20.55                          0.944919086875937 -163.823891721813 0.0865703647251438 -66.9639722157673 0.0865703647251428 -66.9639722157682 0.936375791469281 -158.364775820111 
20.6                           0.948756698369427 -166.516218118541 0.0782314034131417 -70.1340906813116 0.0782314034131409 -70.1340906813121 0.941135976190091 -161.413269959575 
20.65                          0.952132210735736 -169.067897582202 0.0708865056948145 -73.1321012159412 0.070886505694814 -73.1321012159414 0.945319557256219 -164.282474813333 
20.7                           0.955117844552628 -171.492634888634 0.0643996042116578 -75.9747476804715 0.0643996042116574 -75.9747476804715 0.94901441101273 -166.991159538655 
20.75                          0.957772171066489 -173.802439251528 0.0586548477787696 -78.6766997185528 0.0586548477787694 -78.6766997185526 0.95229253359937 -169.555628642797 
20.8                           0.960143025420845 -176.007861220334 0.0535535538863893 -81.2508394084637 0.0535535538863893 -81.2508394084632 0.955213250606439 -171.990089912684 
20.85                          0.962269751407013 -178.118196338383 0.049011568194116 -83.7085084215182 0.0490115681941162 -83.7085084215175 0.957825734458621 -174.306964759306 
20.9                           0.964184936106833 179.858340880237 0.0449570080245754 -86.0597198161833 0.0449570080245757 -86.0597198161827 0.96017098164356 -176.517149340323 
20.95                          0.965915755798307 177.914468832238 0.0413283509061571 -88.3133389196465 0.0413283509061576 -88.3133389196458 0.962283370056133 -178.630234109671 
21                             0.967485025345686 176.043712895213 0.0380728242459867 -90.4772375872394 0.0380728242459873 -90.4772375872386 0.964191890248543 179.345311491022 
21.05                          0.968912020853324 174.240298359888 0.0351450530217036 -92.5584257440564 0.0351450530217043 -92.5584257440557 0.96592112316445 177.401983448019 
21.1                           0.970213128316084 172.499059308068 0.0325059259567229 -94.5631636459915 0.0325059259567236 -94.5631636459909 0.967492020310829 175.533111847351 
21.15                          0.971402358148746 170.815360930479 0.0301216453034214 -96.4970578254617 0.0301216453034222 -96.4970578254612 0.968922529458344 173.732749750966 
21.2                           0.972491755825761 169.185033158771 0.0279629301961988 -98.3651432476251 0.0279629301961996 -98.3651432476245 0.970228099080869 171.995578912062 
21.25                          0.973491731622024 167.60431382253  0.0260043480964755 -100.171953811662 0.0260043480964762 -100.171953811662 0.971422087182998 170.316829544134 
21.3                           0.974411327008855 166.069799832567 0.0242237529341391 -101.921582992578 0.0242237529341398 -101.921582992577 0.972516094383571 168.69221184151  
21.35                          0.975258431169025 164.578405138115 0.0226018120938485 -103.617736129999 0.0226018120938492 -103.617736129998 0.973520236701172 167.117857348964 
21.4                           0.976039958007846 163.12732441256  0.021121607411579 -105.263775626789 0.0211216074115796 -105.263775626789 0.974443370098711 165.590268607242 
21.45                          0.976761991699114 161.714001594938 0.0197682978826711 -106.862760116279 0.0197682978826716 -106.862760116278 0.975293276240097 164.106275771846 
21.5                           0.977429907026224 160.336102557901 0.0185288338963518 -108.417478486706 0.0185288338963523 -108.417478486706 0.976076816904273 162.662999124404 
21.55                          0.978048469419815 158.991491291852 0.0173917145639474 -109.930479509874 0.0173917145639478 -109.930479509874 0.976800062948047 161.257816578125 
21.6                           0.978621918550001 157.678209093517 0.0163467811556493 -111.40409770319 0.0163467811556496 -111.404097703191 0.977468402501754 159.88833542846  
21.65                          0.979154038526349 156.394456328979 0.0153850408543664 -112.840475956277 0.0153850408543667 -112.840475956277 0.978086632139487 158.552367723187 
21.7                           0.979648217134615 155.138576408964 0.0144985160185869 -114.241585371719 0.014498516018587 -114.241585371719 0.978659034027008 157.24790872753  
21.75                          0.980107496052876 153.909041670522 0.0136801149562433 -115.609242701406 0.0136801149562434 -115.609242701406 0.979189441468897 155.973118043672 
21.8                           0.980534613608735 152.704440906133 0.0129235208792179 -116.945125702993 0.0129235208792179 -116.945125702993 0.97968129481647 154.726303013333 
21.85                          0.980932041339379 151.523468320344 0.0122230962588897 -118.25078669329 0.0122230962588897 -118.250786693291 0.980137689332577 153.505904089592 
21.9                           0.981302015378982 150.364913726774 0.0115738002580659 -119.527664535288 0.0115738002580658 -119.527664535288 0.980561416317663 152.31048191199  
21.95                          0.981646563509345 149.227653825686 0.0109711172909915 -120.777095261713 0.0109711172909914 -120.777095261713 0.980954998567716 151.138705858866 
22                             0.981967528558932 148.110644425365 0.0104109950750174 -122.000321509473 0.0104109950750173 -122.000321509473 0.981320721046464 149.989343884241 
22.05                          0.982266588714505 147.012913489913 0.00988979079643853 -123.198500915107 0.00988979079643835 -123.198500915106 0.981660657502009 148.861253474597 
22.1                           0.982545275212001 145.93355491244  0.00940422422841624 -124.372713600799 0.00940422422841601 -124.372713600799 0.981976693634504 147.753373584448 
22.15                          0.982804987794247 144.871722926523 0.00895133681844345 -125.523968862962 0.00895133681844319 -125.523968862962 0.982270547320743 146.664717429429 
22.2                           0.983047008258816 143.826627080526 0.0085284559127868 -126.653211160393 0.00852845591278655 -126.653211160392 0.982543786319102 145.594366032474 
22.25                          0.98327251236674 142.797527709434 0.00813316341087586 -127.761325486186 0.00813316341087561 -127.761325486185 0.982797843810491 144.541462432857 
22.3                           0.983482580339683 141.78373184738  0.00776326824791685 -128.849142196537 0.00776326824791656 -128.849142196536 0.983034032075129 143.505206480004 
22.35                          0.983678206137613 140.78458953135  0.00741678219253069 -129.917441360091 0.0074167821925304 -129.91744136009 0.983253554558682 142.484850144281 
22.4                           0.983860305679594 139.799490452862 0.00709189852079003 -130.966956683302 0.00709189852078975 -130.9669566833  0.983457516542904 141.479693285798 
22.45                          0.984029724145917 138.827860919741 0.00678697319098581 -131.998379060213 0.00678697319098554 -131.998379060212 0.983646934603858 140.489079829814 
22.5                           0.984187242479396 137.869161094835 0.0065005081967144 -133.012359788957 0.00650050819671414 -133.012359788956 0.983822745014027 139.512394303816 
22.55                          0.984333583186632 136.922882482459 0.00623113682102728 -134.009513491967 0.00623113682102703 -134.009513491966 0.983985811222137 138.549058696923 
22.6                           0.984469415525735 135.988545636897 0.00597761055274023 -134.990420772317 0.00597761055274002 -134.990420772315 0.984136930525582 137.598529607085 
22.65                          0.984595360154947 135.065698070244 0.00573878745864793 -135.955630634628 0.00573878745864773 -135.955630634628 0.984276840034378 136.660295645719 
22.7                           0.98471199330642 134.153912339545 0.00551362183323689 -136.905662695494 0.00551362183323671 -136.905662695493 0.984406222012011 135.733875073014 
22.75                          0.984819850540751 133.252784295443 0.00530115497128712 -137.841009205382 0.00530115497128697 -137.841009205382 0.984525708667085 134.818813640289 
22.8                           0.984919430130548 132.361931476553 0.0051005069291308 -138.762136901361 0.00510050692913068 -138.76213690136 0.984635886459864 133.914682618509 
22.85                          0.985011196115022 131.480991635527 0.00491086915781748 -139.669488707674 0.0049108691578174 -139.669488707672 0.984737299979441 133.021076994432 
22.9                           0.98509558106223 130.609621384309 0.00473149790646203 -140.563485299244 0.00473149790646196 -140.563485299243 0.984830455440137 132.137613817962 
22.95                          0.985172988571009 129.747494947418 0.00456170830698935 -141.444526541415 0.00456170830698931 -141.444526541415 0.984915823839546 131.263930686074 
23                             0.985243795540666 128.894303013277 0.00440086906265271 -142.312992817735 0.00440086906265271 -142.312992817735 0.98499384381539 130.399684350301 
