! Touchstone file exported from HFSS 3D Layout Design 2026.1.0
!        File:           D:/Work/ADS/SIMADS_EM_PAR/HFSS_VERDICT/hfss_sma_connector_cpw.aedt
!        Generated:      10:50:55 PM Aug  5, 2026
!        Design:         SINGLE_END_SMA_CPW_30MM
!        Project:        hfss_sma_connector_cpw
!
! Variables:
!        $sma_Base_D = 6.25mm
!        $sma_Base_L = 8mm
!        $sma_Feet_L = 4mm
!        $sma_Feet_W = 1mm
!        $sma_Front_L = 1.5mm
!        $sma_Front_W = 6.5mm
!        $sma_Hole_D = 1.25mm
!        $sma_PTFE_D = 4.2mm
!        $sma_Pin_D = 0.95mm
!        $sma_Pin_P = 1.7mm
!
# GHz S MA R 50.000000
! Terminal data exported
! Port[1] = Port1
! Port[2] = S1_1_Pin_T1
0.5                            0.070383399037298 -133.384057852895 0.987526869827028 -41.8514097534779 0.98752686982703 -41.8514097534779 0.0707920115451048 -132.272811672805 
0.6                            0.0818110487815106 -142.055610033414 0.985087610579621 -50.1195593563083 0.985087610579622 -50.1195593563083 0.0822088584573422 -140.606977108139 
0.7                            0.0920249012351543 -150.680722150986 0.98270926604293 -58.3671708523755 0.98270926604293 -58.3671708523755 0.0923497645754762 -148.808939687433 
0.8                            0.100923541563045 -159.289232645832 0.980415329600682 -66.5966910972734 0.980415329600683 -66.5966910972734 0.101124932471717 -156.885667641165 
0.9                            0.108424757177672 -167.905220939626 0.978234439456866 -74.8102306218807 0.978234439456866 -74.8102306218807 0.108467704382137 -164.839204483076 
1                              0.114467637716916 -176.550960561424 0.976196017735167 -83.0100749062492 0.976196017735168 -83.0100749062492 0.114332396851497 -172.666402229714 
1.1                            0.119013778834614 174.750463146603 0.974325361209501 -91.1988327433722 0.974325361209502 -91.1988327433722 0.1186941853628  179.641770987388 
1.2                            0.122047800292524 165.973187288217 0.972640023642575 -99.3793949121038 0.972640023642576 -99.3793949121039 0.121550243574202 172.101060285886 
1.3                            0.123577602625734 157.086809214597 0.971147742682665 -107.554806097236 0.971147742682665 -107.554806097236 0.122921474679374 164.73496208387  
1.4                            0.123634769152083 148.05448134305  0.969845704037309 -115.728107302171 0.969845704037309 -115.728107302171 0.122854465748001 157.576142400808 
1.5                            0.122275464392608 138.830554452188 0.968720842582951 -123.902180168675 0.968720842582951 -123.902180168675 0.121423611161678 150.668424623133 
1.6                            0.119582162978524 129.357456726607 0.967750895882849 -132.079610170421 0.967750895882849 -132.079610170421 0.118733636217258 144.069516841438 
1.7                            0.115666600194337 119.561474179784 0.966905967897967 -140.26257729518 0.966905967897967 -140.26257729518 0.114922997558325 137.854570588759 
1.8                            0.110674488852424 109.347114802097 0.966150404239432 -148.452777794261 0.966150404239433 -148.452777794261 0.110168837486272 132.120429261339 
1.9                            0.104792803380912 98.5899411447553 0.965444818069604 -156.651377429707 0.965444818069605 -156.651377429707 0.104694271592836 126.989811299973 
2                              0.0982607314198878 87.1285244704002 0.964748136650188 -164.858994631113 0.964748136650189 -164.858994631113 0.098778595656174 122.613232128867 
2.1                            0.0913854479482923 74.7584083746663 0.964019563616657 -173.075710659913 0.964019563616658 -173.075710659913 0.0927699676727508 119.163492374858 
2.2                            0.0845627309608973 61.2364466288128 0.963220373087743 178.698896974255 0.963220373087743 178.698896974255 0.0870970975353218 116.812610856372 
2.3                            0.0782976873426774 46.3146091340443 0.962315470475291 170.465702130219 0.962315470475292 170.465702130219 0.0822698642850108 115.676550322658 
2.4                            0.073208369538144 29.8344733585017 0.961274672731573 162.225963247063 0.961274672731573 162.225963247063 0.0788491601505244 115.720115964169 
2.5                            0.0699750264494509 11.8990236604331 0.960073678525027 153.981246769133 0.960073678525027 153.981246769132 0.0773638788046158 116.653298452693 
2.6                            0.0691957713946676 -6.95881157360039 0.958694716549985 145.733345250862 0.958694716549984 145.733345250862 0.07818061662869 117.912812458824 
2.7                            0.0711808479738838 -25.8261059181651 0.957126877323132 137.484194260562 0.95712687732313 137.484194260562 0.0813902117574164 118.811906335671 
2.8                            0.0758327745126512 -43.7734021473371 0.955366149462877 129.235791679056 0.955366149462875 129.235791679056 0.0867949863346273 118.785644247869 
2.9                            0.0827250901212023 -60.2343741812869 0.953415194503775 120.990122324523 0.953415194503772 120.990122324523 0.094004373922989 117.543614888162 
3                              0.0912966874112764 -75.0810260303313 0.951282903801814 112.749090078057 0.951282903801811 112.749090078057 0.102562273076132 115.053883517377 
3.1                            0.101008326815706 -88.4632933626197 0.94898378640627 104.514458894209 0.948983786406267 104.514458894209 0.112036879619365 111.4396356864   
3.2                            0.111409261657483 -100.632549398621 0.946537237737813 96.2878033198397 0.946537237737808 96.2878033198399 0.122059539134415 106.883170719626 
3.3                            0.122143913442584 -111.840992662918 0.943966735832513 88.0704684710345 0.94396673583251 88.0704684710346 0.132330531656138 101.569615828774 
3.4                            0.132935813454045 -122.304225132514 0.941299005515141 79.8635388792426 0.941299005515138 79.8635388792428 0.142610710560052 95.663138326155  
3.5                            0.143568266820544 -132.195371431395 0.938563182165627 71.6678152458856 0.938563182165624 71.6678152458858 0.152709670588903 89.3010079905464 
3.6                            0.153868209930433 -141.650624223993 0.935789996880395 63.4837979539003 0.935789996880393 63.4837979539005 0.162474748158571 82.595315466658  
3.7                            0.163694216332369 -150.777234464371 0.93301099492178 55.3116761721871 0.933010994921777 55.3116761721873 0.171782039442839 75.6371258462975 
3.8                            0.172927977999281 -159.660785572299 0.930257790368809 47.1513215372239 0.930257790368808 47.1513215372239 0.180529465591973 68.5008504373046 
3.9                            0.18146838475103 -168.370994000512 0.927561352590841 39.0022856764064 0.927561352590839 39.0022856764065 0.188631616461989 61.2480717951116 
4                              0.18922750532041 -176.96611036655 0.924951315080487 30.8638012137989 0.924951315080485 30.863801213799  0.196016102921066 53.9306670288805 
4.1                            0.196127994823354 174.503789346768 0.922455294594881 22.7347863308451 0.92245529459488 22.7347863308451 0.20262121473653 46.5932941967711 
4.2                            0.202101628868721 165.994328723132 0.920098208567249 14.6138534009038 0.920098208567247 14.6138534009037 0.208394739834006 39.2753634333457 
4.3                            0.207088787416316 157.464930985028 0.917901581331023 6.49932263642115 0.91790158133102 6.49932263642103 0.213293834386678 32.0126101729253 
4.4                            0.211038793573945 148.877310790444 0.91588283472735 -1.61075795862149 0.915882834727347 -1.61075795862154 0.217285844721022 24.8383644202203 
4.5                            0.213911066297016 140.194222454198 0.914054565973412 -9.71858478959322 0.91405456597341 -9.71858478959319 0.220349979107544 17.7845828718371 
4.6                            0.215677080563104 131.378367125747 0.91242382504005 -17.8265613794737 0.912423825040047 -17.8265613794738 0.22247971697378 10.8826838786575 
4.7                            0.216323149650135 122.391392724644 0.91099141493868 -25.9372500181901 0.910991414938677 -25.9372500181902 0.223685828758429 4.16419806627313 
4.8                            0.215854054004259 113.192950811417 0.909751250825541 -34.0533110918688 0.909751250825538 -34.0533110918689 0.223999861132961 -2.33878279468419 
4.9                            0.214297538517758 103.739811587146 0.908689827023224 -42.177429402219 0.90868982702322 -42.1774294022192 0.223477913957274 -8.59341267994974 
5                              0.211709678046222 93.9850922398777 0.90778585387386 -50.3122276598318 0.907785853873857 -50.312227659832 0.222204485166871 -14.5662535905457 
5.1                            0.208181053535556 83.8777392814548 0.907010137183609 -58.4601685337924 0.907010137183607 -58.4601685337925 0.220296069600341 -20.2239470558573 
5.2                            0.203843556220991 73.3625406638086 0.906325779674845 -66.6234481607669 0.906325779674846 -66.6234481607669 0.21790404583256 -25.5346035847644 
5.3                            0.198877388722359 62.3811454959928 0.90568878350321 -74.8038858146089 0.90568878350321 -74.803885814609 0.215216155039623 -30.4701516492974 
5.4                            0.193517373861403 50.8748357646803 0.905049122306193 -83.0028164074759 0.905049122306194 -83.002816407476 0.212455576891244 -35.0098524152409 
5.5                            0.188056915732549 38.7900580777997 0.904352327327483 -91.2209944561373 0.904352327327485 -91.2209944561374 0.20987630883213 -39.1450102418785 
5.6                            0.182846848837876 26.0877676321521 0.903541592731989 -99.4585198458807 0.903541592731993 -99.4585198458808 0.207753428924943 -42.8845136515338 
5.7                            0.178285191698744 12.7570087644918 0.902560350089899 -107.71479684234 0.902560350089899 -107.71479684234 0.206367157338504 -46.2602119801157 
5.8                            0.174793316202102 -1.16874838284106 0.901355193985322 -115.988538007915 0.901355193985324 -115.988538007916 0.205980742852189 -49.3304362666092 
5.9                            0.172775837546036 -15.5973267821117 0.899878966283687 -124.277823707758 0.899878966283688 -124.277823707758 0.20681416656816 -52.1796418464795 
6                              0.172567173951473 -30.3736566358441 0.898093735650141 -132.580225642752 0.898093735650145 -132.580225642752 0.209017960814601 -54.9127394395677 
6.1                            0.174376371485457 -45.2931528075876 0.895973353073878 -140.89299950663 0.89597335307388 -140.89299950663 0.212652899113671 -57.6443852324139 
6.2                            0.178248092852778 -60.1328342184196 0.893505233605633 -149.213347989197 0.893505233605634 -149.213347989197 0.217680675655069 -60.485657515886 
6.3                            0.184054662224869 -74.6896586708936 0.89069101355025 -157.53875192285 0.890691013550252 -157.53875192285 0.223967747385016 -63.531842372608 
6.4                            0.191521201165681 -88.8105523973177 0.887545754234078 -165.867365818664 0.887545754234082 -165.867365818664 0.231300580185485 -66.8545649453687 
6.5                            0.200272099449867 -102.404300705457 0.884095384907748 -174.198476241128 0.88409538490775 -174.198476241128 0.23940759834889 -70.4995920912358 
6.6                            0.209881948214756 -115.436179246652 0.880372051362429 177.466970092666 0.880372051362429 177.466970092666 0.247982314383054 -74.4895815010349 
6.7                            0.219918471491987 -127.912973885485 0.876406878630823 169.125743356452 0.876406878630822 169.125743356452 0.256703080703522 -78.8299319814812 
6.8                            0.22997287081633 -139.866117102406 0.872219207490412 160.771553714434 0.872219207490413 160.771553714434 0.265246474990999 -83.515892367585 
6.9                            0.239679121338679 -151.337192687184 0.867800299042282 152.394000939699 0.867800299042282 152.394000939699 0.273292376082851 -88.5397758249014 
7                              0.24872727243801 -162.366541430711 0.863087069017185 143.977023592214 0.863087069017185 143.977023592214 0.280518513556873 -93.8980104261711 
7.1                            0.256879307214069 -172.983366866892 0.857915721388125 135.496429451255 0.857915721388126 135.496429451255 0.286579735350108 -99.598619379293 
7.2                            0.264005675951383 176.80583417376  0.851931027211925 126.915763104186 0.851931027211925 126.915763104186 0.29105998018695 -105.670647063526 
7.3                            0.27019296910909 167.034921133679 0.844389158753514 118.179348714895 0.844389158753513 118.179348714895 0.293365448436753 -112.1782463866  
7.4                            0.276085320246144 157.802681598659 0.833681950666674 109.2018426925   0.833681950666674 109.2018426925   0.292471845063031 -119.243110160445 
7.5                            0.284002355388443 149.255571933944 0.816070623352901 99.8635447351471 0.816070623352903 99.8635447351469 0.286269148472951 -127.071615435441 
7.6                            0.301241103027896 141.115872396267 0.782170504175319 90.1082804239251 0.78217050417532 90.1082804239246 0.269755080185792 -135.891936549714 
7.7                            0.342313593748115 129.945460926414 0.710657837582153 80.9440036418774 0.710657837582152 80.9440036418767 0.231122273876378 -144.808498181521 
7.8                            0.374105667697017 106.673048143845 0.612793275847093 79.2835986825401 0.612793275847103 79.2835986825399 0.167043874615079 -142.122083202316 
7.9                            0.272547244334673 82.9760457713716 0.659184028277056 82.9399932803063 0.659184028277058 82.9399932803049 0.184277304955074 -121.197341973182 
8                              0.204022927781387 88.8536018988305 0.750501519826512 75.9889135434191 0.750501519826462 75.9889135434215 0.240698805585673 -125.367702544446 
8.1                            0.219477780870131 89.9065542364228 0.793692739669649 66.2115691783557 0.793692739669645 66.2115691783549 0.264337772114477 -135.002732355105 
8.2                            0.233062183337029 82.2348283466272 0.814376932304056 56.592024266334  0.814376932304059 56.5920242663348 0.269821546158069 -143.760399634609 
8.3                            0.236926795147383 72.463220505305  0.82490211586611 47.4044180340153 0.824902115866114 47.4044180340159 0.267267021811406 -151.423599520569 
8.4                            0.234869354670997 62.2038390609443 0.830748855987971 38.5059607982515 0.830748855987973 38.5059607982519 0.261538200798685 -158.214429344833 
8.5                            0.229410511897079 51.7963156319462 0.834352225676068 29.7841882309179 0.834352225676067 29.7841882309179 0.25592187155424 -164.729578335107 
8.6                            0.221975660755806 41.3214898742916 0.836808499328452 21.1549275633405 0.836808499328449 21.1549275633405 0.248217592165109 -171.829732473175 
8.7                            0.213520537154352 30.8309830464116 0.838497240519102 12.5463939063885 0.838497240519098 12.5463939063888 0.235985263515161 -178.949361421889 
8.8                            0.204947815377423 20.4251500207194 0.839187269253491 3.88715089417912 0.83918726925349 3.88715089417937 0.221065554553057 174.099691139935 
8.9                            0.197612318552246 10.3032783590646 0.837709679988445 -4.90394907498788 0.837709679988444 -4.90394907498779 0.20311440007803 166.8846226729   
9                              0.194642326185758 0.702228663679253 0.830503164398954 -13.9083803365476 0.830503164398955 -13.9083803365475 0.177946527024591 158.88999102034  
9.1                            0.20460330297806 -9.35503803535859 0.806761957420182 -22.886655195066 0.806761957420182 -22.886655195066 0.132551089257248 151.903006739745 
9.2                            0.229593261953614 -27.4692936693746 0.765069814936575 -28.8931526066159 0.765069814936577 -28.8931526066157 0.0885740058856153 -177.096760116964 
9.3                            0.212909168282015 -51.1659378478393 0.794827124122419 -33.454076636963 0.79482712412242 -33.4540766369628 0.163572719480888 -169.544198938995 
9.4                            0.185953980140722 -66.6925898759618 0.827851271309549 -42.0031117120772 0.827851271309551 -42.0031117120772 0.190378081476318 175.94771210988  
9.5                            0.171526205645301 -79.1978807922799 0.840627511541657 -51.0179195025498 0.840627511541658 -51.0179195025498 0.1938916855875  165.662639413502 
9.6                            0.164247940506864 -91.1909959957701 0.845566072558618 -59.8580991868891 0.845566072558616 -59.8580991868892 0.192638997641626 157.643722470122 
9.7                            0.16082582069606 -102.99256114919 0.847356074041509 -68.5478237773824 0.847356074041508 -68.5478237773823 0.190672912226255 150.545661975548 
9.8                            0.159779819381051 -114.51079149712 0.847665222536774 -77.1407108078824 0.84766522253677 -77.1407108078824 0.188959462954749 143.745528187695 
9.9                            0.160344074185652 -125.619552299909 0.847181942722917 -85.6762033817887 0.847181942722916 -85.6762033817885 0.187733549299798 136.929256239243 
10                             0.162051855601789 -136.230665435978 0.846206646473931 -94.1838845323202 0.846206646473932 -94.1838845323202 0.187031563552832 129.924257213104 
