! Touchstone file exported from HFSS 3D Layout Design 2026.1.0
!        File:           D:/Work/SIM/ADS_AUTO_SIM/projects/RFSOC_RF/TX_Fillter.aedt
!        Generated:      04:58:17 AM Aug 31, 2026
!        Design:         TX_BAND1_MCFIL_R49_CNN028
!        Project:        TX_Fillter
!
# GHz S MA R 50.000000
! Terminal data exported
! Port[1] = Port1
! Port[2] = Port2
14                             0.973551074772663 -162.352706189399 0.00369819720998838 -174.971683337464 0.00369819720998838 -174.971683337464 0.974040187120232 -161.170481714689 
14.05                          0.97306967926752 -163.238259283201 0.00377265813843432 -175.346606929848 0.00377265813843434 -175.346606929848 0.973568580023097 -162.050556338592 
14.1                           0.972573353305678 -164.129681294856 0.00385074855146083 -175.700648940918 0.00385074855146085 -175.700648940918 0.973082392158101 -162.936456127813 
14.15                          0.972061359824594 -165.027146661378 0.00393275912059654 -176.033426228833 0.00393275912059655 -176.033426228833 0.972580906995208 -163.82835150315 
14.2                           0.971532912258799 -165.930839153639 0.00401900923298092 -176.344603998049 0.00401900923298093 -176.344603998049 0.972063360073989 -164.726421921976 
14.25                          0.970987170354826 -166.840952497768 0.00410985014139756 -176.633904520007 0.00410985014139758 -176.633904520007 0.971528934964761 -165.630856477232 
14.3                           0.970423235557492 -167.757691046771 0.00420566848229532 -176.901116685027 0.00420566848229534 -176.901116685027 0.970976758817256 -166.541854544635 
14.35                          0.96984014591571 -168.681270507251 0.00430689020686461 -177.146106391135 0.00430689020686463 -177.146106391135 0.97040589744707 -167.459626482733 
14.4                           0.969236870448781 -169.611918726657 0.00441398497617258 -177.368827758131 0.0044139849761726 -177.368827758131 0.969815349903243 -168.384394391024 
14.45                          0.968612302905688 -170.549876547128 0.00452747107821134 -177.569335133989 0.00452747107821137 -177.56933513399 0.969204042452235 -169.316392931907 
14.5                           0.967965254840194 -171.495398732696 0.00464792093265167 -177.747795835726 0.0046479209326517 -177.747795835726 0.968570821904279 -170.255870222915 
14.55                          0.967294447913176 -172.448754977412 0.00477596725833693 -177.904503538209 0.00477596725833694 -177.904503538209 0.967914448197198 -171.203088806469 
14.6                           0.966598505320362 -173.410231002884 0.00491230998936294 -178.039892192439 0.00491230998936296 -178.039892192439 0.967233586140098 -172.158326705204 
14.65                          0.965875942228153 -174.380129754727 0.00505772403829271 -178.154550320304 0.00505772403829273 -178.154550320304 0.966526796204536 -173.121878571939 
14.7                           0.965125155081984 -175.358772708605 0.00521306802004374 -178.249235496765 0.00521306802004375 -178.249235496764 0.965792524233339 -174.094056944457 
14.75                          0.964344409630316 -176.34650129791 0.0053792940677471 -178.324888794411 0.00537929406774712 -178.324888794411 0.96502908991684 -175.075193616527 
14.8                           0.963531827482063 -177.343678476592 0.00555745889299293 -178.382648931302 0.00555745889299294 -178.382648931302 0.964234673862143 -176.065641138042 
14.85                          0.962685370985461 -178.350690432464 0.00574873626806255 -178.423865833358 0.00574873626806257 -178.423865833358 0.963407303052553 -177.065774458796 
14.9                           0.961802826180942 -179.367948468235 0.00595443113786427 -178.450113300186 0.0059544311378643 -178.450113300186 0.962544834460495 -178.0759927323  
14.95                          0.960881783538482 179.604108930148 0.00617599560537831 -178.463200451068 0.00617599560537832 -178.463200451068 0.961644936537059 -179.09672129818 
15                             0.959919616139662 178.56501381569  0.00641504707773548 -178.465181629267 0.00641504707773545 -178.465181629267 0.960705068253368 179.871586135827 
15.05                          0.958913454904546 177.514266267893 0.00667338891211946 -178.458364460769 0.00667338891211948 -178.458364460769 0.959722455311644 178.828445088483 
15.1                           0.957860160391332 176.451331617065 0.00695303396332519 -178.44531580081 0.00695303396332521 -178.44531580081 0.958694063075006 177.77333764919  
15.15                          0.956756290609782 175.375637372846 0.00725623151023989 -178.428865360079 0.00725623151023992 -178.428865360079 0.957616565682212 176.70570954097  
15.2                           0.955598064184466 174.286569819897 0.00758549812942559 -178.412106883137 0.00758549812942561 -178.412106883137 0.956486310713467 175.624966867283 
15.25                          0.954381318076503 173.183470238517 0.00794365319364206 -178.39839685423 0.00794365319364207 -178.39839685423 0.955299278652175 174.530472502929 
15.3                           0.953101458917611 172.06563070201  0.00833385980555529 -178.391350828287 0.00833385980555531 -178.391350828287 0.954051036239983 173.421542083692 
15.35                          0.951753406821241 170.932289395875 0.0087596721369429 -178.394837624414 0.00875967213694292 -178.394837624414 0.952736682642573 172.297439543129 
15.4                           0.950331530303918 169.782625396157 0.00922509033749863 -178.41297177075 0.00922509033749865 -178.41297177075 0.951350787123185 171.157372137764 
15.45                          0.948829570665207 168.61575283558  0.00973462441236372 -178.450104747578 0.00973462441236374 -178.450104747578 0.949887316650078 170.000484893886 
15.5                           0.947240553823361 167.43071437624  0.0102933687531216 -178.510815733747 0.0102933687531216 -178.510815733747 0.94833955153005 168.825854400112 
15.55                          0.945556687168693 166.226473896702 0.0109070893548186 -178.599902713667 0.0109070893548186 -178.599902713667 0.946699986746659 167.632481859922 
15.6                           0.943769238456019 165.001908289317 0.0115823261761465 -178.722374943103 0.0115823261761465 -178.722374943103 0.944960216168131 166.419285307446 
15.65                          0.941868393083316 163.755798250679 0.0123265136193477 -178.883447898231 0.0123265136193478 -178.883447898231 0.943110796149704 165.185090878254 
15.7                           0.939843085259933 162.486817934754 0.0131481227432333 -179.088541942593 0.0131481227432333 -179.088541942593 0.941141084254228 163.928623015084 
15.75                          0.937680797508327 161.193523325076 0.0140568296049169 -179.34328604251 0.0140568296049169 -179.343286042511 0.939039047809894 162.648493477146 
15.8                           0.935367321609177 159.87433917085  0.015063715087983 -179.653527948051 0.015063715087983 -179.653527948051 0.936791035758973 161.343189012288 
15.85                          0.932886472414976 158.527544324038 0.0161815027590679 179.9746476579   0.0161815027590679 179.9746476579   0.934381505655132 160.011057545961 
15.9                           0.930219743824941 157.151255314135 0.017424842752276 179.534891444135 0.0174248427522761 179.534891444135 0.931792695647811 158.650292743404 
15.95                          0.927345893510971 155.743408010236 0.0188106514719751 179.020550430585 0.0188106514719751 179.020550430585 0.929004228734719 157.258916817345 
16                             0.924240439555437 154.30173725548  0.0203585190989134 178.424615823037 0.0203585190989135 178.424615823037 0.925992633322214 155.834761492156 
16.05                          0.920875047814219 152.823754431911 0.022091199558466 177.73965558381  0.022091199558466 177.739655583809 0.922730760028573 154.375447111225 
16.1                           0.91721678332032 151.306723047775 0.0240352008391323 176.957729343214 0.0240352008391323 176.957729343214 0.919187069480719 152.878360010267 
16.15                          0.913227192125149 149.74763267154  0.0262214973953051 176.070282868106 0.0262214973953052 176.070282868106 0.915324759342552 151.34062851152  
16.2                           0.908861171348479 148.143171926756 0.0286863908479168 175.068018810802 0.0286863908479168 175.068018810802 0.911100690710616 149.759098279342 
16.25                          0.904065574616512 146.48970190303  0.031472550227919 173.940739861517 0.031472550227919 173.940739861517 0.906464064094005 148.130308406789 
16.3                           0.89877748739299 144.78323238043  0.0346302683093346 172.677159735985 0.0346302683093346 172.677159735985 0.901354783377265 146.450470618234 
16.35                          0.892922092203209 143.019404945817 0.0382189754901944 171.264676697185 0.0382189754901944 171.264676697185 0.895701432732775 144.715455601857 
16.4                           0.88641002849208 141.19348978072  0.0423090558457945 169.689103648969 0.0423090558457945 169.689103648969 0.88941877749811 142.920793088543 
16.45                          0.879134138626199 139.300407230337 0.0469840088038  167.934348475454 0.0469840088038  167.934348475454 0.882404688320445 141.061696443746 
16.5                           0.870965486490236 137.334792194624 0.0523429896138768 165.982038657458 0.0523429896138768 165.982038657458 0.874536384409846 139.133129145892 
16.55                          0.861748550815176 135.291130461894 0.0585037339468748 163.81108604356  0.0585037339468748 163.81108604356  0.865665908756683 137.129941022914 
16.6                           0.851295556368116 133.164013767421 0.0656058119530535 161.39719233769  0.0656058119530535 161.39719233769  0.855614809387858 135.04711873967  
16.65                          0.839380058723261 130.948588362918 0.0738140404822213 158.712305693213 0.0738140404822213 158.712305693213 0.844168150679448 132.880221165324 
16.7                           0.825730226932644 128.641315820503 0.0833216696060904 155.724057589824 0.0833216696060904 155.724057589824 0.831068298177504 130.626110827799 
16.75                          0.810022921050915 126.24123241475  0.0943525916191764 152.395242947897 0.0943525916191764 152.395242947897 0.816009550090777 128.284154220294 
16.8                           0.791880883792348 123.751993868985 0.107161216497374 148.683464096727 0.107161216497374 148.683464096727 0.798635860266963 125.858153231288 
16.85                          0.770877529618008 121.185131685702 0.122027730522259 144.541152260812 0.122027730522259 144.541152260812 0.778545956837347 123.359389815732 
16.9                           0.746557388502046 118.565114511189 0.139245172971792 139.916319487539 0.139245172971793 139.916319487539 0.755313528970885 120.811298930051 
16.95                          0.718485569182917 115.936935141102 0.159093317169643 134.754578546426 0.159093317169644 134.754578546426 0.728535076261626 118.256354876397 
17                             0.686346030610105 113.376811794688 0.18179347383252 129.00315915975  0.18179347383252 129.00315915975  0.697923760432897 115.765541155214 
17.05                          0.650112493751336 111.00563458207  0.207439862747036 122.61771971379  0.207439862747037 122.61771971379  0.663470569718493 113.449737915495 
17.1                           0.610307588347929 109.001782271775 0.235910282068572 115.572434126431 0.235910282068572 115.572434126431 0.625684562312806 111.469444700546 
17.15                          0.568325437616075 107.602902220733 0.266774634130131 107.872727464364 0.266774634130132 107.872727464364 0.585883320083879 110.033016019651 
17.2                           0.52669519307185 107.074222992622 0.299242662195843 99.5679002615641 0.299242662195844 99.5679002615641 0.546412487875307 109.364209208984 
17.25                          0.489012472556251 107.612194951018 0.332207327593287 90.758321578064  0.332207327593288 90.758321578064  0.510543651622006 109.616084971814 
17.3                           0.459186958254468 109.179781339993 0.364420303063544 81.5909412893821 0.364420303063545 81.590941289382  0.481759896759283 110.736556448385 
17.35                          0.439959207723622 111.372559986433 0.394767301984751 72.2401322548482 0.394767301984752 72.2401322548482 0.462445084247752 112.371468609325 
17.4                           0.431461749752145 113.502627679067 0.422532020604856 62.8781618588105 0.422532020604857 62.8781618588105 0.452675652995442 113.94272251983  
17.45                          0.431051512934622 114.918236408102 0.447524802593246 53.645992729145  0.447524802593246 53.6459927291449 0.450104095628278 114.901170550276 
17.5                           0.434605721015369 115.277296835338 0.470031392291675 44.6349471639627 0.470031392291675 44.6349471639627 0.451053052172467 114.943109217246 
17.55                          0.438114060598874 114.565556282656 0.490638456740341 35.8832051413475 0.490638456740341 35.8832051413475 0.451877249183144 114.0345296267   
17.6                           0.438556962986032 112.957511647867 0.51003278512627 27.3839433329649 0.510032785126271 27.3839433329649 0.449757139159038 112.307909575972 
17.65                          0.43402929071937 110.687320238273 0.528842796205234 19.0988977293824 0.528842796205235 19.0988977293824 0.442850161721516 109.957503174262 
17.7                           0.423513264759832 107.987069046097 0.547542342178488 10.972202901026  0.547542342178489 10.972202901026  0.43011739518188 107.184729802243 
17.75                          0.40661467534608 105.077363604302 0.566405783794455 2.94192311974761 0.566405783794456 2.94192311974761 0.411098885738479 104.18749563464  
17.8                           0.383392492174198 102.186656829998 0.585495719485374 -5.05126236155531 0.585495719485374 -5.05126236155534 0.38576256449026 101.176543443522 
17.85                          0.354308733628211 99.5879734315283 0.604670260874952 -13.0577857425329 0.604670260874953 -13.0577857425329 0.354458865530472 98.4106392967996 
17.9                           0.320295121491521 97.6532660362896 0.623605243528959 -21.1147453920371 0.623605243528959 -21.1147453920371 0.317983140241423 96.2537954784123 
17.95                          0.282941664099068 96.9315782952173 0.641832813631981 -29.2429691736202 0.641832813631981 -29.2429691736203 0.277758335420988 95.2685131379846 
18                             0.244838964720249 98.2453265462353 0.658799232378213 -37.4456253765404 0.658799232378213 -37.4456253765404 0.236194207238467 96.3620727278468 
18.05                          0.210096979466479 102.708295067488 0.673941026960852 -45.708656001833 0.673941026960851 -45.708656001833 0.197338918694662 100.93561904319  
18.1                           0.184732236106148 111.249146029247 0.686771121608986 -54.0032792714554 0.686771121608987 -54.0032792714554 0.16773851332196 110.565294581205 
18.15                          0.175379125044613 123.029854587099 0.696958906039684 -62.2904804887638 0.696958906039684 -62.2904804887637 0.155739949397426 124.873033928528 
18.2                           0.184740939538313 134.477686653963 0.704385258260616 -70.5268988666554 0.704385258260616 -70.5268988666554 0.165564865185644 139.128857654788 
18.25                          0.208769480906926 142.291180470419 0.709158580338358 -78.6710722230597 0.709158580338358 -78.6710722230596 0.192242571913496 148.625654283402 
18.3                           0.24057552851658 145.966647791402 0.711589550962485 -86.6888731441034 0.711589550962484 -86.6888731441033 0.227235338527178 152.999236437698 
18.35                          0.274606222157977 146.495821933062 0.71213481175211 -94.5572448409414 0.71213481175211 -94.5572448409414 0.264258982002706 153.80411941683  
18.4                           0.307397224086057 144.926159255726 0.711327048818601 -102.26588284179 0.711327048818601 -102.26588284179 0.2997251896428  152.404065232823 
18.45                          0.336988681821961 141.992102285319 0.709708531322454 -109.817051855621 0.709708531322455 -109.817051855621 0.33173379045639 149.661879240573 
18.5                           0.362350762869362 138.155214184441 0.707779257098675 -117.224071019245 0.707779257098675 -117.224071019245 0.359343877632538 146.08801886619  
18.55                          0.383014710940055 133.695416204299 0.705963535665751 -124.509088739114 0.705963535665751 -124.509088739114 0.382167364112557 141.982968440656 
18.6                           0.398849946329036 128.778325373594 0.704593277786439 -131.700667506254 0.704593277786438 -131.700667506254 0.400141182211258 137.524373262434 
18.65                          0.409929582145422 123.497436743762 0.703903541536833 -138.831518453249 0.703903541536832 -138.831518453249 0.413394639719636 132.816663850538 
18.7                           0.416451050660113 117.899617006257 0.704035523157729 -145.936551482712 0.704035523157728 -145.936551482712 0.422171937716953 127.919412661394 
18.75                          0.418693173693007 112.000443849825 0.705043139848686 -153.051282119358 0.705043139848686 -153.051282119358 0.426789580110615 122.8638076562   
18.8                           0.416998459205383 105.793395373042 0.706900733779647 -160.210568334326 0.706900733779646 -160.210568334326 0.4276169663953  117.662226352057 
18.85                          0.4117733018653  99.2552474538797 0.709510694216453 -167.447628954693 0.709510694216452 -167.447628954693 0.425072431423044 112.313506750581 
18.9                           0.403500894243128 92.3491336838503 0.712710709472892 -174.79330414603 0.712710709472891 -174.79330414603 0.419628981623044 106.80524015509  
18.95                          0.392762740758216 85.0263345559483 0.716280849631451 177.724457379998 0.71628084963145 177.724457379998 0.411824995216776 101.113738764046 
19                             0.380264976995107 77.2278837475539 0.719950739670263 170.080874103862 0.719950739670263 170.080874103862 0.402275739421396 95.2020353763103 
19.05                          0.366865263092524 68.8874881936607 0.723406742772207 162.254346157585 0.723406742772206 162.254346157585 0.391682179437735 89.0163110595795 
19.1                           0.353594636426193 59.937986061738  0.726298430742851 154.226195438052 0.726298430742851 154.226195438052 0.380834696828267 82.4815825996075 
19.15                          0.341665960070578 50.3241988270156 0.72824288795084 145.980166290891 0.72824288795084 145.980166290891 0.370611310390765 75.4983964715875 
19.2                           0.332456389886983 40.0243289646595 0.728824957874085 137.501812982394 0.728824957874086 137.501812982393 0.36197243690773 67.9435985925955 
19.25                          0.327447505563875 29.0778130417797 0.727591935726187 128.778030515215 0.727591935726187 128.778030515215 0.35595538267419 59.679460506159  
19.3                           0.328109520592546 17.6085887645352 0.724043037330035 119.797133399147 0.724043037330035 119.797133399147 0.353668210262028 50.5752598081192 
19.35                          0.335733365340567 5.82428253920236 0.71761768314158 110.550007375086 0.71761768314158 110.550007375086 0.35627118363734 40.5418881326471 
19.4                           0.351243516793869 -6.02254090751785 0.707692131258917 101.032874023137 0.707692131258916 101.032874023137 0.364917260397794 29.5720032015733 
19.45                          0.37504055337964 -17.6988190266236 0.693599936985181 91.252002438991  0.693599936985179 91.2520024389909 0.380615922181941 17.768539445644  
19.5                           0.406903741812329 -29.0441859070365 0.67469457121984 81.2301436879395 0.674694571219839 81.2301436879394 0.404009451261892 5.34231075308251 
19.55                          0.445953294184614 -39.9831067522304 0.650466213130008 71.0134964494528 0.650466213130006 71.0134964494528 0.435111792242408 -7.42623649943839 
19.6                           0.490673321870603 -50.4984786617288 0.620703277419096 60.67685082116   0.620703277419095 60.67685082116   0.473119707671171 -20.2427164129161 
19.65                          0.539024610299651 -60.5921786144437 0.585654693449737 50.3238715860195 0.585654693449737 50.3238715860195 0.516409044283798 -32.8440901736988 
19.7                           0.588677502078377 -70.2563547556951 0.546120230403188 40.0802199846917 0.546120230403188 40.0802199846916 0.562759823045079 -45.0196060940102 
19.75                          0.637341464576071 -79.4645734631496 0.503403664675555 30.0797718110022 0.503403664675556 30.0797718110022 0.609750541133058 -56.6129345543727 
19.8                           0.683098100553085 -88.1788860976001 0.459120102604483 20.447485521941  0.459120102604484 20.4474855219409 0.65518388333613 -67.5173852848531 
19.85                          0.724624990444441 -96.3632690909637 0.414922862257238 11.2842903428355 0.414922862257239 11.2842903428354 0.697399421271358 -77.6707140617572 
19.9                           0.761250880371755 -103.995007528287 0.372251557232847 2.65829367453696 0.372251557232848 2.65829367453683 0.735396480267565 -87.0498652194816 
19.95                          0.792863840113494 -111.070026428919 0.33217749135585 -5.39648860180618 0.332177491355851 -5.39648860180648 0.768782854396245 -95.6643221155374 
20                             0.81974370964628 -117.60237809323 0.295363902899383 -12.8755814552331 0.295363902899384 -12.8755814552334 0.797623248228619 -103.547964634367 
20.05                          0.842389599423325 -123.620198820661 0.262111740540693 -19.7966141232301 0.262111740540694 -19.7966141232305 0.822265579730073 -110.750576401972 
20.1                           0.861383837155472 -129.160561419546 0.232446504899142 -26.191566890718 0.232446504899142 -26.1915668907184 0.843194685687385 -117.330310002688 
20.15                          0.877303514129169 -134.26480597334 0.20621034884942 -32.1002105454841 0.20621034884942 -32.1002105454845 0.860930845123085 -123.347872525693 
20.2                           0.890672934704527 -138.975017433087 0.183139853846457 -37.5652632669082 0.183139853846457 -37.5652632669087 0.875970061347667 -128.862564904312 
20.25                          0.901944448840873 -143.331713883989 0.162923214880754 -42.6291829011667 0.162923214880754 -42.6291829011672 0.888755092739431 -133.929911965559 
20.3                           0.911496100511307 -147.372529981746 0.145238104756107 -47.3322569752922 0.145238104756107 -47.3322569752925 0.899665894620144 -138.600476592031 
20.35                          0.919637764702539 -151.131611817219 0.129774404665807 -51.7116134896172 0.129774404665807 -51.7116134896175 0.909020787369159 -142.919466652287 
20.4                           0.926620621819318 -154.63947128596 0.116246299567289 -55.8008330858789 0.116246299567289 -55.8008330858792 0.917082674087988 -146.926824622489 
20.45                          0.932647153890985 -157.923110614223 0.104397469943477 -59.6299259721649 0.104397469943477 -59.6299259721651 0.924066998198062 -150.65758088619 
20.5                           0.937880323228754 -161.006288220819 0.0940021067125969 -63.2255123725584 0.0940021067125966 -63.2255123725585 0.930149707937548 -154.142328220485 
20.55                          0.94245143205335 -163.909844471686 0.0848635900426666 -66.6111031602291 0.0848635900426664 -66.6111031602292 0.935474438923277 -157.40773106007 
20.6                           0.946466591839089 -166.652039147177 0.076812004156949 -69.8074178590913 0.0768120041569489 -69.8074178590914 0.940158644893197 -160.477020925845 
20.65                          0.95001192538615 -169.248874223577 0.0697011971297242 -72.8327039221172 0.0697011971297242 -72.8327039221172 0.944298667372584 -163.370453372575 
20.7                           0.95315769293372 -171.714389098436 0.0634057915364916 -75.703038049878 0.0634057915364916 -75.703038049878 0.947973849954345 -166.105716237764 
20.75                          0.955961540291527 -174.060923395256 0.0578183616712676 -78.4326005434   0.0578183616712675 -78.4326005434   0.951249841065642 -168.698287198269 
20.8                           0.958471047099483 -176.299346970651 0.0528468781858942 -81.0339196518611 0.0528468781858943 -81.033919651861 0.954181229945545 -171.161743007368 
20.85                          0.96072572485401 -178.439259077425 0.0484124543602918 -83.518086184193 0.0484124543602918 -83.5180861841929 0.956813645430289 -173.508024842816 
20.9                           0.962758585700071 179.510840308985 0.0444473914917926 -85.894940351401 0.0444473914917927 -85.8949403514008 0.959185426946399 -175.747664928197 
20.95                          0.964597377640893 177.54340366448  0.0408935022311003 -88.1732335560029 0.0408935022311004 -88.1732335560028 0.96132895701729 -177.889979598561 
21                             0.966265560766678 175.651710316251 0.0377006826096337 -90.3607680561012 0.0377006826096338 -90.3607680561011 0.963271726744087 -179.943233625901 
21.05                          0.967783082237664 173.829759048348 0.0348257013858663 -92.4645173523758 0.0348257013858665 -92.4645173523757 0.965037190764816 178.08521989182  
21.1                           0.969166994529732 172.072176225207 0.0322311764031278 -94.4907299237772 0.032231176403128 -94.490729923777 0.966645456067131 176.188820327499 
21.15                          0.970431951209979 170.374137094047 0.029884710255944 -96.4450186567899 0.0298847102559441 -96.4450186567899 0.968113839386549 174.361697790964 
21.2                           0.971590606640122 168.731298259105 0.0277581607646085 -98.332438021056 0.0277581607646086 -98.3324380210559 0.969457320346175 172.598586133854 
21.25                          0.972653939981761 167.139739621155 0.0258270250397169 -100.157550765671 0.025827025039717 -100.157550765671 0.970688911583468 170.894748390781 
21.3                           0.973631519272897 165.59591433955  0.0240699190124615 -101.924485657249 0.0240699190124617 -101.924485657249 0.971819962515171 169.24591272277  
21.35                          0.974531717824276 164.096605601146 0.0224681370910344 -103.636987557119 0.0224681370910345 -103.636987557119 0.972860409824948 167.648217242096 
21.4                           0.975361892487566 162.63888917363  0.0210052790391928 -105.298460940851 0.021005279039193 -105.298460940851 0.973818984988796 166.098162361197 
21.45                          0.976128531277003 161.220100883713 0.0196669332647224 -106.912007796855 0.0196669332647225 -106.912007796855 0.974703386999746 164.592569529036 
21.5                           0.976837376231433 159.837808297415 0.0184404074798464 -108.48046069912 0.0184404074798465 -108.48046069912 0.975520426774803 163.128545402324 
21.55                          0.97749352617086 158.489785994074 0.017314499188369 -110.006411729196 0.0173144991883691 -110.006411729196 0.976276148415109 161.703450652269 
21.6                           0.978101523044744 157.173993921309 0.0162792997032299 -111.49223782122 0.01627929970323 -111.49223782122 0.976975931461366 160.314872734968 
21.65                          0.978665424823374 155.888558397961 0.0153260264392796 -112.940123018385 0.0153260264392796 -112.940123018385 0.977624577476626 158.960602059634 
21.7                           0.979188867299707 154.631755398712 0.0144468790921081 -114.352078057231 0.0144468790921082 -114.352078057231 0.978226383648662 157.63861107715  
21.75                          0.97967511670975 153.401995809765 0.0136349160332653 -115.729957635411 0.0136349160332654 -115.729957635412 0.978785205596441 156.347035885035 
21.8                           0.980127114716679 152.197812391628 0.012883947849762 -117.075475667337 0.0128839478497621 -117.075475667337 0.979304511160834 155.084160006342 
21.85                          0.980547517015858 151.017848224139 0.012188445452085 -118.39021878874 0.012188445452085 -118.390218788739 0.97978742663631 153.848400051442 
21.9                           0.980938726588272 149.860846441682 0.011543460587505 -119.675658334489 0.011543460587505 -119.675658334489 0.980236776640537 152.638293014658 
21.95                          0.981302922445894 148.725641094221 0.0109445569386719 -120.93316098283 0.0109445569386719 -120.933160982831 0.980655118609405 151.452484993945 
22                             0.981642084564523 147.611148993059 0.0103877502733913 -122.163998232691 0.0103877502733913 -122.163998232691 0.981044772735327 150.2897211522   
22.05                          0.981958015579988 146.516362419958 0.00986945634996128 -123.369354858132 0.00986945634996126 -123.369354858132 0.98140784802881 149.148836764534 
22.1                           0.982252359726525 145.440342594958 0.00938644548170268 -124.550336464686 0.00938644548170264 -124.550336464686 0.981746265070749 148.028749217501 
22.15                          0.982526619417016 144.3822138124   0.00893580283107287 -125.707976255798 0.00893580283107285 -125.707976255799 0.982061775930691 146.928450844742 
22.2                           0.982782169799981 143.341158166758 0.00851489364356111 -126.843241103411 0.00851489364356109 -126.843241103411 0.982355981650512 145.847002499128 
22.25                          0.98302027157499 142.316410800196 0.00812133274899579 -127.957037004502 0.00812133274899576 -127.957037004502 0.982630347630329 144.783527774808 
22.3                           0.983242082304259 141.307255612544 0.0077529577567151 -129.050213994928 0.00775295775671507 -129.050213994928 0.982886217201663 143.737207803966 
22.35                          0.9834486664218  140.313021382011 0.00740780545437447 -130.12357058278 0.0074078054543744 -130.12357058278 0.983124823629746 142.707276562806 
22.4                           0.983641004111275 139.333078251387 0.00708409099054882 -131.177857755698 0.00708409099054877 -131.177857755698 0.983347300750912 141.693016629654 
22.45                          0.983819999198475 138.366834540135 0.00678018948086558 -132.213782609731 0.00678018948086553 -132.213782609731 0.983554692420963 140.693755345237 
22.5                           0.983986486183225 137.413733847567 0.00649461972792666 -133.232011641476 0.00649461972792663 -133.232011641476 0.983747960925107 139.708861331385 
22.55                          0.984141236517775 136.473252416515 0.00622602978820592 -134.233173740121 0.00622602978820588 -134.23317374012 0.983927994478798 138.737741329743 
22.6                           0.984284964223802 135.544896730491 0.00597318415565566 -135.217862911546 0.00597318415565563 -135.217862911546 0.984095613930889 137.779837326714 
22.65                          0.984418330927468 134.628201320524 0.0057349523629265 -136.186640762805 0.00573495236292649 -136.186640762805 0.984251578765205 136.834623934842 
22.7                           0.984541950381306 133.722726760573 0.00551029882774329 -137.140038771894 0.00551029882774325 -137.140038771893 0.984396592483802 135.901606004344 
22.75                          0.984656392532551 132.828057832826 0.0052982737947845 -138.078560364831 0.00529827379478447 -138.078560364831 0.984531307444084 134.980316441536 
22.8                           0.984762187189763 131.943801846271 0.00509800524297457 -139.002682819462 0.00509800524297454 -139.002682819462 0.984656329212586 134.070314213515 
22.85                          0.984859827332954 131.069587093771 0.0049086916449058 -139.912859013176 0.00490869164490578 -139.912859013176 0.984772220490169 133.171182520819 
22.9                           0.984949772106671 130.205061434488 0.00472959547957651 -140.809519029777 0.00472959547957649 -140.809519029777 0.984879504656405 132.282527121771 
22.95                          0.985032449530642 129.349890989881 0.00456003741210842 -141.693071639003 0.00456003741210841 -141.693071639003 0.984978668975064 131.403974794006 
23                             0.985108258958316 128.503758942799 0.00439939106488511 -142.563905660731 0.00439939106488511 -142.563905660731 0.985070167497371 130.535171920259 
