! Touchstone file exported from HFSS 3D Layout Design 2026.1.0
!        File:           D:/Work/SIM/ADS_AUTO_SIM/projects/RFSOC_RF/TX_Fillter.aedt
!        Generated:      12:38:11 AM Aug 31, 2026
!        Design:         TX_BAND1_MCFIL_R13_CNN032
!        Project:        TX_Fillter
!
# GHz S MA R 50.000000
! Terminal data exported
! Port[1] = Port1
! Port[2] = Port2
14                             0.970283184436369 -173.899673807912 0.00413579677861974 179.191652348477 0.00413579677861975 179.191652348478 0.972276097445973 -165.283929274052 
14.05                          0.969732945248109 -174.823189267111 0.00421948147884256 178.758840491996 0.00421948147884261 178.758840491996 0.971757840162757 -166.172913764819 
14.1                           0.969165730764651 -175.753498722432 0.00430710883945488 178.34292086344  0.00430710883945496 178.34292086344  0.971223452781968 -167.068393836033 
14.15                          0.96858074505829 -176.690819186232 0.00439897446873898 177.944108043172 0.00439897446873908 177.944108043172 0.970672167262402 -167.970570990575 
14.2                           0.967977142520671 -177.635378397998 0.0044954013040418 177.562573983704 0.0044954013040419 177.562573983704 0.970103166585969 -168.879656817408 
14.25                          0.967354023989377 -178.587415484061 0.00459674243692113 177.19844160078  0.00459674243692123 177.198441600782 0.969515580846724 -169.795873627292 
14.3                           0.96671043251051 -179.54718166679 0.00470338425146837 176.851777824599 0.00470338425146849 176.8517778246   0.968908482963234 -170.719455137431 
14.35                          0.966045348697007 179.485058972281 0.00481574991243201 176.522586110658 0.00481574991243214 176.52258611066  0.968280883971629 -171.650647209574 
14.4                           0.965357685637347 178.509028670501 0.00493430324437521 176.210798419812 0.00493430324437537 176.210798419813 0.967631727851123 -172.58970864656 
14.45                          0.964646283303387 177.524435097898 0.00505955304837565 175.916266688999 0.00505955304837582 175.916266689001 0.966959885827408 -173.536912052863 
14.5                           0.963909902399359 176.530970400721 0.00519205790883145 175.638753827926 0.00519205790883164 175.638753827927 0.966264150091975 -174.492544765276 
14.55                          0.963147217586277 175.528310168088 0.00533243154991426 175.377924292524 0.00533243154991444 175.377924292524 0.965543226866925 -175.456909860592 
14.6                           0.962356810007116 174.516112314329 0.00548134880927664 175.133334303174 0.00548134880927682 175.133334303174 0.964795728735096 -176.430327247907 
14.65                          0.961537159027794 173.494015868862 0.00563955230597969 174.904421794049 0.00563955230597988 174.90442179405  0.964020166143953 -177.413134854029 
14.7                           0.960686633097087 172.461639664426 0.00580785989050054 174.690496199056 0.00580785989050074 174.690496199056 0.963214937978581 -178.405689911497 
14.75                          0.95980347961481 171.418580913535 0.00598717297739961 174.49072819896  0.00598717297739979 174.490728198961 0.962378321083872 -179.408370359818 
14.8                           0.958885813681516 170.364413661789 0.00617848587612581 174.304139572613 0.00617848587612597 174.304139572613 0.96150845859813 179.578423628193 
14.85                          0.957931605584333 169.298687105372 0.00638289625293147 174.129593311451 0.00638289625293162 174.129593311451 0.960603346939634 178.554267981651 
14.9                           0.956938666851691 168.220923758558 0.00660161687745729 173.965784169667 0.00660161687745743 173.965784169667 0.959660821263272 177.518712913443 
14.95                          0.955904634684239 167.130617455354 0.00683598883182955 173.811229830915 0.00683598883182974 173.811229830915 0.958678539175867 176.471280931851 
15                             0.954826954539263 166.027231167472 0.00708749638879447 173.664262874925 0.00708749638879463 173.664262874926 0.957653962465185 175.411464663001 
15.05                          0.953702860610781 164.910194618654 0.0073577837993455 173.523023722313 0.00735778379934563 173.523023722313 0.956584336558005 174.338724462767 
15.1                           0.952529353905966 163.778901672889 0.00764867427048397 173.385454721858 0.0076486742704841 173.385454721858 0.955466667375729 173.252485793988 
15.15                          0.951303177569539 162.632707471248 0.00796219146138738 173.249295520494 0.0079621914613875 173.249295520494 0.954297695200489 172.152136341711 
15.2                           0.950020789049668 161.470925288886 0.00830058388277378 173.112079821266 0.00830058388277389 173.112079821266 0.95307386509857 171.037022835559 
15.25                          0.948678328629854 160.292823080117 0.00866635265134348 172.971133588401 0.00866635265134358 172.971133588401 0.951791293369238 169.906447544189 
15.3                           0.947271583769033 159.097619675396 0.00906228313089538 172.823574701471 0.00906228313089546 172.823574701471 0.950445729392856 168.759664402114 
15.35                          0.945795948593826 157.884480589331 0.00949148108648919 172.666313993381 0.00949148108648924 172.666313993381 0.949032512139254 167.595874723738 
15.4                           0.944246377769107 156.652513393638 0.00995741409080727 172.496057531015 0.00995741409080731 172.496057531016 0.947546520461564 166.414222453309 
15.45                          0.942617333831594 155.40076260295  0.0104639590561889 172.309309914963 0.010463959056189 172.309309914963 0.945982116137031 165.213788892448 
15.5                           0.940902726900686 154.128204014721 0.0110154569259505 172.102378288391 0.0110154569259506 172.102378288391 0.944333078418347 163.993586838917 
15.55                          0.939095845474877 152.833738436974 0.0116167757497296 171.871376657677 0.0116167757497296 171.871376657677 0.942592528619035 162.752554061159 
15.6                           0.937189276772619 151.516184729265 0.0122733835959473 171.612230041776 0.0122733835959473 171.612230041777 0.940752842964473 161.489546022889 
15.65                          0.935174814773561 150.174272073098 0.0129914330276172 171.320677886145 0.0129914330276172 171.320677886145 0.938805551584167 160.203327760423 
15.7                           0.933043353747208 148.806631377996 0.0137778591947225 170.992276102455 0.0137778591947225 170.992276102455 0.936741221085633 158.892564802561 
15.75                          0.930784764605883 147.411785718828 0.0146404939881348 170.622397028618 0.0146404939881348 170.622397028618 0.934549317616661 157.555813008681 
15.8                           0.928387750868266 145.988139688962 0.015588199169529 170.206226544993 0.015588199169529 170.206226544993 0.932218046667126 156.191507185351 
15.85                          0.925839680345231 144.533967542989 0.0166310219542563 169.738757531135 0.0166310219542563 169.738757531135 0.929734165054217 154.797948325692 
15.9                           0.923126387831934 143.047399992941 0.0177803771974294 169.214778800695 0.0177803771974294 169.214778800695 0.92708275953909 153.37328929948  
15.95                          0.920231943073704 141.526409514551 0.0190492611377584 168.628858606797 0.0190492611377584 168.628858606797 0.924246985292883 151.915518806829 
16                             0.91713837702488 139.96879401749  0.0204525026111378 167.975321761743 0.0204525026111378 167.975321761744 0.921207755909476 150.422443396191 
16.05                          0.913825357887819 138.372158739003 0.0220070587797526 167.24821935823  0.0220070587797525 167.24821935823  0.917943374782954 148.891667341577 
16.1                           0.91026980654364 136.733896239613 0.0237323637542601 166.441290008858 0.0237323637542601 166.441290008858 0.914429095347389 147.320570179443 
16.15                          0.906445438699125 135.051164420599 0.0256507400324855 165.547911431723 0.0256507400324855 165.547911431723 0.910636594819542 145.70628173071  
16.2                           0.902322218304184 133.32086255866  0.0277878844407918 164.561041098554 0.0277878844407918 164.561041098554 0.906533342584117 144.045654490358 
16.25                          0.897865703475199 131.5396054827   0.0301734422201096 163.473144527338 0.0301734422201096 163.473144527338 0.90208184010446 142.335233375555 
16.3                           0.893036262248448 129.703696230335 0.0328416849752454 162.276109647367 0.0328416849752453 162.276109647367 0.897238704129219 140.571223013376 
16.35                          0.887788130999685 127.809097862037 0.0358323102459656 160.961145502723 0.0358323102459656 160.961145502723 0.891953558942999 138.749453067433 
16.4                           0.88206828343644 125.851405646222 0.0391913821591365 159.518663414807 0.0391913821591365 159.518663414807 0.886167696530283 136.865342620836 
16.45                          0.875815073067966 123.82582166148  0.0429724334395678 157.938138640598 0.0429724334395677 157.938138640599 0.879812456066583 134.913865461407 
16.5                           0.868956607782004 121.727135147421 0.0472377480565132 156.207950618967 0.0472377480565132 156.207950618967 0.872807266831313 132.889519424197 
16.55                          0.8614088131713  119.549713907291 0.0520598393948504 154.315200222895 0.0520598393948504 154.315200222895 0.865057292963086 130.786304998167 
16.6                           0.853073144450371 117.287515075194 0.057523128500941 152.245503243555 0.057523128500941 152.245503243555 0.856450617379591 128.597721600635 
16.65                          0.843833920345526 114.934128132406 0.0637258065637918 149.982760962006 0.0637258065637918 149.982760962005 0.846854911058275 126.316794880265 
16.7                           0.833555285161906 112.482869961319 0.0707818289543818 147.508911646372 0.0707818289543816 147.508911646373 0.83611356230286 123.936156062121 
16.75                          0.822077872375227 109.926962069834 0.0788229251687299 144.803671956752 0.07882292516873 144.803671956752 0.824041305096834 121.448206102217 
16.8                           0.809215369147692 107.259835438896 0.0880004058215341 141.844285743119 0.0880004058215341 141.844285743119 0.810419513687347 118.845415349259 
16.85                          0.794751404789512 104.47563073453  0.0984863852263422 138.605311269415 0.0984863852263423 138.605311269415 0.794991566423262 116.12083649539  
16.9                           0.778437564910261 101.569993153656 0.11047379272192 135.05849868672  0.11047379272192 135.05849868672  0.777459093387469 113.268948908446 
16.95                          0.759993945036887 98.5413037450581 0.124174195743305 131.172840078599 0.124174195743306 131.172840078599 0.757480605814706 110.28701108969  
17                             0.739114591843002 95.3925419501528 0.139811997712302 126.914916471645 0.139811997712302 126.914916471645 0.734675080357489 107.177180346013 
17.05                          0.715481495725492 92.1340292888256 0.157613051464318 122.249718891567 0.157613051464319 122.249718891567 0.708634646606198 103.949767753417 
17.1                           0.688792415617856 88.7873360181042 0.177785309743772 117.142175581265 0.177785309743773 117.142175581265 0.678952598979979 100.628125979125 
17.15                          0.658809289356761 85.3905789097424 0.200489200355778 111.559651710132 0.200489200355779 111.559651710132 0.645275189193709 97.2557873259585 
17.2                           0.625434115733062 82.0050682502362 0.225796652518621 105.475653772018 0.225796652518622 105.475653772018 0.607387006754494 93.906493784071  
17.25                          0.588815607618734 78.7225363205012 0.253641040727887 98.8747925072836 0.253641040727888 98.8747925072835 0.565338011197387 90.6974837895669 
17.3                           0.549479020199838 75.6706347015782 0.283766407317779 91.7586512575065 0.283766407317779 91.7586512575065 0.519611929180419 87.8053576186474 
17.35                          0.508449999791435 73.0116687737561 0.315692308261362 84.1515492493564 0.315692308261362 84.1515492493564 0.471316862646949 85.4810229672772 
17.4                           0.467312210513702 70.9259093947111 0.348716509179388 76.1044481695724 0.348716509179388 76.1044481695724 0.42234742031132 84.053590600313  
17.45                          0.428110758179145 69.56884626238   0.381974458705055 67.6948762088342 0.381974458705055 67.6948762088342 0.37542458078027 83.8998039466921 
17.5                           0.393020548596289 68.9987867237218 0.41455642317508 59.0213293278211 0.414556423175079 59.0213293278212 0.333869653048663 85.3381051229616 
17.55                          0.363785634354025 69.0970774313466 0.445654770479007 50.1923795479588 0.445654770479006 50.1923795479589 0.300943951923438 88.4166504252119 
17.6                           0.341114573972817 69.5397873687745 0.474692537815976 41.3129913871226 0.474692537815976 41.3129913871228 0.27873275933992 92.6820896803342 
17.65                          0.324370428412621 69.8759073531115 0.501388383721615 32.4719240843334 0.501388383721614 32.4719240843336 0.267075382034531 97.2087125922243 
17.7                           0.311791247862627 69.683402194691  0.525742407349571 23.7335909615067 0.525742407349571 23.733590961507  0.263497025697491 101.035134679272 
17.75                          0.301107362152362 68.6946556198168 0.547961577320915 15.1357287746152 0.547961577320914 15.1357287746154 0.264375586695637 103.624511061653 
17.8                           0.290169749473509 66.8207241644538 0.568361060921901 6.69206072526143 0.568361060921901 6.69206072526158 0.26633815919078 104.935777748064 
17.85                          0.277318918888947 64.1004380421339 0.587273933880384 -1.60205927378641 0.587273933880384 -1.60205927378632 0.2669898790181  105.220329540218 
17.9                           0.261480877232177 60.634961079668  0.604986832839786 -9.76307698076118 0.604986832839787 -9.76307698076112 0.264987812045155 104.824405139312 
17.95                          0.242106633054758 56.5417155165514 0.621704966242983 -17.8131824233811 0.621704966242983 -17.8131824233811 0.259838154831184 104.091610636453 
18                             0.219062464022752 51.9315393965816 0.637541889304984 -25.7754904214844 0.637541889304984 -25.7754904214844 0.251669024620937 103.336063241611 
18.05                          0.192526208771413 46.9014167068438 0.652527025982008 -33.6706569391834 0.652527025982007 -33.6706569391835 0.241061982242685 102.843296621864 
18.1                           0.16290548818267 41.5353232792563 0.666624428839942 -41.5148515839396 0.666624428839941 -41.5148515839397 0.228941793851988 102.871723610892 
18.15                          0.130775210165564 35.9094422884543 0.679757527878778 -49.3188960767842 0.679757527878775 -49.3188960767842 0.216494076338452 103.637705181718 
18.2                           0.0968266236949734 30.1036812405894 0.691835626612972 -57.0883489889732 0.691835626612969 -57.0883489889732 0.205068261174646 105.272546396163 
18.25                          0.0618214881891675 24.2424984108968 0.702778548553843 -64.8243100826574 0.70277854855384 -64.8243100826574 0.196019346870702 107.752258596747 
18.3                           0.026549676978364 18.8404133294103 0.712536417668749 -72.5247103672803 0.712536417668746 -72.5247103672802 0.190464284493088 110.832927662124 
18.35                          0.00826128864213573 -173.482273114246 0.721102383070479 -80.1858485904299 0.721102383070476 -80.1858485904298 0.189003561153426 114.059832982781 
18.4                           0.0418016169210257 -176.181028051479 0.728517267023442 -87.8039436453553 0.72851726702344 -87.8039436453552 0.191550216707865 116.893185347356 
18.45                          0.0735193473407656 177.787881903491 0.734866460067058 -95.3765050565276 0.734866460067057 -95.3765050565275 0.197392298021452 118.88744959174  
18.5                           0.102880868424648 171.487373848939 0.740270585633569 -102.903380246863 0.740270585633569 -102.903380246863 0.205453937751856 119.800802647744 
18.55                          0.129493041248365 165.100303976026 0.7448722102084  -110.387407569404 0.7448722102084  -110.387407569404 0.214592150773802 119.587688017448 
18.6                           0.153091434130465 158.671259309681 0.748821051433977 -117.834673063368 0.748821051433978 -117.834673063368 0.223801739970478 118.326361909642 
18.65                          0.173536711248863 152.212105444081 0.752259805113926 -125.254423352596 0.752259805113927 -125.254423352597 0.232306552699209 116.145857670083 
18.7                           0.190807091263613 145.720124486392 0.755312076797196 -132.658720190917 0.755312076797197 -132.658720190918 0.239574494754796 113.179021606964 
18.75                          0.204989016439877 139.182886568563 0.758073193492848 -140.061934119824 0.758073193492848 -140.061934119824 0.245297472699469 109.539973573023 
18.8                           0.216268034978156 132.579714684801 0.760604053735994 -147.480170610793 0.760604053735993 -147.480170610793 0.249361794931496 105.316499223971 
18.85                          0.224921223506895 125.881861245068 0.762927723232917 -154.930708487113 0.762927723232915 -154.930708487113 0.251820771524717 100.569634848175 
18.9                           0.231311768015605 119.052051150559 0.765028192256796 -162.431512711656 0.765028192256793 -162.431512711656 0.252873407995167 95.3360620431442 
18.95                          0.235885752277012 112.043790146653 0.766850530808886 -170.000864539998 0.766850530808884 -170.000864539998 0.252849428947706 89.6314020422038 
19                             0.239170832883276 104.800950925693 0.76830155576204 -177.657131578659 0.768301555762038 -177.65713157866 0.252199336931301 83.453983810247  
19.05                          0.241776257788362 97.25843818067   0.769250034901818 174.58132362109  0.769250034901818 174.58132362109  0.251487535870456 76.7895137875389 
19.1                           0.244393410818381 89.3450696567812 0.769525416123935 166.696128253567 0.769525416123938 166.696128253568 0.251386011381278 69.617492712433  
19.15                          0.247795358832709 80.9899494890141 0.76891416261908 158.668848882866 0.768914162619087 158.668848882866 0.252665237216076 61.9201111482448 
19.2                           0.252832271401697 72.1331193477445 0.767153132752483 150.481027960281 0.767153132752495 150.481027960281 0.256177726250948 53.6934079377288 
19.25                          0.260416907453582 62.7396675021669 0.763920255088091 142.11448734207  0.763920255088107 142.11448734207  0.262828357424571 44.9585607194369 
19.3                           0.271491492389766 52.8137757546058 0.758824225210633 133.552135433698 0.758824225210652 133.552135433698 0.273525419143867 35.7690375124101 
19.35                          0.286966664249137 42.4067458202487 0.751397235640388 124.779548480412 0.75139723564041 124.779548480412 0.289108610576678 26.2089769920749 
19.4                           0.307627723767702 31.6135427501591 0.741097711742241 115.787569652769 0.741097711742263 115.787569652768 0.310255333320145 16.3815176800761 
19.45                          0.334013896198744 20.5574730650519 0.727332873237212 106.576024845871 0.727332873237231 106.57602484587  0.337372976191734 6.39178762321685 
19.5                           0.366289394638047 9.36963736148963 0.709511747101694 97.1583296295806 0.709511747101708 97.1583296295794 0.370491077629915 -3.66688658356331 
19.55                          0.404135940043084 -1.82721450210077 0.687134901101237 87.5662390711302 0.687134901101244 87.5662390711292 0.409174030265893 -13.7172013587025 
19.6                           0.446702091574612 -12.9247982255393 0.659914724539059 77.8533832300217 0.659914724539061 77.8533832300213 0.452482794068883 -23.6926929675538 
19.65                          0.492642186448658 -23.826983377962 0.627900473151297 68.0958526682523 0.627900473151297 68.0958526682528 0.499017094645032 -33.5287051005277 
19.7                           0.540260614821234 -34.4450774237641 0.591564348909566 58.3883990107376 0.591564348909568 58.3883990107393 0.547056557328219 -43.1559706416541 
19.75                          0.587742790248009 -44.6960516316516 0.551803877343821 48.8360460478667 0.551803877343831 48.8360460478697 0.594785530860008 -52.5004114175366 
19.8                           0.633415237449648 -54.5053402026105 0.509841748472575 39.5427006546844 0.509841748472596 39.5427006546884 0.640546206664331 -61.4887788694236 
19.85                          0.675959444280034 -63.8123507422202 0.467047552871327 30.5997234465023 0.46704755287136 30.5997234465069 0.683045725067978 -70.0569624646067 
19.9                           0.714523672151536 -72.575503040826 0.424739428957979 22.0774539260065 0.424739428958025 22.0774539260113 0.72146207136628 -78.1572259986959 
19.95                          0.748722038846951 -80.774465858091 0.384025671600171 14.0213613112082 0.384025671600227 14.0213613112124 0.755438575511722 -85.7619548093464 
20                             0.778551298031791 -88.4090424556196 0.345719632719819 6.45269823786485 0.345719632719881 6.45269823786786 0.784997727445259 -92.8634802456439 
20.05                          0.80427207294615 -95.4955760701275 0.310327393239951 -0.627730983793064 0.310327393240014 -0.627730983791786 0.810421002894173 -99.4710144427383 
20.1                           0.826293705244827 -102.06226338963 0.278085973122305 -7.23441816571358 0.278085973122366 -7.2344181657143 0.832133503180233 -105.606225421159 
20.15                          0.845083959372785 -108.14455623902 0.249025073580847 -13.3919975429437 0.249025073580902 -13.3919975429465 0.850614183012481 -111.298737398177 
20.2                           0.86110879290985 -113.781336280165 0.223031501528421 -19.1308813060226 0.223031501528469 -19.1308813060275 0.866336467466844 -116.582311351965 
20.25                          0.874798129157105 -119.012093133999 0.199904622283103 -24.4839615443849 0.199904622283143 -24.4839615443916 0.879734917237103 -121.491980519581 
20.3                           0.886530365595745 -123.875049432231 0.179398681657374 -29.4843360810425 0.179398681657405 -29.4843360810505 0.891190528363258 -126.062110903795 
20.35                          0.896628674392546 -128.406048535483 0.161252312809706 -34.1638717079586 0.161252312809729 -34.1638717079677 0.901027668063684 -130.325217720718 
20.4                           0.905363818982749 -132.637996224242 0.145207508682595 -38.5523871847633 0.145207508682611 -38.5523871847725 0.909517369316206 -134.311337284754 
20.45                          0.912959993301742 -136.600673741346 0.13102077464112 -42.677262646572 0.13102077464113 -42.677262646581 0.916883513316127 -138.047775731328 
20.5                           0.919601604387405 -140.3207818188  0.118468881387092 -46.5633248107119 0.118468881387098 -46.5633248107201 0.923309849750259 -141.559095836416 
20.55                          0.925439885548281 -143.822116360697 0.107351105867764 -50.2328997629356 0.107351105867766 -50.2328997629425 0.928946769524674 -144.867242912947 
20.6                           0.930598825052852 -147.125809700896 0.0974893191271674 -53.7059598674751 0.0974893191271681 -53.7059598674803 0.933917337431562 -147.991743331745 
20.65                          0.935180235450998 -150.250595782327 0.0887268460367985 -57.000317153804 0.0887268460367985 -57.0003171538074 0.938322427034555 -150.94993333255 
20.7                           0.939267965758138 -153.213074453504 0.0809266988056715 -60.1318335276863 0.0809266988056713 -60.1318335276878 0.942244972485918 -153.757192535247 
20.75                          0.942931339959531 -156.027961166303 0.0739695598900824 -63.1146301554462 0.0739695598900828 -63.1146301554459 0.945753429523822 -156.427167655388 
20.8                           0.946227933758117 -158.708315370579 0.0677517380385619 -65.9612861041565 0.0677517380385632 -65.9612861041546 0.948904563621463 -158.971978998952 
20.85                          0.949205803072594 -161.265745160672 0.062183222636818 -68.6830211640132 0.0621832226368203 -68.6830211640101 0.951745682881324 -161.402406652131 
20.9                           0.95190526717774 -163.710588195267 0.057185899463477 -71.2898607372868 0.0571858994634805 -71.2898607372826 0.954316421285233 -163.728055834566 
20.95                          0.954360334449274 -166.052070244718 0.052691953132996 -73.7907824416941 0.0526919531330005 -73.7907824416894 0.956650162044641 -165.957502299347 
21                             0.956599843379746 -168.29844335647 0.0486424593313737 -76.1938450981916 0.0486424593313791 -76.1938450981866 0.958775174867453 -168.098419373716 
21.05                          0.95864837764286 -170.457105852282 0.0449861576881104 -78.5063013400421 0.0449861576881163 -78.5063013400372 0.960715526646875 -170.157688522298 
21.1                           0.960527002126867 -172.534706359346 0.0416783899958704 -80.734695366073 0.0416783899958768 -80.7346953660686 0.962491812942398 -172.141495358343 
21.15                          0.962253857091599 -174.537233941433 0.0386801860526915 -82.8849474707406 0.0386801860526979 -82.8849474707369 0.964121747675137 -174.055412939219 
21.2                           0.963844639735162 -176.470096202477 0.0359574791154632 -84.9624269799645 0.0359574791154695 -84.9624269799615 0.965620640473808 -175.904474027693 
21.25                          0.965312996203733 -178.3381870226  0.0334804338518138 -86.9720151445658 0.0334804338518199 -86.9720151445639 0.967001784780578 -177.693233820504 
21.3                           0.96667084215242 179.854054622959 0.0312228711661792 -88.9181594198642 0.0312228711661848 -88.918159419863 0.96827677485412 -179.42582446311 
21.35                          0.967928626104786 178.102593506652 0.0291617759967321 -90.804920410861 0.0291617759967373 -90.8049204108608 0.969455765918878 178.893997503514 
21.4                           0.969095546841278 176.403753573644 0.0272768759243519 -92.6360126030012 0.0272768759243566 -92.6360126030016 0.970547688676083 177.262809775653 
21.45                          0.970179733690444 174.754179024511 0.0255502800876581 -94.4148398404913 0.0255502800876621 -94.4148398404924 0.97156042702711 175.677488150668 
21.5                           0.97118839675604 173.150800265723 0.0239661694019829 -96.144526365818 0.0239661694019863 -96.1445263658195 0.972500966015178 174.135174895588 
21.55                          0.972127952673052 171.590804053991 0.0225105304128239 -97.8279441005552 0.0225105304128266 -97.8279441005572 0.973375515550434 172.633250999767 
21.6                           0.973004130356955 170.071607259665 0.0211709262742305 -99.4677367312702 0.0211709262742327 -99.4677367312725 0.974189614355473 171.169311781564 
21.65                          0.973822060323343 168.590833758831 0.0199362993396055 -101.066341065773 0.0199362993396072 -101.066341065775 0.97494821768291 169.741145396313 
21.7                           0.974586350455794 167.146294035428 0.0187968007020253 -102.626006043173 0.0187968007020265 -102.626006043175 0.975655771659501 168.346713858728 
21.75                          0.975301150546775 165.735967135574 0.0177436427409299 -104.14880971442 0.0177436427409307 -104.148809714422 0.976316276560549 166.984136248775 
21.8                           0.975970207497404 164.357984667791 0.0167689713394718 -105.63667445609 0.0167689713394722 -105.636674456092 0.976933340881653 165.651673817552 
21.85                          0.976596912712241 163.010616586548 0.0158657549483003 -107.091380636911 0.0158657549483004 -107.091380636911 0.977510227727357 164.347716749969 
21.9                           0.97718434294561 161.692258533594 0.015027688101825 -108.514578921909 0.0150276881018248 -108.514578921909 0.97804989475861 163.070772375247 
21.95                          0.977735295631516 160.401420543008 0.0142491073548641 -109.907801371279 0.0142491073548636 -109.907801371278 0.978555028718277 161.819454645307 
22                             0.978252319548282 159.136716942643 0.0135249179120819 -111.27247146866 0.0135249179120813 -111.272471468658 0.979028075374625 160.59247472583  
22.05                          0.978737741522687 157.896857307403 0.012850529479071 -112.60991319527 0.0128505294790703 -112.609913195267 0.979471265577778 159.388632565848 
22.1                           0.979193689759476 156.680638339202 0.0122218000801995 -113.921359251346 0.0122218000801988 -113.921359251343 0.979886638006442 158.206809329666 
22.15                          0.979622114285152 155.486936565034 0.011634986770984 -115.207958513823 0.0116349867709832 -115.207958513819 0.980276059086378 157.04596059029  
22.2                           0.980024804915631 154.314701758766 0.0110867023272269 -116.470782808666 0.0110867023272261 -116.470782808661 0.980641240483633 155.905110196669 
22.25                          0.980403407092076 153.162951004427 0.0105738771240495 -117.710833067269 0.0105738771240486 -117.710833067264 0.980983754511198 154.783344738327 
22.3                           0.980759435875485 152.030763329226 0.0100937255290211 -118.929044928613 0.0100937255290203 -118.929044928607 0.981305047734611 153.679808540669 
22.35                          0.981094288346018 150.917274843504 0.00964371622802095 -120.126293842109 0.00964371622802013 -120.126293842103 0.981606453018174 152.593699132568 
22.4                           0.98140925461611 149.821674332607 0.00922154598287095 -121.3033997202  0.00922154598287019 -121.303399720193 0.981889200216944 151.524263135058 
22.45                          0.981705527635501 148.743199252349 0.00882511638836507 -122.461131184543 0.00882511638836431 -122.461131184536 0.982154425689288 150.47079252616  
22.5                           0.981984211940551 147.681132085537 0.00845251325491449 -123.600209445074 0.00845251325491382 -123.600209445066 0.982403180779363 149.432621242275 
22.55                          0.982246331478505 146.634797022101 0.00810198829316875 -124.721311847089 0.00810198829316813 -124.721311847081 0.982636439397599 148.409122081255 
22.6                           0.982492836619131 145.603556929687 0.00777194281994915 -125.825075117918 0.00777194281994863 -125.825075117911 0.982855104809256 147.399703876319 
22.65                          0.98272461045073 144.586810585458 0.0074609132417228 -126.912098341497 0.00746091324172231 -126.912098341491 0.983060015726027 146.403808913538 
22.7                           0.982942474444427 143.583990143101 0.00716755810356464 -127.982945686256 0.00716755810356425 -127.982945686249 0.983251951782768 145.420910568706 
22.75                          0.983147193559562 142.594558812022 0.00689064651886881 -129.038148909167 0.00689064651886847 -129.038148909162 0.983431638470554 144.45051114211  
22.8                           0.983339480853497 141.618008728188 0.00662904781862394 -130.078209656506 0.00662904781862366 -130.078209656501 0.983599751587938 143.492139872095 
22.85                          0.983520001651055 140.653858998375 0.00638172227941322 -131.103601579788 0.00638172227941304 -131.103601579784 0.983756921264354 142.545351110397 
22.9                           0.983689377321862 139.701653901491 0.0061477128068956 -132.11477228353 0.00614771280689548 -132.114772283527 0.983903735602787 141.609722644046 
22.95                          0.983848188707889 138.760961232429 0.0059261374667689 -133.112145119819 0.00592613746676882 -133.112145119818 0.984040743982954 140.684854150243 
23                             0.983996979238309 137.831370775381 0.00571618276843883 -134.09612084321 0.00571618276843883 -134.09612084321 0.984168460061248 139.770365772069 
