! Touchstone file exported from HFSS 3D Layout Design 2026.1.0
!        File:           D:/Work/ADS/HFSS_VERDICT/hfss_sma_connector_cpw.aedt
!        Generated:      02:44:25 PM Aug  6, 2026
!        Design:         SINGLE_END_SMA_CPW_30MM
!        Project:        hfss_sma_connector_cpw
!
! Variables:
!        $sma_Base_D = 6.25mm
!        $sma_Base_L = 8mm
!        $sma_Feet_L = 4mm
!        $sma_Feet_W = 1mm
!        $sma_Front_L = 1.5mm
!        $sma_Front_W = 6.5mm
!        $sma_Hole_D = 1.25mm
!        $sma_PTFE_D = 4.2mm
!        $sma_Pin_D = 0.95mm
!        $sma_Pin_P = 1.7mm
!
# GHz S MA R 50.000000
! Terminal data exported
! Port[1] = Port1
! Port[2] = S1_1_Pin_T1
0.5                            0.0631090914585814 -131.562846139673 0.988007031225626 -41.7629281221833 0.988007031225626 -41.7629281221833 0.0634058934285656 -134.009893089825 
0.6                            0.0735300345693762 -139.931256865301 0.985734654317488 -50.0203618518639 0.98573465431748 -50.0203618518635 0.0737997894736139 -142.674081593186 
0.7                            0.0829418314361069 -148.268358329086 0.983490736492817 -58.2599966743794 0.98349073649281 -58.2599966743788 0.0831414645239879 -151.184200764382 
0.8                            0.0912555450475433 -156.608766995727 0.981298632990259 -66.4833700868646 0.981298632990257 -66.483370086864 0.0913483443268478 -159.548140765954 
0.9                            0.09839560470353 -164.980964102747 0.979186760173925 -74.6921317072882 0.979186760173925 -74.6921317072878 0.0983528418247485 -167.765100178236 
1                              0.104301709432582 -173.411498931422 0.97718223093535 -82.8882115276311 0.977182230935351 -82.888211527631 0.104103214925798 -175.827202141863 
1.1                            0.108930239611754 178.072299038488 0.975307315886147 -91.0737984662978 0.975307315886147 -91.0737984662978 0.108565017012349 176.279897478808 
1.2                            0.112255353086254 169.440297697097 0.973577651557058 -99.2512652530386 0.973577651557057 -99.2512652530387 0.111722652429742 168.577115289008 
1.3                            0.114270092762769 160.657750370043 0.972001397677765 -107.423081531634 0.972001397677763 -107.423081531634 0.11358101387325 161.092692870678 
1.4                            0.11498781864395 151.683359936724 0.97057892775286 -115.591725426598 0.970578927752857 -115.591725426598 0.114167409655378 153.863588307513 
1.5                            0.114444254217271 142.466953833767 0.96930287609653 -123.759595442626 0.969302876096527 -123.759595442626 0.113534095000983 146.937520255428 
1.6                            0.112700456250377 132.94653964891  0.968158481577   -131.92892376404 0.968158481576998 -131.92892376404 0.111761783685679 140.375663835819 
1.7                            0.109847092134427 123.044556456126 0.967124213495155 -140.101693059084 0.967124213495154 -140.101693059084 0.10896457230954 134.255894520973 
1.8                            0.106010536376089 112.663277468574 0.966172673702868 -148.279559911348 0.966172673702868 -148.279559911348 0.105296747950306 128.676167181022 
1.9                            0.101361440583358 101.679739364946 0.965271761083878 -156.463788542379 0.965271761083879 -156.463788542379 0.100961876177381 123.756872810071 
2                              0.0961264498245184 89.9416670972253 0.964386069728258 -164.65519854318 0.964386069728259 -164.655198543181 0.0962241114481956 119.639449808891 
2.1                            0.0906032175415027 77.2683672309185 0.963478475189863 -172.854129983236 0.963478475189864 -172.854129983236 0.0914202338488709 116.475731722237 
2.2                            0.0851767905379367 63.4654088900102 0.962511846557164 178.939571405839 0.962511846557164 178.939571405839 0.0869674726286684 114.398917439256 
2.3                            0.0803299056015571 48.3685533024182 0.961450807446421 170.726547207247 0.961450807446421 170.726547207247 0.0833559703592386 113.466484411406 
2.4                            0.0766293152860537 31.9330555134639 0.960263458143488 162.507896829014 0.960263458143488 162.507896829014 0.0811083536511755 113.578323352529 
2.5                            0.0746606104871358 14.3568220541864 0.958922965686765 154.285126194832 0.958922965686765 154.285126194832 0.0806934033724603 114.409820943304 
2.6                            0.0748981486219926 -3.84550596392499 0.957408930171641 146.060076590655 0.95740893017164 146.060076590655 0.0824110265417323 115.434673027744 
2.7                            0.0775565585330314 -21.9414269287773 0.955708444834276 137.834836914169 0.955708444834275 137.834836914169 0.0863080941864362 116.072000749879 
2.8                            0.082525511147192 -39.2451847797882 0.953816784469716 129.611643674533 0.953816784469716 129.611643674533 0.0921824485743175 115.87295475339  
2.9                            0.0894386117735349 -55.3442165759116 0.951737680273279 121.392773906359 0.951737680273278 121.392773906359 0.0996670073389336 114.616783155649 
3                              0.0978120194119857 -70.1324536456332 0.949483167028346 113.180436606732 0.949483167028346 113.180436606732 0.10833281414609 112.285482129059 
3.1                            0.107159560101148 -83.7064852867143 0.947073017713991 104.976668329651 0.947073017713991 104.976668329651 0.117762528385859 108.982459553258 
3.2                            0.117050425917991 -96.2484745737646 0.9445338078317  96.783238180748  0.9445338078317  96.783238180748  0.127585479548811 104.859188561892 
3.3                            0.127124180235227 -107.95258858931 0.941897674117939 88.601566699233  0.941897674117942 88.601566699233  0.137486874639561 100.071110441733 
3.4                            0.137085987277659 -118.992653849035 0.939200847687248 80.4326620876684 0.939200847687248 80.4326620876684 0.147204929181536 94.7578755854494 
3.5                            0.146696234038649 -129.513414601541 0.936482049025679 72.2770760723944 0.93648204902568 72.2770760723943 0.156524215768787 89.0376199183727 
3.6                            0.155760482322112 -139.632045155107 0.933780831804762 64.1348804722953 0.933780831804763 64.1348804722953 0.165268905355616 83.0077098535061 
3.7                            0.164121427420491 -149.442953785748 0.931135955418165 56.0056644318195 0.931135955418166 56.0056644318194 0.173297100457365 76.7478264738008 
3.8                            0.17165290966153 -159.022926726864 0.928583854360469 47.8885513186492 0.92858385436047 47.8885513186491 0.180496425745274 70.3234946798981 
3.9                            0.178255585438111 -168.435603031393 0.926157258263766 39.7822335450825 0.926157258263767 39.7822335450824 0.18678071193891 63.7893229226133 
4                              0.183853852353488 -177.735079010967 0.923884001681742 31.6850230572864 0.923884001681743 31.6850230572864 0.192087561950618 57.1917460350002 
4.1                            0.188393723963532 173.03127159966  0.921786049269518 23.5949149300046 0.921786049269518 23.5949149300046 0.196376631227856 50.5712743866249 
4.2                            0.19184145445474 163.820602186434 0.919878750993445 15.5096613662334 0.919878750993444 15.5096613662334 0.19962851072927 43.9643195524154 
4.3                            0.19418279346202 154.592868637022 0.918170333943327 7.42685338056794 0.918170333943328 7.42685338056803 0.201844144870542 37.4046727541514 
4.4                            0.19542280381136 145.309452334118 0.916661632161964 -0.655992511627029 0.916661632161965 -0.655992511626935 0.203044741234681 30.9246939163587 
4.5                            0.195586204659948 135.932044150791 0.91534605313774 -8.74134521587729 0.91534605313774 -8.74134521587715 0.203272132930993 24.5562405781502 
4.6                            0.194718213340283 126.421741290274 0.914209778379558 -16.831570162864 0.914209778379558 -16.8315701628639 0.202589537770263 18.3313314186606 
4.7                            0.192885852367072 116.738351387691 0.913232194780368 -24.9288431562406 0.913232194780369 -24.9288431562405 0.20108261876711 12.2824990549992 
4.8                            0.190179660530378 106.839950295911 0.912386552208061 -33.0350695479103 0.912386552208063 -33.0350695479101 0.198860683331917 6.44274078761717 
4.9                            0.186715690340648 96.6828079094661 0.911640839974258 -41.1518113634097 0.911640839974259 -41.1518113634095 0.196057757433301 0.844926525304602 
5                              0.182637573274068 86.2218853006605 0.910958869793109 -49.2802250209167 0.91095886979311 -49.2802250209166 0.19283313040597 -4.47952025337887 
5.1                            0.178118267937773 75.4122140013379 0.910301545188301 -57.4210122453785 0.910301545188301 -57.4210122453785 0.189370788214269 -9.50286727260792 
5.2                            0.173360852308701 64.2115722292649 0.909628287144802 -65.5743866239964 0.909628287144802 -65.5743866239964 0.185876961801703 -14.2043869169074 
5.3                            0.168597375015593 52.5849102103845 0.908898573783156 -73.7400579333169 0.908898573783155 -73.740057933317 0.182574879207645 -18.5746957057196 
5.4                            0.164084396451685 40.5108209089804 0.908073539156127 -81.9172358560528 0.908073539156127 -81.9172358560529 0.17969585390276 -22.6207077863739 
5.5                            0.160093607610695 27.9898191513618 0.90711756458864 -90.1046539836192 0.907117564588641 -90.1046539836192 0.177466248437885 -26.3702498490073 
5.6                            0.156896171950046 15.0531408902149 0.905999787224776 -98.3006140836364 0.905999787224773 -98.3006140836365 0.176090773666899 -29.8748414540147 
5.7                            0.154740659321569 1.76936899506021 0.904695446503985 -106.503049549123 0.904695446503983 -106.503049549123 0.175733964832484 -33.2089638649795 
5.8                            0.153826841929952 -11.7547903470366 0.903186991671106 -114.709605818551 0.903186991671105 -114.709605818551 0.176503071996666 -36.4647358371978 
5.9                            0.15428054953943 -25.3825441934805 0.901464882906601 -122.917734468322 0.9014648829066  -122.917734468322 0.178436224018315 -39.7423664957769 
6                              0.156136485797967 -38.9637174581232 0.8995280350327  -131.124796746628 0.899528035032698 -131.124796746628 0.181498899136312 -43.1384811103412 
6.1                            0.159334549973035 -52.3557485137252 0.897383874723715 -139.32817164774 0.897383874723714 -139.32817164774 0.185589542234449 -46.7353909557279 
6.2                            0.163730772546375 -65.4422037487932 0.895048007502751 -147.525363300088 0.89504800750275 -147.525363300088 0.190552602459403 -50.5939390166829 
6.3                            0.169118920061932 -78.1434449538562 0.892543516722427 -155.714102501137 0.892543516722425 -155.714102501137 0.196195575067864 -54.7510051084477 
6.4                            0.175256132515044 -90.4181176140059 0.889899940264972 -163.892437669788 0.889899940264972 -163.892437669788 0.202306427384438 -59.2210860774476 
6.5                            0.181886580547253 -102.257782051952 0.887151989309284 -172.058811248569 0.887151989309286 -172.058811248569 0.208668760115326 -64.0004059266262 
6.6                            0.188759724232297 -113.678387217643 0.884338085461526 179.787881417988 0.884338085461524 179.787881417988 0.21507342993685 -69.0719230016983 
6.7                            0.195642399095853 -124.711647613447 0.88149879714349 171.64825258792  0.881498797143493 171.64825258792  0.22132650211332 -74.4100529022082 
6.8                            0.202325595594223 -135.397987779611 0.87867525375758 163.522402748189 0.87867525375758 163.522402748189 0.22725406585964 -79.9844994376603 
6.9                            0.208627385864224 -145.781528975059 0.875907608057963 155.409921075663 0.875907608057966 155.409921075663 0.232704682770415 -85.7630324132632 
7                              0.214393388702302 -155.906920073831 0.873233605176261 147.309904586839 0.873233605176262 147.309904586839 0.237550213994166 -91.7133065069409 
7.1                            0.219495846569258 -165.817570953842 0.870687302890451 139.220994179427 0.870687302890452 139.220994179427 0.241685634147134 -97.8039173801116 
7.2                            0.22383204955978 -175.554843079923 0.868297973862118 131.141425333268 0.868297973862119 131.141425333268 0.245028281914868 -104.00490165949 
7.3                            0.227322571647825 174.842157726463 0.866089208186538 123.069090998165 0.866089208186539 123.069090998165 0.247516861282268 -110.287856780275 
7.4                            0.229909597581266 165.336436616405 0.864078224671523 115.001614113561 0.86407822467152 115.001614113561 0.249110404843091 -116.625815266553 
7.5                            0.231555498568019 155.892776219473 0.862275392206299 106.936427230987 0.862275392206296 106.936427230987 0.249787338436624 -122.992970562822 
7.6                            0.232241740207852 146.477315007225 0.86068395832878 98.8708567954738 0.860683958328779 98.8708567954738 0.249544736122786 -129.364323421732 
7.7                            0.231968159435984 137.057098123769 0.859299980182829 90.8022097430785 0.859299980182827 90.8022097430785 0.248397817365655 -135.715299987855 
7.8                            0.230752616142531 127.599638733402 0.858112452739348 82.7278601558389 0.858112452739347 82.7278601558389 0.246379706480825 -142.021384296842 
7.9                            0.228631001261346 118.07251875881  0.857103629549897 74.6453337647872 0.857103629549898 74.6453337647872 0.24354144159583 -148.257807794495 
8                              0.225657560595747 108.443059512281 0.856249531489845 66.5523881032871 0.856249531489845 66.5523881032871 0.239952181619614 -154.399345625598 
8.1                            0.221905467618479 98.6781040852583 0.855520638084003 58.4470860995873 0.855520638084004 58.4470860995872 0.235699511332072 -160.420282742324 
8.2                            0.217467544023049 88.7439743943806 0.854882753418352 50.3278608850801 0.854882753418353 50.32786088508   0.230889684436659 -166.294630534316 
8.3                            0.212456978192358 78.6066964545268 0.854298033921502 42.193569619537  0.854298033921503 42.1935696195371 0.225647572128442 -171.99669302218 
8.4                            0.207007822464197 68.2326259441423 0.853726158392636 34.0435342381892 0.853726158392636 34.0435342381893 0.220116003973936 -177.502093426698 
8.5                            0.201274954291212 57.5896455987511 0.853125611913298 25.8775672486702 0.853125611913298 25.8775672486702 0.21445410889822 177.210635722561 
8.6                            0.19543306351249 46.6491294806454 0.852455045493444 17.6959810811752 0.852455045493442 17.6959810811756 0.208834208244138 172.157842380882 
8.7                            0.189674092071709 35.3888437408579 0.851674663642505 9.49958003947095 0.851674663642502 9.49958003947145 0.203436817747393 167.347977302555 
8.8                            0.184202447709437 23.7968277539439 0.850747583972774 1.28963460791059 0.850747583972772 1.28963460791137 0.198443435539289 162.778490180376 
8.9                            0.179227329864515 11.8760160207274 0.849641107962851 -6.93216129217657 0.849641107962847 -6.93216129217601 0.194027089056278 158.432897039187 
9                              0.174951781178699 -0.351100703277025 0.848327841486152 -15.1637485941888 0.848327841486149 -15.1637485941881 0.190341115720482 154.278770037928 
9.1                            0.171558746152876 -12.8390230658317 0.846786608548189 -23.4027745257103 0.846786608548186 -23.4027745257098 0.187507304319479 150.267513006915 
9.2                            0.169195486836605 -25.518601179524 0.845003112099302 -31.6466740043035 0.845003112099298 -31.6466740043036 0.185605134183285 146.336592756537 
9.3                            0.167958892757037 -38.3005606621332 0.842970311205251 -39.8927572086451 0.84297031120525 -39.8927572086456 0.184664114375438 142.414326123884 
9.4                            0.167884924829072 -51.0834640413145 0.840688502874883 -48.1382992353008 0.840688502874878 -48.1382992353025 0.184660878411861 138.42652307823  
9.5                            0.16894501089755 -63.7647270894573 0.838165117446115 -56.3806277736674 0.838165117446111 -56.3806277736701 0.185521714666589 134.303618009694 
9.6                            0.171050526161197 -76.2519723574101 0.835414256287575 -64.6172050965856 0.835414256287565 -64.6172050965897 0.187129942235159 129.986750558628 
9.7                            0.17406421638097 -88.4718427531444 0.832456017413778 -72.8457013426574 0.832456017413763 -72.8457013426624 0.189336504975166 125.431682005658 
9.8                            0.177815665267085 -100.374526811774 0.829315666592   -81.0640569925182 0.829315666591978 -81.0640569925235 0.191971751279812 120.610204593844 
9.9                            0.182117419389235 -111.933914487378 0.826022717482463 -89.2705335232197 0.826022717482445 -89.2705335232238 0.194856637655896 115.509420133338 
10                             0.186779095265289 -123.144569431952 0.822609983955596 -97.4637523579435 0.822609983955596 -97.4637523579435 0.197812272582165 110.129655545082 
