! Touchstone file exported from HFSS 3D Layout Design 2026.1.0
!        File:           D:/Work/SIM/ADS_AUTO_SIM/projects/RFSOC_RF/TX_Fillter.aedt
!        Generated:      05:12:55 AM Aug 31, 2026
!        Design:         TX_BAND1_MCFIL_R51_CNN022
!        Project:        TX_Fillter
!
# GHz S MA R 50.000000
! Terminal data exported
! Port[1] = Port1
! Port[2] = Port2
14                             0.97356769055421 -163.500045768734 0.00368164994240183 -175.670740369315 0.00368164994240183 -175.670740369315 0.974275015853522 -161.66365867389 
14.05                          0.973086201410643 -164.372830642826 0.00375660160254767 -176.010245902963 0.00375660160254767 -176.010245902963 0.973804890951086 -162.528743590414 
14.1                           0.972589458796207 -165.251559620534 0.00383531302251522 -176.328259755674 0.0038353130225152 -176.328259755673 0.973319855975047 -163.399529902117 
14.15                          0.972076700945403 -166.136417477149 0.00391809011044431 -176.624427697867 0.00391809011044431 -176.624427697867 0.972819157563066 -164.276193402962 
14.2                           0.971547114636023 -167.02759877348 0.00400526927340419 -176.898450314834 0.00400526927340418 -176.898450314833 0.972301990668397 -165.158919420578 
14.25                          0.970999830812497 -167.925308507204 0.00409722078850288 -177.150092438107 0.00409722078850284 -177.150092438107 0.97176749409716 -166.047903463041 
14.3                           0.970433919758086 -168.829762817159 0.00419435257056935 -177.379193429755 0.00419435257056932 -177.379193429754 0.971214745579056 -166.943351919175 
14.35                          0.969848385761004 -169.741189745757 0.00429711438543398 -177.585678313501 0.00429711438543395 -177.585678313501 0.970642756314017 -167.845482817671 
14.4                           0.969242161211863 -170.659830065256 0.00440600256440566 -177.76956972604 0.00440600256440564 -177.769569726039 0.970050464929086 -168.754526650976 
14.45                          0.968614100060826 -171.585938174325 0.0045215652831542 -177.931000637428 0.00452156528315419 -177.931000637427 0.969436730770319 -169.670727270568 
14.5                           0.967962970552478 -172.519783072066 0.00464440847705907 -178.070227761156 0.00464440847705905 -178.070227761156 0.968800326443432 -170.594342861064 
14.55                          0.96728744714422 -173.461649417513 0.00477520247543301 -178.187645542636 0.004775202475433 -178.187645542635 0.968139929503953 -171.525647001458 
14.6                           0.966586101499834 -174.411838683596 0.00491468944917785 -178.283800580051 0.00491468944917782 -178.28380058005 0.967454113182544 -172.46492982286 
14.65                          0.965857392433211 -175.370670415659 0.00506369178075611 -178.359406294843 0.00506369178075607 -178.359406294843 0.966741336013382 -173.412499273219 
14.7                           0.965099654657699 -176.338483605842 0.00522312148232794 -178.415357631894 0.00522312148232792 -178.415357631894 0.965999930212611 -174.368682500885 
14.75                          0.964311086173514 -177.315638196109 0.00539399080806522 -178.45274553367 0.00539399080806521 -178.452745533669 0.965228088629247 -175.333827370349 
14.8                           0.963489734098499 -178.302516724247 0.00557742423069664 -178.472870900606 0.00557742423069663 -178.472870900606 0.964423850061796 -176.308304125233 
14.85                          0.96263347871531 -179.299526129095 0.00577467198108407 -178.477257724533 0.00577467198108407 -178.477257724533 0.963585082699289 -177.292507215607 
14.9                           0.961740015469924 179.692900266707 0.00598712538407698 -178.467665066203 0.00598712538407696 -178.467665066203 0.962709465404356 -178.28685730896 
14.95                          0.960806834610799 178.674300575686 0.00621633426524527 -178.446097545206 0.00621633426524529 -178.446097545206 0.961794466506917 -179.291803506755 
15                             0.959831198103646 177.644181942727 0.00646402675280761 -178.414814023989 0.00646402675280761 -178.414814023989 0.960837319718432 179.69217420848  
15.05                          0.958810113391583 176.602017893815 0.00673213185890448 -178.376334200308 0.0067321318589045 -178.376334200308 0.959834996706193 178.664562267163 
15.1                           0.957740303492007 175.54724540604  0.00702280529644535 -178.333442876405 0.00702280529644535 -178.333442876405 0.958784175782346 177.624810515441 
15.15                          0.956618172827012 174.479261664425 0.00733845907465643 -178.289191749884 0.00733845907465641 -178.289191749885 0.957681206059857 176.572328889854 
15.2                           0.955439768069682 173.397420466376 0.00768179552131532 -178.24689867066 0.0076817955213153 -178.24689867066 0.956522066303394 175.506483721793 
15.25                          0.954200733149604 172.301028229168 0.00805584650630916 -178.210144428961 0.00805584650630916 -178.210144428961 0.955302317551965 174.426593623605 
15.3                           0.952896257391559 171.18933954964  0.00846401879431026 -178.182767278277 0.00846401879431021 -178.182767278277 0.954017048405692 173.331924901367 
15.35                          0.95152101555416 170.061552258288 0.00891014663983167 -178.168855549711 0.00891014663983165 -178.168855549711 0.952660811643086 172.221686431428 
15.4                           0.950069098280986 168.916801901976 0.0093985529629181 -178.172738874823 0.00939855296291809 -178.172738874823 0.951227550557316 171.095023928841 
15.45                          0.948533931163584 167.754155580545 0.0099341207171866 -178.198978696309 0.0099341207171866 -178.198978696309 0.949710513057141 169.951013525648 
15.5                           0.946908180228618 166.5726050527   0.0105223763950416 -178.252358903265 0.0105223763950417 -178.252358903265 0.948102151153564 168.788654565492 
15.55                          0.94518364118123 165.37105901563  0.0111695880215797 -178.3378775746  0.0111695880215796 -178.3378775746  0.946394002925517 167.606861508332 
15.6                           0.943351109138874 164.148334451173 0.0118828804863999 -178.46074094621 0.0118828804863999 -178.46074094621 0.944576553399581 166.404454825099 
15.65                          0.941400224843056 162.903146919204 0.0126703716729696 -178.626360832792 0.0126703716729695 -178.626360832792 0.942639069954685 165.18015074732  
15.7                           0.939319292400521 161.634099667026 0.0135413335953867 -178.840356834698 0.0135413335953867 -178.840356834698 0.9405694068276  163.932549721541 
15.75                          0.937095062428775 160.339671413039 0.014506383675806 -179.108564748146 0.014506383675806 -179.108564748146 0.93835377199069 162.660123403939 
15.8                           0.934712472997619 159.018202655743 0.015577712433579 -179.437052681192 0.015577712433579 -179.437052681192 0.935976448024963 161.361200018587 
15.85                          0.93215433888433 157.667880358389 0.0167693552593172 -179.83214646895 0.0167693552593172 -179.83214646895 0.933419456522851 160.033947896482 
15.9                           0.929400977288352 156.286720870375 0.0180975176734342 179.699533906357 0.0180975176734342 179.699533906357 0.930662152903749 158.676357016772 
15.95                          0.926429755147343 154.872550976928 0.0195809655889936 179.151025035654 0.0195809655889936 179.151025035653 0.927680735155474 157.286218394588 
16                             0.92321453939343 153.422987031424 0.0212414946909181 178.514955884381 0.0212414946909182 178.514955884381 0.92444764573173 155.861101214658 
16.05                          0.919725026684804 151.93541224019  0.0231044961888956 177.783466338156 0.0231044961888957 177.783466338155 0.92093084040022 154.39832771706  
16.1                           0.915925923109226 150.40695236963  0.0251996399718863 176.948105787693 0.0251996399718863 176.948105787692 0.917092890964753 152.894946034265 
16.15                          0.911775936830705 148.834450480381 0.0275617006268841 175.999708575614 0.0275617006268842 175.999708575613 0.912889880160877 151.347701509514 
16.2                           0.907226537408696 147.214441842413 0.0302315568422224 174.928242545624 0.0302315568422224 174.928242545624 0.908270036335164 149.753007579631 
16.25                          0.902220424443863 145.543131074541 0.0332574001879476 173.722626252851 0.0332574001879477 173.722626252851 0.903172042542296 148.106918214428 
16.3                           0.896689635480126 143.816374981367 0.0366961946209526 172.370509653027 0.0366961946209526 172.370509653027 0.897522939492538 146.405105384438 
16.35                          0.89055320958122 142.029676847491 0.0406154321684402 170.85801238301  0.0406154321684403 170.85801238301  0.891235525085126 144.642847422585 
16.4                           0.883714310963555 140.178201596881 0.0450952308852932 169.169413270448 0.0450952308852932 169.169413270448 0.884205137225475 142.815038005527 
16.45                          0.876056711534841 138.256827033575 0.0502308142376032 167.286784836923 0.0502308142376033 167.286784836923 0.87630569627225 140.916231692952 
16.5                           0.86744054247875 136.260255607914 0.0561353891297773 165.189567963303 0.0561353891297774 165.189567963303 0.867384889393752 138.940751945977 
16.55                          0.857697273315678 134.1832257625   0.062943389942908 162.854085766586 0.0629433899429081 162.854085766586 0.857258422449758 136.882903551391 
16.6                           0.846624000217348 132.020884893566 0.0708139563081964 160.253004157588 0.0708139563081964 160.253004157587 0.845703386197497 134.737356930723 
16.65                          0.833977393219005 129.769421685143 0.0799343272229622 157.354762953616 0.0799343272229621 157.354762953616 0.832451057493546 132.49981226956  
16.7                           0.819468186378594 127.427109917685 0.0905225084314908 154.123031329299 0.0905225084314908 154.123031329299 0.817180016178086 130.168114478085 
16.75                          0.802758099085069 124.995995361078 0.102828026080058 150.516293105092 0.102828026080058 150.516293105092 0.799511530921133 127.744085607452 
16.8                           0.783462860599227 122.484565310975 0.117128726656902 146.487752069721 0.117128726656902 146.487752069721 0.779011107873042 125.236478881831 
16.85                          0.761167970519976 119.911864630548 0.133720363788473 141.985876934264 0.133720363788473 141.985876934264 0.755203386369364 122.665636397605 
16.9                           0.735468261969287 117.313603833596 0.152894237290877 136.956083110491 0.152894237290877 136.956083110491 0.72761265165893 120.070607889493 
16.95                          0.706047800824598 114.75066580223  0.174896995537411 131.344246972831 0.174896995537411 131.344246972831 0.695847906595929 117.519499494083 
17                             0.672820394092588 112.31962188687  0.199867414361292 125.102865020299 0.199867414361292 125.102865020299 0.659757214872213 115.123218011486 
17.05                          0.636145003733997 110.162533240349 0.227750436647062 118.200467830784 0.227750436647063 118.200467830784 0.619672903085938 113.050504398054 
17.1                           0.597098507068559 108.468157774472 0.258202521729409 110.63399250073  0.258202521729409 110.63399250073  0.576739532866642 111.536240879316 
17.15                          0.55771030266879 107.44844477833  0.290524489262219 102.4418823229   0.29052448926222 102.4418823229   0.533233735081667 110.863379027384 
17.2                           0.520943520663747 107.268907498317 0.323677292698917 93.7130663441222 0.323677292698917 93.7130663441224 0.492636825695143 111.285189788002 
17.25                          0.490141913029878 107.929795689611 0.356426614188003 84.5854324882532 0.356426614188004 84.5854324882533 0.459086463028863 112.865073251011 
17.3                           0.467873879837406 109.159860226558 0.387602998286209 75.2296425174169 0.38760299828621 75.229642517417  0.435992353720081 115.298461005207 
17.35                          0.454698130878992 110.447022405716 0.416380586271314 65.8208907406579 0.416380586271314 65.8208907406579 0.424356231481847 117.913832168648 
17.4                           0.448789727684033 111.246422921706 0.442444066098016 56.5084398268868 0.442444066098016 56.5084398268867 0.422118680441656 119.968413606437 
17.45                          0.446771206592315 111.205831490906 0.465975595180782 47.3942701096215 0.465975595180782 47.3942701096215 0.425203741308335 120.998883768475 
17.5                           0.445023468532235 110.232751836507 0.487498963742258 38.5265392294411 0.487498963742257 38.5265392294411 0.429277049041653 120.917568460774 
17.55                          0.440589618630105 108.419070312878 0.507676036249329 29.9059054905485 0.507676036249328 29.9059054905485 0.430914174704392 119.88430016272  
17.6                           0.431445740801899 105.939362544253 0.527134132778171 21.4986827467921 0.527134132778169 21.4986827467922 0.42789436495532 118.152903575404 
17.65                          0.4163916208102  102.989573125931 0.546354612808191 13.251199899476  0.546354612808189 13.2511998994761 0.419016591281375 115.988228691747 
17.7                           0.394845801612243 99.7710702946353 0.565616791928048 5.10222171098966 0.565616791928047 5.10222171098981 0.403824325091136 113.647445147934 
17.75                          0.366695741835132 96.5068431397135 0.584979567889163 -3.00746433007063 0.584979567889162 -3.00746433007048 0.382418475769589 111.397559728578 
17.8                           0.332252306035654 93.4838924930093 0.604287057591375 -11.1280192044578 0.604287057591375 -11.1280192044577 0.355404491105408 109.552184995369 
17.85                          0.29232209245939 91.1318411911647 0.623193013912856 -19.2955551399188 0.623193013912856 -19.2955551399187 0.323973091210451 108.521270447943 
17.9                           0.248431612137607 90.1722384763725 0.641205056983422 -27.5288857285312 0.641205056983422 -27.5288857285312 0.290109381385645 108.8657825048   
17.95                          0.203333714586526 91.9064925273989 0.657750830989205 -35.8281043128109 0.657750830989205 -35.8281043128109 0.256913861979919 111.316052762528 
18                             0.162142309426615 98.636984026417  0.672263487542079 -44.1752941880317 0.672263487542079 -44.1752941880318 0.228893758825204 116.603866571745 
18.05                          0.134219564861932 113.102826463385 0.684275271735605 -52.5375878913651 0.684275271735604 -52.5375878913652 0.211615908176148 124.821889954614 
18.1                           0.131268438170089 133.003118572313 0.69350006008196 -60.8723729627496 0.693500060081959 -60.8723729627496 0.209601316243465 134.502680601353 
18.15                          0.154241036831327 148.635217844114 0.699884153087572 -69.1338539110914 0.699884153087571 -69.1338539110915 0.223156370833197 143.030491668099 
18.2                           0.191678413756351 156.201073448827 0.703612352578825 -77.2797320108773 0.703612352578823 -77.2797320108774 0.248134491498885 148.660109819269 
18.25                          0.233541690238185 158.15381835617  0.70507044824474 -85.2767245685959 0.705070448244738 -85.276724568596 0.279053962446611 151.271468987468 
18.3                           0.274505125880729 156.941485702989 0.704778420757661 -93.1040537404425 0.704778420757659 -93.1040537404425 0.311483831200401 151.52467725285  
18.35                          0.311954688933882 153.956837417438 0.703314556968658 -100.754678309744 0.703314556968657 -100.754678309744 0.342505812463823 150.130907861707 
18.4                           0.344622189630832 149.938526555657 0.701248012539738 -108.234616023341 0.701248012539737 -108.234616023341 0.370388163576062 147.627976821514 
18.45                          0.371952012906798 145.284335405379 0.699089668957365 -115.56101138009 0.699089668957365 -115.56101138009 0.394193866025714 144.37917239519  
18.5                           0.393789899220063 140.211908363107 0.697263165420018 -122.759626728959 0.697263165420018 -122.759626728959 0.413490043176493 140.619447402098 
18.55                          0.410211624246234 134.838842439515 0.696092710982827 -129.862276885994 0.696092710982827 -129.862276885994 0.428154458890769 136.497249778568 
18.6                           0.42142291147469 129.224205276271 0.695802239765405 -136.904514538112 0.695802239765406 -136.904514538112 0.438251918789443 132.104089262983 
18.65                          0.427702325783483 123.391122087485 0.696520746968716 -143.923690343285 0.696520746968717 -143.923690343285 0.443959014230372 127.494000707684 
18.7                           0.429373186458991 117.339529887089 0.698290023385785 -150.957391566514 0.698290023385787 -150.957391566514 0.445522441657707 122.696003673932 
18.75                          0.426796212669329 111.053480718919 0.701072602262211 -158.042205622223 0.701072602262212 -158.042205622223 0.443240734765591 117.721835225419 
18.8                           0.420377307017415 104.50520955466  0.704759084153664 -165.212744917373 0.704759084153665 -165.212744917373 0.437462128907971 112.570360765084 
18.85                          0.410586296054771 97.6571583592153 0.70917494389365 -172.500889740302 0.709174943893651 -172.500889740302 0.428592992825632 107.229419578173 
18.9                           0.397983090391264 90.4626973518688 0.714087407448782 -179.935241637266 0.714087407448782 -179.935241637266 0.417112181707531 101.675424245649 
18.95                          0.383247800680646 82.8662146493034 0.71921300075909 172.459182669546 0.71921300075909 172.459182669546 0.403587146129808 95.8707906976912 
19                             0.367210974307621 74.8035476889332 0.724225910396575 164.660961260526 0.724225910396573 164.660961260526 0.388688155358249 89.7592847700828 
19.05                          0.350879317837177 66.2044637590411 0.728766405425754 156.651927630778 0.728766405425754 156.651927630778 0.373198180176577 83.259788978405  
19.1                           0.335450782629636 56.9999835406696 0.732447441902738 148.416474607967 0.732447441902738 148.416474607967 0.358018370087096 76.2600726462571 
19.15                          0.322310134149697 47.1380819862261 0.734856616483138 139.940595133508 0.734856616483138 139.940595133508 0.344172470988951 68.6141259193539 
19.2                           0.312991969020411 36.6096622516933 0.735550496602081 131.21090947223  0.735550496602083 131.21090947223  0.332815856219688 60.1493317845071 
19.25                          0.309095296721491 25.4795801665967 0.734039818866337 122.214121826445 0.73403981886634 122.214121826445 0.325250824425921 50.6917764897919 
19.3                           0.312140005210421 13.9050713121694 0.729767852828142 112.937537922644 0.729767852828147 112.937537922645 0.322932319747941 40.1154649793175 
19.35                          0.323377615570578 2.11771084974602 0.722090729978635 103.371382308733 0.722090729978641 103.371382308733 0.327417201011854 28.4083105639473 
19.4                           0.34359532898865 -9.63648196002842 0.710277042455192 93.5135530577344 0.710277042455198 93.5135530577345 0.340189680748685 15.724392269456  
19.45                          0.372954250422524 -21.1667769957004 0.693551465946618 83.376959457698  0.693551465946624 83.376959457698  0.362333741365687 2.37837222791038 
19.5                           0.410878081724602 -32.3711915949441 0.671206526968122 72.9985301082088 0.671206526968126 72.9985301082087 0.394134149169437 -11.2328799732299 
19.55                          0.456003007488157 -43.2185371806188 0.642787642074471 62.4474127986436 0.642787642074473 62.4474127986435 0.434785735478971 -24.7355730019044 
19.6                           0.506232791736802 -53.703531590271 0.608313920007974 51.8284674675176 0.608313920007974 51.8284674675175 0.482370922252432 -37.8445341558129 
19.65                          0.558959578129306 -63.8088820826488 0.56844679685117 41.2772195940669 0.568446796851168 41.277219594067  0.534146983331091 -50.3688296344427 
19.7                           0.611451502743526 -73.4917223604013 0.524503291295404 30.9451427436192 0.5245032912954  30.9451427436195 0.587058405358699 -62.1866102679792 
19.75                          0.661300438949277 -82.6921713241096 0.478267900822118 20.9787537254462 0.478267900822114 20.9787537254468 0.638302645569985 -73.2219324260035 
19.8                           0.706765201358836 -91.3517083115232 0.431663812760269 11.4995014266327 0.431663812760265 11.4995014266336 0.685759178834907 -83.4341328808865 
19.85                          0.746898448848988 -99.42929526344  0.386418123458275 2.59097335199462 0.386418123458274 2.59097335199577 0.728166355530567 -92.8145333528113 
19.9                           0.781462939212083 -106.909125610249 0.343839547924383 -5.70405685801955 0.343839547924382 -5.7040568580182 0.765056488015654 -101.383265318379 
19.95                          0.81072861423913 -113.800076573407 0.304747861051496 -13.3785757430604 0.304747861051497 -13.3785757430589 0.796549618263415 -109.183380259614 
20                             0.835252046491686 -120.130172271368 0.269521848178412 -20.4521931363643 0.269521848178414 -20.4521931363627 0.823117812391475 -116.273137855495 
20.05                          0.855700398481168 -125.939563545044 0.238205567599773 -26.961484573011 0.238205567599775 -26.9614845730094 0.845390673843419 -122.718436867461 
20.1                           0.872737749758581 -131.274260604446 0.210623085832645 -32.9518929434301 0.210623085832648 -32.9518929434286 0.864025078991658 -128.586753808342 
20.15                          0.886965189352508 -136.181504226369 0.186474698990709 -38.4718746455683 0.186474698990712 -38.4718746455669 0.879632567512973 -133.943018464134 
20.2                           0.89889761972507 -140.706802901249 0.165406440536957 -43.5691398715348 0.16540644053696 -43.5691398715336 0.892747423848443 -138.847229233262 
20.25                          0.908961721040341 -144.892295491648 0.147054977342566 -48.2885095988548 0.147054977342568 -48.2885095988536 0.903819143390199 -143.353366327531 
20.3                           0.917504168003838 -148.776031553543 0.131073693848111 -52.6708832521018 0.131073693848114 -52.6708832521008 0.913217451913938 -147.509155692964 
20.35                          0.924803572031324 -152.391824852174 0.117145920236144 -56.7529051159336 0.117145920236145 -56.7529051159328 0.921242558872628 -151.356329859167 
20.4                           0.931082725414946 -155.769431331121 0.104990072078707 -60.567035627884 0.104990072078709 -60.5670356278833 0.928136639129049 -154.931141012681 
20.45                          0.936519611774915 -158.934888415704 0.0943600714071103 -64.141834752412 0.0943600714071114 -64.1418347524115 0.934094616453098 -158.264972289566 
20.5                           0.941256673950228 -161.910916229749 0.0850432508366129 -67.5023387311233 0.0850432508366138 -67.5023387311228 0.939273492962886 -161.384958108556 
20.55                          0.945408331220754 -164.717324208847 0.0768570958732127 -70.6704612809592 0.0768570958732131 -70.6704612809588 0.94380006776034 -164.314566655935 
20.6                           0.949066947007099 -167.371393648952 0.0696456150015198 -73.6653818616088 0.0696456150015198 -73.6653818616084 0.947777160437316 -167.07412342543 
20.65                          0.952307509198249 -169.888222922307 0.0632757693911971 -76.5039027429294 0.0632757693911971 -76.503902742929 0.951288554990119 -169.681269514581 
20.7                           0.95519127807096 -172.281031303824 0.0576341772291253 -79.2007676966397 0.0576341772291251 -79.2007676966392 0.954402895561799 -172.151356290307 
20.75                          0.95776862308258 -174.561422274051 0.0526241814705357 -81.7689412683613 0.0526241814705353 -81.7689412683607 0.957176744976814 -174.497781836982 
20.8                           0.96008122981274 -176.739609551906 0.0481632996848723 -84.2198507451652 0.0481632996848719 -84.2198507451648 0.959656984307539 -176.732276057109 
20.85                          0.96216382080569 -178.824610053661 0.0441810382186947 -86.5635943666298 0.044181038218694 -86.5635943666292 0.961882697969699 -178.865141485074 
20.9                           0.964045502164728 179.17559186632  0.0406170360449187 -88.809119793686 0.040617036044918 -88.8091197936854 0.963886658718757 179.094543567332 
20.95                          0.965750821982333 177.253904775704 0.0374194978303418 -90.9643768014039 0.0374194978303411 -90.9643768014032 0.965696501813618 177.138753628325 
21                             0.967300606474279 175.404011422286 0.0345438758096567 -93.0364478622397 0.0345438758096561 -93.0364478622387 0.967335657470721 175.26037132989  
21.05                          0.968712624097503 173.620267656456 0.0319517630173676 -95.0316598838452 0.031951763017367 -95.031659883844 0.968824094925017 173.453064964666 
21.1                           0.970002116030322 171.897616245454 0.0296099646047259 -96.9556799412753 0.0296099646047253 -96.9556799412739 0.970178919172854 171.711184674451 
21.15                          0.971182222356244 170.231513229218 0.0274897184312553 -98.8135974387854 0.0274897184312547 -98.8135974387841 0.97141485206216 170.029674212567 
21.2                           0.972264326445281 168.617864840018 0.0255660403931763 -100.609994770361 0.0255660403931758 -100.60999477036 0.972544622189868 168.403995737354 
21.25                          0.97325833483926 167.052973328529 0.0238171738146156 -102.349008227125 0.023817173814615 -102.349008227124 0.973579282555865 166.83006552688  
21.3                           0.974172906012062 165.533490310655 0.0222241256051496 -104.034380623742 0.0222241256051491 -104.03438062374 0.974528470706166 165.304198865547 
21.35                          0.975015638382504 164.056376477578 0.0207702747779481 -105.669506881502 0.0207702747779477 -105.669506881501 0.975400622866032 163.823062651759 
21.4                           0.975793225673487 162.618866701854 0.0194410413626439 -107.257473608323 0.0194410413626435 -107.257473608322 0.976203151079823 162.3836345222   
21.45                          0.976511585961461 161.218439730737 0.0182236057875439 -108.801093550355 0.0182236057875436 -108.801093550354 0.976942590459199 160.983167491184 
21.5                           0.977175969414315 159.852791789327 0.0171066705019959 -110.302935651615 0.0171066705019957 -110.302935651614 0.977624722159004 159.619159270688 
21.55                          0.977791048675766 158.519813525116 0.0160802570142921 -111.765351342678 0.0160802570142919 -111.765351342677 0.978254676548389 158.28932557432  
21.6                           0.97836099504686 157.217569816003 0.015135532680894 -113.190497583236 0.0151355326808939 -113.190497583235 0.978837020145823 156.991576821974 
21.65                          0.978889542985258 155.944282038929 0.0142646625403215 -114.580357103047 0.0142646625403214 -114.580357103046 0.979375829182119 155.723997755723 
21.7                           0.979380044949184 154.698312458765 0.0134606822749751 -115.936756218788 0.013460682274975 -115.936756218787 0.979874752100845 154.484829555027 
21.75                          0.979835518223886 153.478150449121 0.0127173890359889 -117.261380548228 0.0127173890359888 -117.261380548227 0.98033706286675 153.272454103709 
21.8                           0.980258685060554 152.282400300213 0.0120292474045179 -118.555788896178 0.0120292474045178 -118.555788896177 0.980765706604272 152.085380114587 
21.85                          0.980652007212687 151.109770405248 0.0113913082079131 -119.821425547209 0.0113913082079131 -119.821425547209 0.981163338810019 150.922230862245 
21.9                           0.981017715759146 149.959063647286 0.0107991382777243 -121.05963116692 0.0107991382777243 -121.05963116692 0.981532359160148 149.781733311595 
21.95                          0.981357836945985 148.829168834171 0.0102487595420426 -122.271652485491 0.0102487595420426 -122.271652485492 0.981874940754062 148.662708461126 
22                             0.981674214652321 147.719053050707 0.00973659609856359 -123.458650913543 0.00973659609856356 -123.458650913544 0.982193055490701 147.564062745853 
22.05                          0.981968529982829 146.627754815518 0.00925942812604634 -124.621710220149 0.00925942812604636 -124.621710220149 0.982488496155899 146.484780367068 
22.1                           0.982242318405824 145.554377945484 0.00881435166807043 -125.761843385692 0.00881435166807041 -125.761843385694 0.982762895703175 145.423916434586 
22.15                          0.982496984787568 144.498086043779 0.00839874347025006 -126.879998727634 0.00839874347025006 -126.879998727635 0.983017744131772 144.380590822958 
22.2                           0.982733816617411 143.458097538696 0.00801023017538989 -127.977065384626 0.00801023017538989 -127.977065384627 0.983254403301076 143.353982656462 
22.25                          0.982953995672131 142.433681210017 0.00764666128454865 -129.053878233682 0.00764666128454863 -129.053878233684 0.983474119967359 142.343325349096 
22.3                           0.983158608329665 141.424152147809 0.00730608537900133 -130.111222305763 0.00730608537900135 -130.111222305765 0.983678037284597 141.347902135479 
22.35                          0.983348654710666 140.428868095565 0.00698672917142477 -131.149836757078 0.00698672917142477 -131.14983675708 0.98386720497455 140.367042036882 
22.4                           0.983525056799911 139.447226135592 0.00668697901655645 -132.170418446469 0.00668697901655641 -132.170418446472 0.984042588340702 139.400116213714 
22.45                          0.983688665677441 138.478659679765 0.00640536456398121 -133.173625163118 0.00640536456398119 -133.173625163121 0.984205076275118 138.44653466192  
22.5                           0.983840267970756 137.522635733234 0.00614054428013419 -134.160078543565 0.00614054428013414 -134.160078543569 0.984355488385854 137.505743215995 
22.55                          0.983980591623815 136.578652402532 0.0058912926043629 -135.130366712394 0.00589129260436286 -135.130366712397 0.984494581354495 136.577220825874 
22.6                           0.984110311065296 135.646236622927 0.00565648853603559 -136.085046676883 0.00565648853603556 -136.085046676886 0.984623054618151 135.660477078903 
22.65                          0.98423005184748 134.724942082768 0.00543510547710226 -137.024646502402 0.00543510547710221 -137.024646502405 0.984741555457353 134.755049941484 
22.7                           0.984340394817563 133.814347325111 0.00522620217795097 -137.94966729218 0.00522620217795092 -137.949667292183 0.984850683560317 133.860503697971 
22.75                          0.984441879875094 132.914054009169 0.00502891465447203 -138.860584992364 0.005028914654472 -138.860584992366 0.984950995124708 132.976427066965 
22.8                           0.984535009362354 132.023685316037 0.00484244896146095 -139.757852040851 0.00484244896146089 -139.757852040854 0.985043006550065 132.102431477405 
22.85                          0.9846202511285  131.142884484887 0.00466607472229106 -140.641898876275 0.00466607472229103 -140.641898876278 0.985127197767232 131.238149488842 
22.9                           0.984698041303227 130.271313467279 0.00449911932753222 -141.513135321619 0.00449911932753221 -141.51313532162 0.985204015245259 130.383233341976 
22.95                          0.984768786811303 129.408651688603 0.00434096272618471 -142.371951855299 0.00434096272618472 -142.3719518553  0.985273874711209 129.537353627068 
23                             0.98483286765553 128.554594906783 0.00419103274269848 -143.218720781101 0.00419103274269849 -143.218720781102 0.98533716361396 128.700198059179 
