! Touchstone file exported from HFSS 3D Layout Design 2026.1.0
!        File:           D:/Work/ADS/SIMADS_EM_PAR/SP8T/RF-PPA-SP10T-4F4H-ENIG-V1.0.aedt
!        Generated:      12:16:49 AM Aug  8, 2026
!        Design:         RF-PPA-SP10T-4F4H-ENIG-V1.0_RF_OUT
!        Project:        RF-PPA-SP10T-4F4H-ENIG-V1.0
!
! Variables:
!        BendModel = 0
!        d_Base_D = 6.25mm
!        d_Base_L = 8mm
!        d_Feet_L = 4mm
!        d_Feet_W = 1mm
!        d_Front_L = 1.5mm
!        d_Front_W = 6.5mm
!        d_Hole_D = 1.25mm
!        d_PTFE_D = 4.2mm
!        d_Pin_D = 0.95mm
!        d_Pin_P = 1.7mm
!
# GHz S MA R 50.000000
! Terminal data exported
! Port[1] = Port1
! Port[2] = Port2
! Port[3] = Port3
! Port[4] = Port4
0.5                            0.0931535548150215 -133.234960334081 0.979435289477858 -46.2033040638134 0.000318648712818058 28.5749895551943 0.000183081975686527 -128.289534711243 
                               0.979435289477858 -46.2033040638134 0.0937903082738971 -142.945319991091 0.000196000398679892 -115.611141908796 0.000338967473171316 80.7052398485944 
                               0.000318648712818058 28.5749895551942 0.000196000398679892 -115.611141908797 0.0731164771618631 -122.098502005256 0.988702612251017 -26.8277084438347 
                               0.000183081975686528 -128.289534711243 0.000338967473171315 80.7052398485943 0.988702612251017 -26.8277084438347 0.0730257534971292 -114.160239906444 
0.55                           0.0945063248400076 -138.410482192675 0.978092984092234 -51.1030241246086 0.000345245755952605 21.9184215006504 0.000202027877257852 -132.902210705139 
                               0.978092984092234 -51.1030241246085 0.0953929416307192 -148.093816875564 0.000216959405116236 -119.223911983833 0.00037089166005476 79.5022456527937 
                               0.000345245755952606 21.9184215006504 0.000216959405116236 -119.223911983834 0.073871690447943 -125.496938655157 0.988016270806612 -29.8269732602767 
                               0.000202027877257853 -132.902210705139 0.00037089166005476 79.5022456527936 0.988016270806611 -29.8269732602767 0.0738299355167387 -117.291498012262 
0.6                            0.0959249751578868 -143.506288826483 0.976754434898422 -55.9700512168784 0.000371410367169974 15.3417007319421 0.000221167108558865 -137.47207089774 
                               0.976754434898421 -55.9700512168784 0.0970878819039678 -153.191557487031 0.000238077046353721 -122.857861015451 0.000402236023916077 78.3257158692313 
                               0.000371410367169974 15.341700731942  0.000238077046353719 -122.857861015452 0.075014576634983 -128.830671637232 0.987304266429555 -32.7960656304956 
                               0.000221167108558866 -137.47207089774 0.000402236023916077 78.3257158692312 0.987304266429555 -32.7960656304956 0.0750378866395633 -120.387632638449 
0.65                           0.0972828084294225 -148.52185395096 0.975431462044814 -60.8107433388825 0.000397117592207429 8.79656049099834 0.000240506958061056 -142.014123258434 
                               0.975431462044813 -60.8107433388825 0.0987435415504549 -158.258638057902 0.000259282256655505 -126.519107090164 0.000432939190185087 77.1717278459538 
                               0.00039711759220743 8.79656049099832 0.000259282256655503 -126.519107090164 0.0764279817932717 -132.112445262426 0.986575085837925 -35.7413629412424 
                               0.000240506958061056 -142.014123258434 0.000432939190185087 77.1717278459536 0.986575085837925 -35.7413629412424 0.0765319214763615 -123.452178800593 
0.7                            0.0984886364513426 -153.457149856387 0.974134565525087 -65.6298928668133 0.000422268767918972 2.24807704401485 0.000260052576854517 -146.5396905051  
                               0.974134565525086 -65.6298928668133 0.100263252697553 -163.309521974253 0.000280499558935791 -130.208962806763 0.000462939474435647 76.0379909267274 
                               0.000422268767918973 2.2480770440149  0.000280499558935789 -130.208962806763 0.0780273860161008 -135.351445514521 0.985835011953935 -38.6674926014254 
                               0.000260052576854516 -146.539690505101 0.000462939474435646 76.0379909267272 0.985835011953935 -38.6674926014254 0.0782269256020642 -126.48759049276 
0.75                           0.0994758161854324 -158.312288864655 0.972872398346002 -70.4312473634198 0.000446701661731464 -4.32617356153526 0.000279806474020304 -151.05768716665 
                               0.972872398346001 -70.4312473634197 0.101574710899909 -168.355169135608 0.000301653748300885 -133.92555483907 0.000492175421764297 74.9233398230824 
                               0.000446701661731464 -4.32617356153515 0.000301653748300883 -133.92555483907 0.0797502431429827 -138.554431944594 0.985088694847011 -41.5779052035163 
                               0.000279806474020303 -151.05768716665 0.000492175421764296 74.9233398230821 0.98508869484701 -41.5779052035163 0.0800597252529428 -129.495765594765 
0.8                            0.100195294726782 -163.087188807277 0.971651558666238 -75.2178260269255 0.000470210079930733 -10.9371390975553 0.000299768019677454 -155.575436559076 
                               0.971651558666237 -75.2178260269255 0.102623324537059 -173.404433098374 0.000322674687260983 -137.665055244214 0.000520586424739966 73.8273984220146 
                               0.000470210079930734 -10.9371390975552 0.000322674687260981 -137.665055244214 0.0815492831417292 -141.726488793405 0.984339563285522 -44.4752323898574 
                               0.000299768019677452 -155.575436559076 0.000520586424739964 73.8273984220144 0.984339563285522 -44.4752323898574 0.0819824190551724 -132.478320254313 
0.85                           0.100611048803992 -167.78127371118 0.970476576166031 -79.992118022231 0.000492570721658638 -17.5857965645987 0.000319932932629859 -160.099224052082 
                               0.970476576166031 -79.992118022231 0.103367866085579 -178.464998111202 0.00034350184223208 -141.422680370401 0.000548113360915385 72.7503350499435 
                               0.000492570721658639 -17.5857965645985 0.000343501842232078 -141.422680370401 0.0833881513726847 -144.871530819047 0.98359013700224 -47.3615189708963 
                               0.000319932932629858 -160.099224052083 0.000548113360915383 72.7503350499433 0.98359013700224 -47.3615189708964 0.0839580388961204 -135.436736682406 
0.9                            0.100697024529789 -172.393198288425 0.969350016988373 -84.7562104921893 0.000513573495712495 -24.2652241104255 0.000340292741540807 -164.63470083058 
                               0.969350016988373 -84.7562104921893 0.103777535856105 176.455971370385 0.00036408822716267 -145.193539974058 0.00057469916089941 71.6926626409846 
                               0.000513573495712496 -24.2652241104254 0.000364088227162667 -145.193539974058 0.0852384798348164 -147.992647056685 0.982842269492977 -50.2383787054307 
                               0.000340292741540806 -164.634700830581 0.000574699160899408 71.6926626409844 0.982842269492977 -50.2383787054307 0.0859576313629494 -138.372444587007 
0.95                           0.100435060245449 -176.920579974038 0.968272658322377 -89.5118736979774 0.000533050394979364 -30.9631371846114 0.00036083422073218 -169.187211855025 
                               0.968272658322377 -89.5118736979774 0.103829925477455 171.351357310352 0.000384403477305112 -148.973385747135 0.00060028916965628 70.6550534551096 
                               0.000533050394979365 -30.9631371846112 0.000384403477305112 -148.973385747135 0.0870778659151441 -151.092335732658 0.982097338129906 -53.1071021025527 
                               0.000360834220732178 -169.187211855026 0.000600289169656278 70.6550534551095 0.982097338129906 -53.1071021025527 0.0879582342318637 -141.286865625012 
1                              0.0998134812315488 178.640277589932 0.967243699901733 -94.2606194977135 0.000550898011879331 -37.6646423701229 0.000381538822009637 -173.762104395542 
                               0.967243699901733 -94.2606194977135 0.103509575756806 166.213717048365 0.000404435831009568 -152.759296543046 0.000624831085574739 69.6381457475042 
                               0.000550898011879332 -37.6646423701228 0.000404435831009569 -152.759296543046 0.0888884437267661 -154.17266527425 0.981356392521223 -55.9687331004707 
                               0.000381538822009635 -173.762104395542 0.000624831085574738 69.638145747504  0.981356392521223 -55.9687331004707 0.089941434166786 -144.181435383902 
1.05                           0.0988261718247991 174.294685053699 0.966260990383453 -99.0037429447257 0.000567090128370314 -44.3548903727098 0.000402382167353025 -178.365072399449 
                               0.966260990383453 -99.0037429447257 0.102806942101167 161.03496349227  0.000424192812897941 -156.55033800615 0.000648274131618483 68.6423227972093 
                               0.000567090128370313 -44.3548903727098 0.000424192812897941 -156.550338006149 0.0906558529475886 -157.235384761158 0.980620269172186 -58.8241249627406 
                               0.000402382167353023 -178.365072399449 0.000648274131618483 68.6423227972092 0.980620269172186 -58.8241249627406 0.0918923132253186 -147.057610387159 
1.1                            0.0974719992183329 170.04990751536  0.965321254015217 -103.742353008395 0.000581679152745114 -51.0213266851941 0.000423333768876802 176.997392745697 
                               0.965321254015218 -103.742353008395 0.10171765092296 155.806058633426 0.000443700334397022 -160.348241855992 0.000670566887438078 67.6674450358808 
                               0.000581679152745112 -51.0213266851941 0.000443700334397023 -160.348241855992 0.0923684808667757 -160.281999609081 0.979889678831991 -61.6739819257396 
                               0.000423333768876802 176.997392745698 0.000670566887438079 67.6674450358807 0.979889678831991 -61.6739819257396 0.0937986636247993 -149.916864456065 
1.15                           0.0957545055061005 165.915561523792 0.964420308303395 -108.477396151784 0.00059478767110858 -57.6553320706943 0.000444357390897376 172.317335291342 
                               0.964420308303396 -108.477396151784 0.100241973625406 150.516689284067 0.000462999677374853 -164.158160761053 0.000691652806595416 66.7125157933188 
                               0.000594787671108578 -57.6553320706943 0.000462999677374855 -164.158160761053 0.0940168964054924 -163.313823259958 0.979165271724471 -64.5188908422453 
                               0.000444357390897376 172.317335291342 0.000691652806595419 66.7125157933187 0.97916527172447 -64.5188908422453 0.0956503937437986 -152.760677448472 
1.2                            0.0936818122033008 161.904088894543 0.963553267173422 -113.209675116381 0.000606593185949105 -64.2531772684571 0.000465413102596052 167.584260190562 
                               0.963553267173423 -113.209675116381 0.098384472524296 145.154896198747 0.000482141274648947 -167.989562997997 0.000711461692852713 65.7752650224641 
                               0.0006065931859491 -64.2531772684571 0.000482141274648948 -167.989562997997 0.0955934217618891 -166.332012278308 0.978447684880155 -67.3593456520404 
                               0.000465413102596055 167.584260190563 0.000711461692852719 65.7752650224639 0.978447684880155 -67.3593456520404 0.0974390750905706 -155.590518906454 
1.25                           0.0912667013734643 158.031331103111 0.962714726761519 -117.939864410476 0.00061730977590379 -70.8163419712324 0.000486463767841782 162.783292792353 
                               0.96271472676152 -117.939864410476 0.0961537921105901 139.706626404852 0.000501173131909077 -171.857324643142 0.000729893983996061 64.8516566237864 
                               0.000617309775903787 -70.8163419712325 0.000501173131909079 -171.857324643142 0.0970918045186426 -169.337589958379 0.977737574916   -70.1957666138079 
                               0.000486463767841787 162.783292792354 0.00072989398399607 64.8516566237861 0.977737574916   -70.1957666138079 0.0991575965151905 -158.407828951093 
1.3                            0.0885268538149664 154.317232262893 0.961898932772142 -122.668523466463 0.000627170002077471 -77.351334202788 0.00050749354883782 157.891890455143 
                               0.961898932772144 -122.668523466463 0.0935625834927137 134.155174019393 0.000520119804646734 -175.78302526848 0.000746791948661788 63.9354038071622 
                               0.000627170002077465 -77.3513342027881 0.000520119804646735 -175.783025268481 0.0985069642851438 -172.331461973786 0.977035638819946 -73.0285156486141 
                               0.00050749354883783 157.891890455145 0.000746791948661801 63.9354038071616 0.977035638819945 -73.0285156486141 0.100799902152086 -161.213998600858 
1.35                           0.0854852402426332 150.786702034614 0.961099929494193 -127.396108099804 0.000636409333278749 -83.8691815360741 0.000528560721477216 152.873850786764 
                               0.961099929494194 -127.396108099804 0.0906275624354627 128.48046713498  0.000538944603022591 -179.796281319092 0.000761886694181691 63.0178352276862 
                               0.000636409333278743 -83.8691815360741 0.00053894460302259 -179.796281319093 0.0998347954406265 -175.314426515919 0.976342624587226 -75.8579087539671 
                               0.000528560721477232 152.873850786766 0.000761886694181708 63.0178352276852 0.976342624587226 -75.857908753967 0.102360795843811 -164.010351446214 
1.4                            0.0821706778509255 147.470669255018 0.960311691260398 -132.122980692747 0.000645254159607861 -90.3847578328216 0.00054995529719229 147.668899316951 
                               0.960311691260399 -132.122980692747 0.0873697142653907 122.658147531838 0.000557482982902417 176.064510857719 0.000774700793850331 62.089264670288  
                               0.000645254159607855 -90.3847578328215 0.000557482982902414 176.064510857718 0.101072012641608 -178.287180614706 0.975659332929349 -78.6842261765991 
                               0.000549955297192309 147.668899316956 0.00077470079385035 62.0892646702864 0.975659332929349 -78.6842261765991 0.103835798641158 -166.798128260522 
1.45                           0.0786185829758966 144.407346254766 0.959528237492144 -136.849419392681 0.000653913462956954 -96.9160753916108 0.000572697020179961 142.180482801099 
                               0.959528237492144 -136.849419392681 0.083814673982004 116.65837648689  0.000575330717092681 171.753746410918 0.000784375458506492 61.1454996878797 
                               0.000653913462956948 -96.9160753916108 0.000575330717092676 171.753746410918 0.102216029287791 178.74967618865  0.974986610746297 -81.507720837285 
                               0.000572697020179977 142.180482801107 0.000784375458506509 61.1454996878774 0.974986610746297 -81.507720837285 0.1052210483928  -169.578475689005 
1.5                            0.0748719702294189 141.643689816614 0.958743732600216 -141.575626529132 0.00066257356012111 -103.483629689033 0.000600109815520294 136.310947399948 
                               0.958743732600217 -141.575626529132 0.0799933292040938 110.444285844688 0.000591675657409136 167.226467256071 0.00078940788013719 60.2103555563452 
                               0.000662573560121104 -103.483629689033 0.000591675657409128 167.226467256071 0.103264861629253 175.79564001289  0.974325336637086 -84.3286253542075 
                               0.000600109815520278 136.31094739996  0.000789407880137199 60.2103555563419 0.974325336637087 -84.3286253542075 0.106513232073295 -172.352439680536 
1.55                           0.0709827658121449 139.236962317463 0.957952571989702 -146.301736396727 0.000671395014452945 -110.10984434312 0.000641083390338149 130.379742678103 
                               0.957952571989702 -146.301736396727 0.0759427191698402 103.969984908048 0.000605105312058063 162.459933304363 0.000787497029211084 59.4023205873034 
                               0.000671395014452939 -110.10984434312 0.000605105312058054 162.459933304363 0.104217052980914 172.850302103171 0.973676398454422 -87.1471578949362 
                               0.000641083390338023 130.379742678115 0.000787497029211074 59.4023205872996 0.973676398454422 -87.1471578949362 0.10770954275264 -175.120963863498 
1.6                            0.0670135073287236 137.256119566444 0.957149455303699 -151.027822512656 0.000680510730815902 -116.8186335303  0.000699321353873388 126.319511731124 
                               0.957149455303699 -151.027822512656 0.0717073365100224 97.1780463838791 0.000613558774850834 157.497836295044 0.000776704986636747 59.0834928592396 
                               0.000680510730815897 -116.8186335303  0.000613558774850829 157.497836295044 0.10507161380792 169.913349222546 0.973040662830218 -89.9635269902195 
                               0.000699321353873203 126.319511731122 0.000776704986636714 59.0834928592368 0.973040662830218 -89.9635269902195 0.108807654213417 -177.884892661993 
1.65                           0.0630394699400632 135.782403056958 0.95632944787836 -155.753904429023 0.00069002429840301 -123.63507926888 0.000735925911524658 124.527404310412 
                               0.95632944787836 -155.753904429023 0.0673409790815545 89.9964660025011 0.000614822037819168 152.513195551343 0.000760960903865268 59.937945218703  
                               0.000690024298403007 -123.63507926888 0.000614822037819166 152.513195551343 0.105827974403686 166.984564723019 0.972418936766202 -92.7779353600122 
                               0.000735925911524625 124.527404310407 0.00076096090386524 59.9379452187028 0.972418936766202 -92.7779353600122 0.10980570728311 179.355021367251 
1.7                            0.0591511383817804 134.907888079306 0.955488031201713 -160.479954158595 0.000700007741553831 -130.58521070658 0.00074492145457733 121.666392789213 
                               0.955488031201713 -160.479954158595 0.062909337829657 82.3353036554934 0.000607937339927468 147.840907976689 0.000755912580335219 62.2095251620398 
                               0.00070000774155383 -130.58521070658 0.000607937339927472 147.840907976689 0.106485947599527 164.063830138288 0.971811921856246 -95.5905827325964 
                               0.000744921454577327 121.666392789215 0.000755912580335232 62.2095251620395 0.971811921856246 -95.5905827325964 0.110702303002446 176.598106709838 
1.75                           0.0554566447573291 134.729761137354 0.95462114299206 -165.205902253829 0.000710497927100388 -137.69587013659 0.000751331957560854 117.528823721312 
                               0.954621142992061 -165.205902253829 0.0584935121293389 74.0837404908044 0.000594864570255141 143.884233386893 0.000772946461041105 64.6622754775403 
                               0.00071049792710039 -137.695870136591 0.000594864570255145 143.884233386893 0.107045699488889 161.151127202279 0.971220162527454 -98.4016675848497 
                               0.000751331957560827 117.528823721315 0.000772946461041124 64.6622754775367 0.971220162527454 -98.4016675848497 0.111496498783317 173.843759424393 
1.8                            0.0520831857785753 135.336956420707 0.953725207353992 -169.931643561841 0.000721490933577757 -144.994654851588 0.000760787240008324 112.864549406087 
                               0.953725207353992 -169.931643561841 0.0541945307283318 65.1094398362953 0.000580357374122558 140.882409556275 0.000802695660803967 66.1564664946088 
                               0.000721490933577761 -144.994654851588 0.00058035737412256 140.882409556274 0.1075077265677  158.246540242599 0.97064399085332 -101.211387703222 
                               0.000760787240008281 112.864549406091 0.000802695660803949 66.1564664946037 0.97064399085332 -101.211387703222 0.112187804690332 171.091427895003 
1.85                           0.0491754520550191 136.785468232999 0.952797155343415 -174.657042660689 0.000732933708498087 -152.509935574645 0.000772435119875462 108.009789884137 
                               0.952797155343416 -174.657042660689 0.0501385255486403 55.2643150842774 0.00056936549450276 138.741928646336 0.000833026667863072 66.8088430981228 
                               0.000732933708498094 -152.509935574646 0.000569365494502754 138.741928646335 0.107872838019422 155.350258932492 0.970083471919592 -104.019939471207 
                               0.000772435119875413 108.00978988414  0.000833026667863021 66.8088430981188 0.970083471919592 -104.019939471207 0.112776177873518 168.340596624168 
1.9                            0.0468880522533205 139.061672997713 0.951834436189964 -179.381938963762 0.000744712331783778 -160.270973961162 0.000785113237116826 103.083973869792 
                               0.951834436189965 -179.381938963762 0.0464810842270295 44.4042035626584 0.00056453823448723 137.123443587564 0.000859798998687086 67.0646753671741 
                               0.000744712331783787 -160.270973961162 0.000564538234487219 137.123443587563 0.10814214213462 152.462581413791 0.969538355207443 -106.827515840599 
                               0.000785113237116775 103.083973869795 0.00085979899868702 67.0646753671716 0.969538355207443 -106.827515840599 0.113262013959073 165.590769790079 
1.95                           0.0453690074360622 142.042544715172 0.950835019402193 175.893848541922 0.000756636175655195 -168.308200363362 0.000798033899434917 98.131618510251  
                               0.950835019402194 175.893848541922 0.0434070678141415 32.4326290448497 0.000565998627664902 135.667756607586 0.000883104628520689 67.197291976099  
                               0.000756636175655207 -168.308200363362 0.000565998627664891 135.667756607585 0.108317036070291 149.583917831152 0.969008038657996 -109.634303046961 
                               0.000798033899434868 98.1316185102532 0.000883104628520622 67.197291976098  0.969008038657996 -109.634303046961 0.113646134855466 162.841455170789 
2                              0.0447346796531852 145.476007333893 0.949797388044492 171.170516982474 0.000768417203175929 -176.653782416612 0.000810688349467441 93.1715970304363 
                               0.949797388044493 171.170516982474 0.0411191970429707 19.3734772871986 0.00057255694702287 134.136010462309 0.00090395957158689 67.3281455016749 
                               0.000768417203175943 -176.653782416613 0.000572556947022858 134.136010462309 0.108399198341039 146.714794348431 0.968491552546614 -112.440476280794 
                               0.000810688349467396 93.1715970304381 0.000903959571586831 67.3281455016749 0.968491552546613 -112.440476280794 0.113929772951722 160.092148908372 
2.05                           0.0450434350141529 149.0090007526   0.948720523668823 166.448275797682 0.00077964354943622 174.657257995577 0.000822733261074465 88.213662638523  
                               0.948720523668825 166.448275797682 0.0398082505949675 5.45156257471203 0.000582807777873947 132.418482195765 0.000923288009011898 67.5044178319571 
                               0.000779643549436235 174.657257995576 0.000582807777873937 132.418482195765 0.108390583609298 143.855857755693 0.967987569558526 -115.246194706127 
                               0.000822733261074426 88.2136626385244 0.000923288009011848 67.5044178319577 0.967987569558527 -115.246194706127 0.114114552083708 157.342321463278 
2.1                            0.0462808449347228 152.266232428922 0.947603883783526 161.727343579965 0.000789746294519291 165.584882859169 0.000833921511027463 83.2643322017426 
                               0.947603883783527 161.727343579965 0.0396064924013162 -8.88208799483988 0.000595624171430851 130.487708187653 0.000941762969908253 67.7418519452868 
                               0.000789746294519308 165.584882859168 0.000595624171430845 130.487708187653 0.108293419523992 141.007880824666 0.967494445198777 -118.051596391483 
                               0.000833921511027432 83.2643322017437 0.000941762969908216 67.7418519452877 0.967494445198777 -118.051596391483 0.114202465942888 154.591405003795 
2.15                           0.0483653230330185 154.941352673034 0.946447373467267 157.007945718371 0.000797957806329196 156.079868145876 0.000844062506130102 78.3291485305677 
                               0.946447373467268 157.007945718371 0.0405446332613572 -23.0450125242042 0.000610248976786742 128.3543654725   0.000959841749446248 68.0437685033128 
                               0.000797957806329212 156.079868145875 0.000610248976786738 128.3543654725   0.108110205570896 138.171768637038 0.967010288904625 -120.856793835911 
                               0.000844062506130078 78.3291485305684 0.000959841749446223 68.0437685033138 0.967010288904625 -120.856793835911 0.114195854830057 151.83878239718  
2.2                            0.0511706907133806 156.850770685356 0.945251313980237 152.290313059469 0.000803259065403734 146.075705250983 0.000852998075221322 73.413644300789  
                               0.945251313980237 152.290313059469 0.0425415815309625 -36.5081645976245 0.000626235146538036 126.040976233449 0.000977818345342021 68.4093354945803 
                               0.000803259065403747 146.075705250983 0.000626235146538035 126.04097623345  0.10784371417932 135.348566200035 0.96653306144796 -123.661870786202 
                               0.000852998075221307 73.4136443007895 0.000977818345342006 68.4093354945812 0.96653306144796 -123.661870786202 0.11409738185438 149.0837779272   
2.25                           0.0545532361933857 157.933464826104 0.94401641327038 147.574681835891 0.00080431249013471 135.472554202841 0.000860585524719691 68.5238445664537 
                               0.944016413270381 147.574681835891 0.0454349203920285 -48.9425333093323 0.000643364026052152 123.569474530375 0.000995858066785564 68.8374749856828 
                               0.000804312490134716 135.47255420284  0.000643364026052154 123.569474530375 0.107496994734451 132.539467783668 0.966060689373612 -126.466880919854 
                               0.000860585524719685 68.5238445664539 0.00099585806678556 68.8374749856833 0.966060689373612 -126.466880919854 0.113910009903082 146.325649872467 
2.3                            0.0583726332282449 158.216951979728 0.942743746499543 142.86129512226  0.000799380053875175 124.10424227854  0.00086668266994173 63.6666515681539 
                               0.942743746499544 142.86129512226  0.0490291608170686 -60.2428898515351 0.000661584702877026 120.95629161245  0.00101401110153483 69.3291719226184 
                               0.000799380053875171 124.10424227854  0.000661584702877027 120.95629161245  0.107073381763837 129.745828567309 0.965591183517781 -129.271848715192 
                               0.000866682669941734 63.6666515681538 0.00101401110153483 69.3291719226184 0.965591183517781 -129.271848715192 0.113636981049453 143.563585170529 
2.35                           0.0625033594404635 157.777299358011 0.941434759533411 138.150406007275 0.000786255151263996 111.666305116612 0.000871130768016902 58.8502954870097 
                               0.94143475953341 138.150406007275 0.0531344335401351 -70.4620014662814 0.000680982952812964 118.210741270181 0.00103220464426264 69.8894699695802 
                               0.000786255151263973 111.666305116613 0.000680982952812969 118.210741270181 0.106576509552516 126.969179363273 0.965122747150022 -132.076772489618 
                               0.000871130768016918 58.8502954870091 0.00103220464426265 69.8894699695795 0.965122747150022 -132.076772489618 0.113281800684473 140.796696629354 
2.4                            0.0668384896708149 156.708662680841 0.940091314942397 133.442282424164 0.000762396717231666 97.5457562571458 0.000873730655626315 54.0850082297203 
                               0.940091314942396 133.442282424164 0.0575859368906418 -79.7293096382511 0.000701780840133989 115.334490969748 0.00105020775871215 70.5299655810264 
                               0.000762396717231611 97.5457562571489 0.000701780840133996 115.334490969747 0.106010337051007 124.211245355069 0.964653860496045 -134.881629234059 
                               0.000873730655626345 54.0850082297193 0.00105020775871217 70.529965581025  0.964653860496045 -134.881629234059 0.112848229856004 138.024023682834 
2.45                           0.0712891096451582 155.105178081898 0.938715807763906 128.737212997271 0.000726321507787217 80.3782417134612 0.000874204519668138 49.3841343262955 
                               0.938715807763907 128.737212997271 0.0622486976616222 -88.1938594736715 0.000724372679359923 112.321062069497 0.00106755102945939 71.2726787831214 
                               0.0007263215077871 80.3782417134671 0.000724372679359929 112.321062069496 0.105379189606999 121.473969834427 0.964183332059124 -137.686380587818 
                               0.000874204519668184 49.384134326294  0.00106755102945941 71.2726787831191 0.964183332059124 -137.686380587818 0.11234029171748 135.244538896228 
2.5                            0.0757818793480925 153.052294208205 0.937311384115771 124.035512109278 0.000686455395029452 56.8500967137504 0.000872128404755891 44.7660530714993 
                               0.93731138411577 124.035512109278 0.0670151922754018 -95.9950662037566 0.000749416979424078 109.154899098223 0.00108335566851334 72.1567550221937 
                               0.000686455395029197 56.8500967137589 0.000749416979424085 109.154899098222 0.104687828490614 118.759543540288 0.963710312280519 -140.490979142597 
                               0.000872128404755955 44.7660530714972 0.00108335566851336 72.1567550221903 0.963710312280519 -140.490979142597 0.111762303042212 132.457165305984 
2.55                           0.080256187676251 150.623810293819 0.935882292117521 119.337520450901 0.000715496228693513 19.9670865860119 0.000866802287833537 40.2576379608438 
                               0.935882292117519 119.337520450901 0.0718009939945266 -103.251871033437 0.000778035551982231 105.810045313437 0.00109595561042018 73.2508716116319 
                               0.000715496228692928 19.9670865860106 0.000778035551982239 105.810045313435 0.1039415665161  116.07043863609  0.963234270302668 -143.295374254552 
                               0.000866802287833622 40.2576379608412 0.0010959556104202 73.2508716116272 0.963234270302669 -143.295374254552 0.111118952751924 129.660817089916 
2.6                            0.0846615511274398 147.881846973961 0.934434366708848 114.6435946555   0.00121930191510867 -29.2137012056975 0.000856975351517083 35.9007227790558 
                               0.934434366708847 114.6435946555   0.0765409419895585 -110.061366576023 0.000812250126964836 102.249771949347 0.0011019857564828 74.6772153186702 
                               0.00121930191510733 -29.213701205744 0.000812250126964848 102.249771949345 0.103146459820986 113.409441786795 0.962754938634291 -146.099516648616 
                               0.000856975351517195 35.9007227790524 0.00110198575648283 74.6772153186637 0.962754938634291 -146.099516648616 0.110415474226451 126.854497154475 
2.65                           0.0889554742183296 144.878086659444 0.932975577274457 109.954077240388 0.00545869205895014 -71.1022238400422 0.000840194811285163 31.764420470704  
                               0.932975577274458 109.954077240388 0.0811866487703  -116.501662849313 0.000856009436872942 98.4339695126632 0.00109389710953467 76.6567099473292 
                               0.00545869205894108 -71.1022238401822 0.000856009436872957 98.4339695126605 0.102309623305293 110.779668985063 0.962272232494509 -148.90336125338 
                               0.000840194811285312 31.7644204706998 0.00109389710953471 76.6567099473201 0.96227223249451 -148.90336125338 0.109658014451764 124.037553152932 
2.7                            0.0931017893682132 141.655408106667 0.931516437694663 105.269238738704 0.00612051332688206 98.8066946881241 0.00081101510234979 27.9662177909108 
                               0.931516437694665 105.269238738704 0.0857049411842917 -122.636689729479 0.000917852604979858 94.3664074298451 0.00105209383683779 79.5566648637258 
                               0.00612051332688355 98.8066946882033 0.00091785260497988 94.366407429842  0.101439738001512 108.184516377582 0.961786150190905 -151.706867818115 
                               0.000811015102349995 27.9662177909059 0.00105209383683786 79.5566648637122 0.961786150190905 -151.706867818115 0.108854408423353 121.210448404917 
2.75                           0.0970694185433512 138.249503843085 0.930069927409629 100.589192120366 0.00291726546788649 78.4132083380862 0.000754970267924867 24.6651824549289 
                               0.930069927409631 100.589192120366 0.0900752552994972 -128.521939032952 0.00101850297988971 90.3435311419684 0.000917321556925674 83.2800683600287 
                               0.00291726546788663 78.4132083381024 0.00101850297988975 90.343531141965  0.100547824712168 105.627437602906 0.961296658103255 -154.509998827684 
                               0.000754970267925165 24.6651824549244 0.000917321556925878 83.2800683600076 0.961296658103256 -154.509998827684 0.108015396044363 118.37755104872  
2.8                            0.100831480274916 134.690314615719 0.928650526385462 95.9137983220023 0.00223887348890041 64.1360120918357 0.000622526955426322 21.0793473480515 
                               0.928650526385463 95.9137983220023 0.0942825584912494 -134.209438210878 0.00121067908119113 88.2767941495925 0.000587408889910028 71.9064848548548 
                               0.00223887348890044 64.1360120918404 0.00121067908119122 88.27679414959   0.0996482796047979 103.111309843127 0.960803558826213 -157.312713890425 
                               0.000622526955426786 21.0793473480573 0.00058740888991055 71.9064848548574 0.960803558826213 -157.312713890425 0.107149105837448 115.55926278127  
2.85                           0.104364669130643 131.003234521718 0.927272218093304 91.2426046317044 0.00195264140215978 52.1025541683065 0.000387914747838576 -24.0661467295466 
                               0.927272218093306 91.2426046317044 0.098304956978044 -139.748301924177 0.00152367520297815 96.90245436838   0.000928626316140489 33.7670170591028 
                               0.00195264140215979 52.1025541683074 0.00152367520297823 96.9024543683808 0.0987597969779997 100.636949586061 0.96030633372427 -160.114958829057 
                               0.000387914747838326 -24.0661467294689 0.000928626316140395 33.7670170591112 0.960306333724271 -160.114958829057 0.106127789987698 112.815796306877 
2.9                            0.10764884470414 127.21009346146  0.925945916132147 86.5748643774527 0.00179859441706739 41.362429963934  0.00108266721241442 -27.2962059034454 
                               0.925945916132147 86.5748643774527 0.102104554936632 -145.178803343396 0.00136272174177996 115.564869859412 0.00130917151679653 43.9403846064816 
                               0.00179859441706739 41.3624299639334 0.00136272174177997 115.564869859409 0.0979047089005552 98.2002467777321 0.959803941624918 -162.916645441987 
                               0.00108266721241453 -27.2962059034237 0.00130917151679661 43.9403846064808 0.959803941624918 -162.916645441987 0.104720178542224 109.882801147465 
2.95                           0.110666777507911 123.329943658516 0.924677374479257 81.9096560052059 0.00170495396832533 31.4970699727462 0.0010894773878957 -15.0499147683942 
                               0.924677374479258 81.9096560052058 0.105633544703973 -150.525867382662 0.00104371431602091 114.230139603488 0.00143222755947549 50.9254565214929 
                               0.00170495396832532 31.4970699727449 0.00104371431602097 114.230139603486 0.0971032343035825 95.7882484725773 0.959294546714976 -165.717612423568 
                               0.0010894773878956 -15.0499147683773 0.00143222755947561 50.9254565214928 0.959294546714976 -165.717612423568 0.103674393018708 106.82632022952  
3                              0.113404007924011 119.379681896396 0.923466633297735 77.2460617723484 0.00164423957230903 22.2822820079651 0.00104672767727922 -14.2101476755748 
                               0.923466633297735 77.2460617723484 0.108850908141342 -155.80053620895 0.000938027809263297 106.131847171505 0.00149254500327229 54.5397179751371 
                               0.00164423957230903 22.2822820079636 0.000938027809263351 106.131847171504 0.0963588045078565 93.377978685387  0.958775163718993 -168.517543754902 
                               0.00104672767727911 -14.2101476755642 0.00149254500327239 54.5397179751372 0.958775163718993 -168.517543754902 0.10266509818338 103.828344818879 
3.05                           0.115848781449067 115.374537653224 0.922309237903937 72.5833272568666 0.00160377997104844 13.5820777076349 0.00101747156758039 -16.2978944381711 
                               0.922309237903937 72.5833272568666 0.11173234634775 -161.007824150036 0.000914011217087943 98.8831412578692 0.00153717281009286 56.5122834486706 
                               0.00160377997104843 13.5820777076334 0.000914011217087984 98.8831412578692 0.0956408794583839 90.9460910012183 0.958241382573134 -171.315780891618 
                               0.00101747156758031 -16.297894438164 0.00153717281009294 56.5122834486706 0.958241382573133 -171.315780891618 0.101614000021147 100.8292535426   
3.1                            0.117992029343252 111.328453657779 0.921198479837779 67.9209391833214 0.00157696999538821 5.30548320151743 0.000996891161214388 -19.4442052021784 
                               0.921198479837779 67.9209391833213 0.114268122716867 -166.153087489902 0.000917093700127778 92.8944537026203 0.00157742282223958 57.6041944612291 
                               0.0015769699953882 5.30548320151608 0.000917093700127808 92.8944537026204 0.0948912745318391 88.489522192539  0.957688482220879 -174.110842890534 
                               0.000996891161214321 -19.4442052021734 0.00157742282223965 57.6041944612289 0.95768848222088 -174.110842890533 0.10053113946618 97.8091351102333 
3.15                           0.119827369029578 107.254381393591 0.920127555283579 63.2586131037853 0.00156004711116242 -2.61350033859675 0.000981262838013594 -23.0694056395202 
                               0.92012755528358 63.2586131037853 0.11645642921377 -171.243990958569 0.000930306702735707 87.7465273816677 0.00161652368698289 58.1625597639939 
                               0.00156004711116242 -2.61350033859785 0.000930306702735727 87.7465273816678 0.0940653116895345 86.0344755575865 0.957122778447322 -176.899100998917 
                               0.000981262838013542 -23.0694056395167 0.00161652368698294 58.1625597639936 0.957122778447324 -176.899100998917 0.0994269462626098 94.7606665157946 
3.2                            0.121351103654505 103.164510456639 0.919090925524379 58.5962260781572 0.00155071556901687 -10.2260213831956 0.000968612996611244 -26.9415805250493 
                               0.919090925524382 58.5962260781573 0.118298482089591 -176.28997659861 0.000947695524593899 83.1179329507976 0.00165545992558235 58.3625077019218 
                               0.00155071556901686 -10.2260213831965 0.000947695524593914 83.1179329507977 0.0931635954125144 83.6179448804429 0.956644407134173 -179.671815831452 
                               0.000968612996611206 -26.9415805250468 0.00165545992558239 58.3625077019214 0.95664440713418 -179.671815831451 0.0983094307233567 91.6797748998469 
3.25                           0.122562205391035 99.0704476135848 0.918084777459671 53.9337378700336 0.00154749357553009 -17.5738274339587 0.00095787065093933 -30.951314517547 
                               0.918084777459672 53.9337378700336 0.119796317541486 178.698715144377 0.000966828344561345 78.8115682773426 0.00169446895037502 58.3006112902952 
                               0.00154749357553008 -17.5738274339594 0.000966828344561355 78.8115682773427 0.0922199448940493 81.2651870648492 0.956851599979398 177.571607069288 
                               0.000957870650939303 -30.9513145175452 0.00169446895037504 58.3006112902948 0.956851599979415 177.571607069288 0.0971853028120153 88.5634156286237 
3.3                            0.123462272421904 94.9833588716756 0.917106859433369 49.2711282450419 0.0015493774864419 -24.6923546628397 0.000948423874113287 -35.0408559219481 
                               0.91710685943337 49.271128245042  0.120952209436678 173.711701414469 0.000986546912227272 74.7081711671227 0.00173349664450022 58.0341733575883 
                               0.00154937748644189 -24.6923546628401 0.000986546912227278 74.7081711671228 0.0912733609106499 78.9850424622801 0.957710686879858 174.737539677402 
                               0.000948423874113268 -35.040855921947 0.00173349664450024 58.0341733575878 0.957710686879855 174.737539677401 0.0960606493454691 85.4089441804914 
3.35                           0.124055454991611 90.9140857370505 0.916156033329634 44.6083587111101 0.00155565751902614 -31.6125629138051 0.000939906465286624 -39.1772048074008 
                               0.916156033329634 44.6083587111101 0.121768739805272 168.738742373693 0.00100620072331179 70.734012373835  0.00177235480620832 57.5993898282166 
                               0.00155565751902614 -31.6125629138054 0.00100620072331179 70.734012373835  0.0903536935136397 76.7764760056331 0.957252101196402 171.876601679556 
                               0.000939906465286612 -39.1772048074001 0.00177235480620833 57.5993898282161 0.957252101196398 171.876601679556 0.0949412717547266 82.2139156670977 
3.4                            0.124348351244467 86.8732449692068 0.915231784642387 39.9453554186782 0.00156581090136076 -38.3620743085877 0.000932090867086744 -43.3403971510335 
                               0.91523178464239 39.9453554186782 0.12224903945978 163.769788396643 0.0010253555451203 66.8425724053446 0.00181078076669007 57.0204813348496 
                               0.00156581090136076 -38.3620743085878 0.0010253555451203 66.8425724053446 0.0894806083322083 74.6349413230205 0.956494766044318 169.051170002323 
                               0.000932090867086738 -43.3403971510332 0.00181078076669007 57.0204813348492 0.956494766044316 169.051170002323 0.0938328589516647 78.9760231486511 
3.45                           0.124349878486064 82.8713194117298 0.914333809664168 35.2820062332918 0.00157943674569083 -44.9659099144269 0.000924831245869505 -47.5178536091148 
                               0.914333809664168 35.2820062332917 0.122397024901214 158.794903518488 0.00104367285453655 63.004358338875  0.00184846164952286 56.3146302641574 
                               0.00157943674569083 -44.9659099144268 0.00104367285453655 63.004358338875  0.0886668607994811 72.5555004797114 0.955824534343307 166.239428377727 
                               0.000924831245869504 -47.5178536091149 0.00184846164952286 56.3146302641571 0.955824534343307 166.239428377727 0.0927410806459914 75.6930895189849 
3.5                            0.124071129723085 78.9187457874115 0.913461714202826 30.6181656342491 0.00159621436451666 -51.4469850647473 0.0009180315483164 -51.701426769767 
                               0.913461714202827 30.618165634249  0.12221759220662 153.804131782298 0.00106085783690893 59.2011391231988 0.00188504522523599 55.494828649642  
                               0.00159621436451665 -51.4469850647471 0.00106085783690893 59.2011391231988 0.0879213241853444 70.5337695723589 0.955228459079606 163.43188826125  
                               0.000918031548316403 -51.7014267697673 0.00188504522523599 55.4948286496418 0.955228459079607 163.43188826125  0.091671639853749 72.363083948114  
3.55                           0.123525228597437 75.026003596739  0.912614815993538 25.9536630677702 0.00161587519731216 -57.8264531732248 0.000911626680636183 -55.8857567847513 
                               0.912614815993538 25.9536630677701 0.121716774381619 148.787338577034 0.00107663779835556 55.4225877881535 0.00192014593338006 54.5716224672013 
                               0.00161587519731216 -57.8264531732245 0.00107663779835555 55.4225877881535 0.0872508686383996 68.5659523987288 0.954676633958974 160.625640037529 
                               0.00091162668063619 -55.8857567847518 0.00192014593338005 54.5716224672011 0.954676633958974 160.625640037529 0.0906303024916729 68.9841517516868 
3.6                            0.122727197954093 71.2037073614908 0.911792028675165 21.2883122137013 0.00163818283991668 -64.12394922279  0.000905570918403687 -60.0673074267421 
                               0.911792028675165 21.2883122137011 0.120901879437398 143.734039743909 0.00109075547712481 51.6642594336101 0.00195334978662418 53.5542424640127 
                               0.00163818283991667 -64.1239492227896 0.00109075547712481 51.6642594336101 0.0866613499664661 66.6486129145303 0.954150654817068 157.819673803045 
                               0.000905570918403696 -60.0673074267428 0.00195334978662416 53.5542424640126 0.954150654817068 157.819673803045 0.0896229125203952 65.5546528643873 
3.65                           0.121693858167734 67.4627023069317 0.910991804639685 16.6219198911957 0.00166291798946328 -70.3577623931171 0.000899830459844552 -64.2437776153369 
                               0.910991804639685 16.6219198911956 0.119781626042503 138.633221633581 0.00110297036513679 47.9263211118583 0.0019842199500987 52.4513772595474 
                               0.00166291798946328 -70.3577623931166 0.00110297036513678 47.9263211118583 0.086158075389288 64.7784321582241 0.9536397136782  155.013584523741 
                               0.000899830459844563 -64.2437776153377 0.00198421995009869 52.4513772595474 0.9536397136782  155.013584523741 0.0886553966516997 62.0732064338376 
3.7                            0.120443770966447 63.8141610488344 0.91021211845131 11.9542940740287 0.00168986642104148 -76.5449548153318 0.000894378422451192 -68.4137313771404 
                               0.91021211845131 11.9542940740284 0.118366290833145 133.473150955201 0.00111306460919703 44.2127039273151 0.00201230394377282 51.2717267590892 
                               0.00168986642104148 -76.5449548153313 0.00111306460919702 44.2127039273152 0.0857459941441479 62.9520194905095 0.953137119436996 152.20718956742  
                               0.000894378422451203 -68.4137313771412 0.00201230394377281 51.2717267590893 0.953137119436997 152.20718956742  0.0877337604491669 58.5387398661581 
3.75                           0.118997242825192 60.2696757832551 0.909450477644617 7.28525087231147 0.00171880888115505 -82.7014361821024 0.000889191299667362 -72.5763616040914 
                               0.909450477644617 7.28525087231137 0.116667879090294 128.241171642746 0.00112085146909035 40.5304846416937 0.00203714296874837 50.0244116038477 
                               0.00171880888115506 -82.7014361821019 0.00112085146909034 40.5304846416937 0.0854297516621599 61.1657866365705 0.952638432806634 149.400399632235 
                               0.000889191299667374 -72.5763616040922 0.00203714296874835 50.0244116038478 0.952638432806635 149.400399632235 0.086864076553433 54.9505408157784 
3.8                            0.117376399028631 56.8413366726035 0.90870395198142 2.61462051079231 0.0017495122651986 -88.8419997470627 0.000884246277987101 -76.7313406599495 
                               0.90870395198142 2.61462051079221 0.114700329096878 122.923485897936 0.00112618487187022 36.8893815773404 0.00205828354524402 48.719279876477  
                               0.0017495122651986 -88.8419997470623 0.00112618487187021 36.8893815773404 0.085213679514427 59.4158761549271 0.952140501341771 146.593169683223 
                               0.000884246277987113 -76.7313406599502 0.00205828354524401 48.7192798764772 0.952140501341772 146.593169683223 0.0860524652285444 51.3083104660198 
3.85                           0.115605335114088 53.5417823728915 0.907969215350708 -2.05774760558213 0.00178172177356443 -94.9803229711272 0.000879519024219979 -80.8787318636144 
                               0.907969215350706 -2.05774760558217 0.112479759987662 117.504917690688 0.00112896883287518 33.3012963649382 0.00207529136543231 47.3671325989264 
                               0.00178172177356444 -94.9803229711268 0.00112896883287517 33.3012963649383 0.0851017577105109 57.6981336765973 0.951640945677754 143.785478374896 
                               0.00087951902421999 -80.8787318636151 0.0020752913654323 47.3671325989266 0.951640945677756 143.785478374896 0.0853050672121349 47.6122161515982 
3.9                            0.113710346362915 50.3842027863996 0.907242596578418 -6.73198064142781 0.00181515398523956 -101.128935112523 0.000874981666017247 -85.0189486999206 
                               0.907242596578417 -6.73198064142785 0.110024773019406 111.96865947467  0.00112916565685411 29.7798633125506 0.00208776697402126 45.9798783543524 
                               0.00181515398523956 -101.128935112522 0.0011291656568541 29.7798633125507 0.0850975678457015 56.008114693876  0.95113787498327 140.977318684355 
                               0.000874981666017256 -85.0189486999212 0.00208776697402125 45.9798783543525 0.951137874983272 140.977318684355 0.0846280088434586 43.8629410205828 
3.95                           0.111720227914714 47.3822671342201 0.906520136731008 -11.4081788136584 0.0018494909866887 -107.299154111664 0.000870600745766852 -89.1527577478878 
                               0.906520136731006 -11.4081788136583 0.107356816551234 106.296007310132 0.00112680200559066 26.3399887506997 0.00209536259790419 44.5706214253045 
                               0.0018494909866887 -107.299154111664 0.00112680200559065 26.3399887506998 0.0852042465895288 54.3411184045836 0.950629723316964 138.168693332021 
                               0.000870600745766859 -89.1527577478883 0.00209536259790418 44.5706214253046 0.950629723316964 138.168693332021 0.084027359580915 40.0617280910012 
4                              0.109666627392187 44.5499426547488 0.905797651285099 -16.0864125458074 0.00188437586407313 -113.500996048807 0.00086633494975157 -93.281329555977 
                               0.9057976512851  -16.0864125458073 0.104500625121263 100.466097045665 0.00112197216901263 22.9973767275745 0.00209779918178863 43.1536854420184 
                               0.00188437586407314 -113.500996048807 0.00112197216901262 22.9973767275745 0.085424444510807 52.6922423197852 0.950115152442157 135.359612387203 
                               0.000866334949751575 -93.2813295559773 0.00209779918178863 43.1536854420185 0.950115152442157 135.359612387203 0.0835090822701208 36.210415791281  
4.05                           0.107584418058322 41.9011616417878 0.905070795976179 -20.7667202522401 0.00191941000970161 -119.743062171024 0.000862132413905451 -97.4063513738868 
                               0.905070795976177 -20.76672025224  0.101484742035252 94.4556663181952 0.00111483820241747 19.7680461529073 0.00209488249174331 41.744574613223  
                               0.00191941000970161 -119.743062171024 0.00111483820241747 19.7680461529074 0.0857602929145366 51.0564520237506 0.949592992621804 132.550091925297 
                               0.000862132413905452 -97.4063513738869 0.00209488249174331 41.744574613223  0.949592992621804 132.550091925297 0.0830789768580315 32.3114619488931 
4.1                            0.105512043092002 39.4492892438507 0.904335135359268 -25.449106726228 0.00195415279784895 -126.032410900595 0.0008579273969815 -101.530229582102 
                               0.904335135359266 -25.449106726228 0.0983421315355549 88.2388861451278 0.00110562695499792 16.6678484959306 0.00208651706792331 40.3598763354653 
                               0.00195415279784896 -126.032410900595 0.00110562695499792 16.6678484959307 0.086213380073307 49.4286608389795 0.949062205888004 129.740153212573 
                               0.000857927396981494 -101.530229582102 0.00208651706792331 40.3598763354652 0.949062205888005 129.740153212573 0.0827426186401249 28.3679532695775 
4.15                           0.103491760829327 37.2063451794216 0.903586213199748 -30.1335421168571 0.00198812422934082 -132.374425173143 0.000853636113771327 -105.656432169123 
                               0.90358621319975 -30.133542116857 0.0951108787626081 81.7873346125536 0.00109462435692071 13.7119950113537 0.00207271687585505 39.0171115395776 
                               0.00198812422934082 -132.374425173143 0.00109462435692071 13.7119950113537 0.0867847374183594 47.8038144048177 0.948521863018446 126.929822163597 
                               0.000853636113771314 -105.656432169123 0.00207271687585505 39.0171115395774 0.948521863018447 126.929822163597 0.0825052925427811 24.3835976813676 
4.2                            0.101569698441116 35.181944967411  0.902819623819298 -34.819961486316 0.0020208111006868 -138.772688596267 0.000849151589128187 -109.79006012714 
                               0.902819623819296 -34.8199614863159 0.0918349600345582 75.0702263828505 0.00108216759578977 10.9145991357111 0.00205361173435703 37.7345416941753 
                               0.00202081110068679 -138.772688596267 0.00108216759578977 10.9145991357111 0.0874748356604651 46.1769754809157 0.947971129087211 124.119128941807 
                               0.000849151589128165 -109.790060127139 0.00205361173435703 37.734541694175  0.947971129087211 124.119128941807 0.0823719253417264 20.3626975334362 
4.25                           0.0997956015616331 33.3819577186814 0.902031083487688 -39.5082649418445 0.00205167709397166 -145.2288867806  0.000844337665729599 -113.938804343685 
                               0.902031083487689 -39.5082649418444 0.0885650376548129 68.0550664689496 0.00106863595667005 8.28823455309183 0.00202944896833245 36.5309431143096 
                               0.00205167709397165 -145.2288867806  0.00106863595667005 8.28823455309164 0.0882835903340656 44.5434047280594 0.947409254488776 121.308107635062 
                               0.000844337665729565 -113.938804343684 0.00202944896833245 36.5309431143092 0.947409254488777 121.308107635062 0.0823470180548527 16.3101025384049 
4.3                            0.098222157270333 31.8069349557048 0.901216500900713 -44.1983183361423 0.00208017688961802 -151.742752121945 0.000839023126848963 -118.11456426491 
                               0.901216500900713 -44.1983183361421 0.0853591864483912 60.7089602749662 0.00105444110798848 5.8435042073048  0.00200059019583536 35.4253594024729 
                               0.00208017688961801 -151.742752121946 0.00105444110798848 5.84350420730461 0.0892103758670664 42.8986338309882 0.946835569506438 118.496795969213 
                               0.000839023126848915 -118.114564264909 0.00200059019583535 35.4253594024725 0.946835569506438 118.496795969213 0.0824345809782441 12.2311424877259 
4.35                           0.0969037785402307 30.4504505467488 0.900372045734267 -48.8899545269931 0.00210577397848851 -158.312070558622 0.000832999172719888 -122.336211801248 
                               0.900372045734268 -48.889954526993 0.0822833878308297 53.0008665217746 0.00104001750206431 3.58861209577806 0.00196750363773192 34.43684100451   
                               0.0021057739784885 -158.312070558622 0.00104001750206431 3.58861209577775 0.0902540469717844 41.2385280945261 0.946249481193359 115.685235039206 
                               0.00083299917271982 -122.336211801247 0.00196750363773191 34.4368410045095 0.94624948119336 115.685235039206 0.0826380739173521 8.13154107059137 
4.4                            0.0958947825190939 29.2975961372109 0.899494214226563 -53.582975181783 0.00212796132842764 -164.932766700304 0.000826029446801872 -126.634315087494 
                               0.899494214226565 -53.5829751817828 0.0794115307849851 44.9050835513959 0.00102581335957292 1.52892974169956 0.00193075275465061 33.584176863986  
                               0.00212796132842763 -164.932766700304 0.00102581335957292 1.5289297416992  0.091412965937933 39.5593365153507 0.945650471759861 112.87346904623  
                               0.00082602944680178 -126.634315087493 0.0019307527546506 33.5841768639855 0.945650471759863 112.87346904623  0.082960354072368 4.01731346822109 
4.45                           0.0952469820518921 28.3239711430893 0.898579890722326 -58.277153106021 0.00214628351739827 -171.599078798415 0.000817896811694183 -131.059037230198 
                               0.898579890722328 -58.2771531060208 0.0768245517067816 36.4061370809728 0.0010122824695264 -0.33344588272731 0.00189098230063017 32.8856172700479 
                               0.00214628351739825 -171.599078798415 0.0010122824695264 -0.333445882727732 0.0926850342925629 37.8577282380946 0.945038097926978 110.061545034475 
                               0.00081789681169406 -131.059037230198 0.00189098230063016 32.8856172700474 0.945038097926978 110.061545034475 0.0834036337572545 -0.105348365456656 
4.5                            0.0950068368868265 27.4955438130768 0.897626404120312 -62.9722350673682 0.00216035848733806 -178.303827371933 0.000808546665587876 -135.692315880282 
                               0.897626404120312 -62.9722350673681 0.0746082698400321 27.5048873929126 0.000999876808945363 -2.00013592038515 0.00184890299303703 32.3585798759795 
                               0.00216035848733804 -178.303827371934 0.000999876808945365 -2.0001359203857 0.0940677272740854 36.1308151737018 0.944411990876757 107.249512624014 
                               0.000808546665587717 -135.692315880285 0.00184890299303701 32.358579875979  0.944411990876758 107.249512624014 0.083969449676756 -4.23019783432457 
4.55                           0.0952124545834151 26.7696874619104 0.896631578201882 -67.667945078498 0.00216989681796233 174.961228364957 0.000798459464807915 -140.66206636185 
                               0.896631578201882 -67.6679450784979 0.0728495154698253 18.2250258366374 0.000989039810566749 -3.47690240186958 0.00180527592469134 32.0193235478667 
                               0.00216989681796231 174.961228364957 0.00098903981056675 -3.47690240187012 0.0955581296393172 34.3761613263184 0.943771856541415 104.437423738063 
                               0.000798459464807723 -140.662066361856 0.00180527592469132 32.0193235478663 0.943771856541416 104.437423738063 0.0846586448884435 -8.35105772012616 
4.6                            0.0958908459037772 26.0974878090763 0.895593774885564 -72.3639880937569 0.0021747164650943 168.204962441403 0.000789472704463544 -146.140179068367 
                               0.895593774885567 -72.3639880937567 0.0716304135484547 8.61827578863655 0.000980200011581029 -4.77400977128695 0.00176089760972847 31.8825685676774 
                               0.00217471646509427 168.204962441402 0.000980200011581029 -4.77400977128754 0.0971529714683392 32.5917799959376 0.943117476047955 101.625332323963 
                               0.000789472704463337 -146.140179068379 0.00176089760972845 31.8825685676771 0.943117476047956 101.625332323963 0.0854713638897407 -12.4619404040984 
4.65                           0.0970558717427909 25.4271088379128 0.894511929550051 -77.0600540664817 0.00217475129438893 161.436407778091 0.000786074117271673 -152.260503098639 
                               0.894511929550052 -77.0600540664816 0.0710212399532407 -1.23404250150043 0.000973764815284894 -5.90646732091702 0.00171658620667043 31.9610385135423 
                               0.00217475129438891 161.436407778091 0.000973764815284894 -5.90646732091764 0.0988486628318353 30.7761204720545 0.942448706185782 98.8132940679327 
                               0.000786074117271509 -152.26050309866 0.00171658620667041 31.961038513542  0.942448706185783 98.8132940679327 0.0864070605570292 -16.5571589111767 
4.7                            0.0987072339052416 24.7076997768334 0.893385577694849 -81.7558223063068 0.00217005242917958 154.66426713362  0.000795674075308732 -158.85865078622 
                               0.893385577694851 -81.7558223063067 0.0710730048325078 -11.2251950465752 0.000970114187428403 -6.89408347717069 0.00167316906104189 32.2649010085319 
                               0.00217005242917956 154.66426713362  0.000970114187428403 -6.89408347717133 0.100641326417779 28.9280461041291 0.94176547980011 96.0013661040947 
                               0.000795674075308707 -158.858650786247 0.00167316906104186 32.2649010085317 0.941765479800109 96.0013661040948 0.0874645179919802 -20.6314241412341 
4.75                           0.1008306710491  23.8931548928305 0.892214872360221 -86.4509660692202 0.00216078230208961 147.896442947118 0.000823793058293216 -165.20572720676 
                               0.892214872360226 -86.4509660692202 0.0718114848676216 -21.2334682376293 0.000969594268310626 -7.7612639235902 0.00163147132047327 32.8010939025873 
                               0.00216078230208958 147.896442947118 0.000969594268310623 -7.76126392359087 0.102526827458143 27.0468057405775 0.941067806039119 93.1896067186059 
                               0.000823793058293382 -165.205727206785 0.00163147132047324 32.8010939025872 0.94106780603912 93.1896067186059 0.0886418787587525 -24.6799247340524 
4.8                            0.103399283391178 22.9450818463604 0.891000591901952 -91.1451573077736 0.00214720218512328 141.139617020233 0.000865504144015594 -170.437543629291 
                               0.891000591901954 -91.1451573077735 0.0732343705635899 -31.1367931584332 0.000972511070893228 -8.53650366849041 0.00159230506139038 33.5725426788934 
                               0.00214720218512326 141.139617020232 0.000972511070893225 -8.53650366849106 0.104500800533928 25.1320004946444 0.940355770401083 90.3780750499701 
                               0.000865504144015878 -170.437543629305 0.00159230506139035 33.5725426788934 0.940355770401083 90.3780750499702 0.089936683569035 -28.6983873026094 
4.85                           0.106375706177875 21.8345723946088 0.889744137906244 -95.838071504978 0.00212965470063397 134.398904242228 0.000907610748058767 -174.437858291962 
                               0.889744137906247 -95.838071504978 0.0753123417691808 -40.8274645265591 0.000979124602244819 -9.25155934156056 0.00155645818859654 34.5773052995735 
                               0.00212965470063394 134.398904242228 0.000979124602244816 -9.25155934156116 0.10655867305451 23.1835476549735 0.939629534540995 87.5668307867956 
                               0.00090761074805904 -174.437858291965 0.00155645818859652 34.5773052995736 0.939629534540995 87.5668307867957 0.0913459162144489 -32.6831161157612 
4.9                            0.109714743466508 20.5426921793308 0.888447523229198 -100.529392513192 0.00210854326002475 127.677595149862 0.000941086817043702 -177.748821857588 
                               0.888447523229197 -100.529392513192 0.0779936097289292 -50.2228105345141 0.000989643837409563 -9.94033726452374 0.00152468238153999 35.8077210804552 
                               0.00210854326002473 127.677595149861 0.000989643837409558 -9.94033726452439 0.108695685395862 21.2016433448561 0.938889335806492 84.7559338644204 
                               0.0009410868170439 -177.748821857586 0.00152468238153998 35.8077210804554 0.938889335806492 84.7559338644204 0.0928660524607501 -36.6310125789421 
4.95                           0.113366075245666 19.0598858736645 0.887113350346926 -105.218817318859 0.00208431048872346 120.976991855916 0.000964936871544466 179.106167428694 
                               0.887113350346927 -105.218817318859 0.0812104682281548 -59.2696449067331 0.00100422295401327 -10.6375841779518 0.00149767960281587 37.2496846739403 
                               0.00208431048872344 120.976991855915 0.00100422295401326 -10.6375841779524 0.110906907836607 19.1867252787075 0.938135486480445 81.9454441619706 
                               0.000964936871544591 179.106167428697 0.00149767960281585 37.2496846739405 0.938135486480445 81.9454441619705 0.0944931106900358 -40.53957594079  
5                              0.11727673434199 17.384650280469  0.885744780399374 -109.9060606553  0.00205741750485064 114.296332529175 0.000981800322054155 175.866965241503 
                               0.885744780399376 -109.9060606553  0.08488614745903 -67.9429089398661 0.00102295909686871 -11.3775067556958 0.00147608716055451 38.8822029589306 
                               0.00205741750485063 114.296332529175 0.00102295909686871 -11.3775067556962 0.113187254549617 17.1394366942391 0.937368372713534 79.1354212015566 
                               0.000981800322054228 175.866965241506 0.00147608716055449 38.8822029589309 0.937368372713534 79.1354212015566 0.0962227022765138 -44.4068874744719 
5.05                           0.121393168147748 15.5218524266387 0.884345493496161 -114.590859388932 0.00202832551320888 107.632792448601 0.000994462083182444 172.454380212323 
                               0.884345493496164 -114.590859388932 0.0889406899490184 -76.2405769093732 0.00104589171682109 -12.1924610773265 0.00146046197224447 40.6774044890971 
                               0.00202832551320886 107.632792448601 0.00104589171682109 -12.1924610773268 0.115531494991407 15.0605922750047 0.936588453134453 76.3259238514524 
                               0.000994462083182485 172.454380212326 0.00146046197224446 40.6774044890974 0.936588453134453 76.3259238514524 0.0980500799715953 -48.2315809164421 
5.1                            0.125662813073969 13.481003070372  0.882919641020147 -119.27297660907 0.00199748066825005 100.981545313024 0.00100488014819889 168.866408799397 
                               0.882919641020147 -119.27297660907 0.0932952555622758 -84.1771785260992 0.00107300327898707 -13.1118390960121 0.00145126537945347 42.6011407348053 
                               0.00199748066825004 100.981545313024 0.00107300327898706 -13.1118390960124 0.117934263084946 12.9511466352583 0.935796257128527 73.5170100352587 
                               0.00100488014819891 168.866408799398 0.00145126537945347 42.6011407348056 0.935796257128527 73.5170100352587 0.0999701829170607 -52.0128022008066 
5.15                           0.130035193991918 11.2746920470267 0.881471790808074 -123.952205357883 0.00196530265399397 94.3358669601164 0.00101426229833142 165.124493004206 
                               0.881471790808075 -123.952205357883 0.0978748384346616 -91.7776585937902 0.00110422093281101 -14.1612402546525 0.00144885040632069 44.6142370161461 
                               0.00196530265399396 94.3358669601165 0.001104220932811 -14.1612402546527 0.12039006461788 10.812165726409  0.934992382777314 70.7087364492302 
                               0.00101426229833143 165.124493004207 0.00144885040632069 44.6142370161463 0.934992382777314 70.7087364492302 0.101977677266391 -55.750161540344 
5.2                            0.13446261147632 8.91729155380511 0.880006866203278 -128.628371944659 0.001932177000716 87.6872644723698 0.0010233222437052 161.252855907793 
                               0.880006866203279 -128.628371944659 0.102609694515337 -99.0724369373392 0.00113941863473912 -15.3619645817502 0.00145345351890437 46.6743284577964 
                               0.001932177000716 87.6872644723699 0.00113941863473911 -15.3619645817504 0.122893283282221 8.6448013461429  0.934177494452233 67.9011582901698 
                               0.00102332224370521 161.252855907794 0.00145345351890437 46.6743284577966 0.934177494452234 67.9011582901698 0.104066991746656 -59.4436807277717 
5.25                           0.138900501770405 6.42395739307434 0.878530080059653 -133.301338797292 0.00189845084633836 81.0256161331324 0.00103247954296589 157.272211859555 
                               0.878530080059652 -133.301338797292 0.107435867264039 -106.093871376633 0.00117841923677754 -16.7308130350249 0.00146519258443289 48.7380837727466 
                               0.00189845084633836 81.0256161331325 0.00117841923677753 -16.730813035025 0.125438185767521 6.4502687881848  0.933352320054069 65.0943289965559 
                               0.00103247954296589 157.272211859555 0.00146519258443288 48.7380837727467 0.933352320054069 65.0943289965559 0.106232347817658 -63.093738220985 
5.3                            0.143307557117342 3.80991052795134 0.877046864827182 -137.971006813289 0.00186443166100597 74.3393111311657 0.00104198434968126 153.198686683717 
                               0.877046864827181 -137.971006813289 0.112295157879181 -112.873964827309 0.00122099618989068 -18.2801428749247 0.00148407187333743 50.7635210857743 
                               0.00186443166100597 74.3393111311657 0.00122099618989068 -18.2801428749248 0.12801892629154 4.2298275608691  0.932517647886809 62.2883000059201 
                               0.00104198434968126 153.198686683717 0.00148407187333743 50.7635210857743 0.932517647886809 62.28830000592   0.108467784370934 -66.701014188853 
5.35                           0.147645685866721 1.08995735861694 0.875562799866626 -142.637317182471 0.00183038836968754 67.6153817038447 0.00105198993900497 149.044337096029 
                               0.875562799866625 -142.637317182471 0.117134798378888 -119.443027775861 0.00126687472520321 -20.0181058545859 0.00150999380734964 52.7120922845702 
                               0.00183038836968754 67.6153817038447 0.00126687472520321 -20.0181058545859 0.130629550913682 1.98476502273184 0.931674323148188 59.4831205319356 
                               0.00105198993900497 149.044337096028 0.00150999380734964 52.7120922845701 0.931674323148188 59.4831205319356 0.110767177155389 -70.2664372764197 
5.4                            0.151879878663576 -1.72180053167817 0.87408353712529 -147.300252663419 0.00179655430115876 60.8396241448381 0.0010625940363468 144.817999123025 
                               0.874083537125291 -147.300252663419 0.121906998287076 -125.829007726441 0.00131573262365511 -21.9489944600682 0.00154277606339187 54.5502662704098 
                               0.00179655430115877 60.8396241448382 0.00131573262365511 -21.9489944600682 0.133264001929525 -0.283617271048181 0.930823244008866 56.6788373652561 
                               0.0010625940363468 144.817999123025 0.00154277606339186 54.5502662704097 0.930823244008866 56.6788373652562 0.113124253320738 -73.7911344355049 
5.45                           0.15597803277213 -4.61211458157366 0.872614726259262 -151.959838305388 0.00176313143015966 53.9967085554797 0.00107386237102286 140.526071035606 
                               0.872614726259261 -151.959838305388 0.126568467039049 -132.057250744244 0.00136720092337117 -24.0736318451231 0.00158217189644521 56.2504555372311 
                               0.00176313143015968 53.9967085554797 0.00136720092337117 -24.0736318451231 0.135916122591615 -2.57401475089905 0.929965357236204 53.8754947028944 
                               0.00107386237102286 140.526071035606 0.0015821718964452 56.250455537231  0.929965357236203 53.8754947028944 0.115532601639231 -77.2763847824557 
5.5                            0.159910773100278 -7.56863645693243 0.871161940213123 -156.616141616344 0.00173029543191247 47.0702803197488 0.00108584220238356 136.173140620521 
                               0.871161940213123 -156.616141616344 0.13107996701428 -138.150523854409 0.00142086510821929 -26.3897586412786 0.00162789128805126 57.7912627967766 
                               0.00173029543191248 47.0702803197487 0.00142086510821929 -26.3897586412786 0.138579662343277 -4.88512880016433 0.929101653293575 51.0731340119108 
                               0.00108584220238356 136.17314062052  0.00162789128805125 57.7912627967764 0.929101653293575 51.0731340119107 0.117985679105359 -80.7235781023349 
5.55                           0.163651296583457 -10.5798974846244 0.869730602170212 -161.269272185864 0.00169820110614076 40.0430590785218 0.00109857015158607 131.762462503493 
                               0.869730602170212 -161.269272185864 0.135405922476843 -144.129182265932 0.00147626744327972 -28.8923892501054 0.00167962069907805 59.1571334306597 
                               0.00169820110614078 40.0430590785218 0.00147626744327972 -28.8923892501054 0.141248282689274 -7.21567376830279 0.92823316080846 48.2717939344254 
                               0.00109857015158607 131.762462503493 0.00167962069907805 59.1571334306595 0.92823316080846 48.2717939344254 0.120476814725615 -84.1341783228346 
5.6                            0.167175256474557 -13.6352459454869 0.868325914670052 -165.919380778236 0.00166698772362907 32.8969436160887 0.00111207675156055 127.296314857334 
                               0.868325914670051 -165.919380778236 0.139514092527103 -150.011407127449 0.00153291115172781 -31.5741278345131 0.00173703958274237 60.3375612369492 
                               0.00166698772362909 32.8969436160885 0.00153291115172781 -31.5741278345131 0.143915563759601 -9.56438228671187 0.927360940244672 45.4715102425425 
                               0.00111207675156055 127.296314857334 0.00173703958274236 60.3375612369491 0.927360940244672 45.4715102425425 0.122999211395171 -87.5096920303768 
5.65                           0.170460694724501 -16.7247612355105 0.86695279156101 -170.566657916185 0.00163678377097044 25.6131338353621 0.00112638906801971 122.776265311207 
                               0.866952791561009 -170.566657916185 0.143375307048994 -155.81346865828 0.00159026704705461 -34.4254479267276 0.00179983209249301 61.3260071446061 
                               0.00163678377097046 25.613133835362  0.00159026704705462 -34.4254479267276 0.146575011550448 -11.9300091346899 0.9264860765257  42.672315853665  
                               0.00112638906801971 122.776265311206 0.001799832092493 61.3260071446061 0.926486076525699 42.6723158536649 0.125545946809965 -90.8516418903599 
5.7                            0.173488023899845 -19.8391584800107 0.865615793322837 -175.211331978677 0.00160771037658793 18.1722844895909 0.00114153215937171 118.203370319057 
                               0.865615793322837 -175.211331978676 0.146963260393665 -161.549988776661 0.00164778303694696 -37.4349485207388 0.00186769226915346 62.1186676815815 
                               0.00160771037658795 18.1722844895909 0.00164778303694697 -37.4349485207388 0.149220065748878 -14.3113338918922 0.92560967021952 39.874240918797  
                               0.00114153215937171 118.203370319056 0.00186769226915345 62.1186676815814 0.925609670219519 39.874240918797  0.128109974369426 -94.1615446569848 
5.75                           0.176240054844033 -22.9696929140154 0.864319066164355 -179.853666837077 0.00157988233091434 10.5547109908995 0.00115752981741845 113.578326207599 
                               0.864319066164355 -179.853666837076 0.150254356070485 -167.234189589585 0.00170489660656069 -40.5896036816203 0.00194032005740199 62.7131944926558 
                               0.00157988233091436 10.5547109908993 0.0017048966065607 -40.5896036816203 0.15184410796513 -16.707162603609 0.924732826682636 37.0773129984175 
                               0.00115752981741845 113.578326207599 0.00194032005740199 62.7131944926558 0.924732826682635 37.0773129984176 0.130684124969292 -97.440893309247 
5.8                            0.17870206244824 -26.108070070118 0.863066285186665 175.506040947579 0.00155340497080636 2.74067900943164 0.00117440484670767 108.901585129472 
                               0.863066285186666 175.506040947579 0.153227595714469 -172.87812160491 0.001761049995269 -43.8750225255009 0.00201740338288197 63.1074445108969 
                               0.00155340497080638 2.74067900943154 0.00176104999526901 -43.8750225255008 0.154440470109327 -19.1163286794546 0.923856642226729 34.2815573413882 
                               0.00117440484670767 108.901585129471 0.00201740338288197 63.1074445108969 0.923856642226728 34.2815573413881 0.133261110441707 -100.691142723033 
5.85                           0.180861879376305 -29.2463653657072 0.861860601814225 170.867465347477 0.00152836414998918 -5.28916435284123 0.00119217903514305 104.173445382938 
                               0.861860601814227 170.867465347477 0.155864506291599 -178.492869943832 0.00181570735143553 -47.2757326547234 0.00209857787842839 63.2983662888806 
                               0.00152836414998919 -5.28916435284121 0.00181570735143554 -47.2757326547234 0.157002442560623 -21.5376932480536 0.922982185841506 31.4869972798562 
                               0.00119217903514305 104.173445382938 0.00209857787842839 63.2983662888805 0.922982185841504 31.486997279856  0.135833529139971 -103.913698180249 
5.9                            0.18271000630702 -32.3769548941169 0.860704595649012 166.230254498571 0.00150480493304147 -13.5530974512991 0.00121087290758921 99.3941228335518 
                               0.860704595649012 166.230254498571 0.158149100452404 175.911260688613 0.00186837275377672 -50.7754937811569 0.00218335104494756 63.2812525438362 
                               0.00150480493304148 -13.553097451299 0.00186837275377673 -50.7754937811568 0.15952328169261 -23.9701452039669 0.922110474161798 28.693654741985  
                               0.00121087290758921 99.3941228335518 0.00218335104494756 63.281252543836  0.922110474161798 28.693654741985  0.138393873746391 -107.109905920215 
5.95                           0.184239727114847 -35.4924579688146 0.859600230912468 161.594034734211 0.00148269263636036 -22.0670982067821 0.00123050531885017 94.5638082334975 
                               0.859600230912468 161.594034734211 0.160067865914397 170.324580226204 0.00191860770373929 -54.3576405698497 0.0022709748836156 63.0498834232056 
                               0.00148269263636036 -22.0670982067818 0.0019186077037393 -54.3576405698496 0.161996216251769 -26.4126012128489 0.921242436016954 25.9015508529244 
                               0.00123050531885018 94.5638082334976 0.0022709748836156 63.0498834232053 0.921242436016953 25.9015508529243 0.140934540742255 -110.281044851109 
6                              0.185447218265303 -38.5856911480689 0.858548817721359 156.958415026007 0.00146184867234815 -30.842463277853 0.00125109292202017 89.6827138632676 
                               0.858548817721361 156.958415026008 0.161609780629071 164.737864028847 0.00196604658976073 -58.0054460587136 0.00236026148787914 62.5985853244666 
                               0.00146184867234815 -30.8424632778523 0.00196604658976073 -58.0054460587135 0.164414452058513 -28.8640059913662 0.920378860760452 23.1107065170302 
                               0.00125109292202017 89.6827138632678 0.00236026148787914 62.5985853244661 0.920378860760452 23.1107065170301 0.143447840016558 -113.428318453355 
6.05                           0.186331643359993 -41.6496330082501 0.857550978610408 152.322991843979 0.00144185892614064 -39.8808871397767 0.00127264953684071 84.751111951924  
                               0.85755097861041 152.322991843979 0.162766351219949 159.142217443241 0.00201040874006037 -61.7024907008585 0.00244938528450113 61.9276910975434 
                               0.00144185892614064 -39.8808871397755 0.00201040874006038 -61.7024907008584 0.166771174551497 -31.3233332537673 0.91952032127527 20.3211426946868 
                               0.00127264953684071 84.7511119519242 0.00244938528450111 61.9276910975428 0.919520321275269 20.3211426946867 0.145926001617336 -116.552845815776 
6.1                            0.186895225982765 -44.6773987854578 0.856606620973719 147.687354452987 0.00142198282555511 -49.1642278271823 0.00129518543690895 79.7693666462735 
                               0.856606620973721 147.687354452987 0.163531672751669 153.528951424434 0.00205150600959775 -65.4330182159252 0.00253583278755585 61.053230749199  
                               0.00142198282555511 -49.1642278271803 0.00205150600959776 -65.433018215925 0.169059548886641 -33.7895878184009 0.918667057787801 17.5328796832743 
                               0.00129518543690895 79.7693666462738 0.00253583278755583 61.0532307491984 0.9186670577878  17.5328796832741 0.148361174304938 -119.655650650162 
6.15                           0.187143296484015 -47.662224128335 0.855714916444463 143.05109066166  0.00140119446213645 -58.6348778009199 0.00131870657234012 74.7379608105509 
                               0.855714916444463 143.05109066166  0.163902508312278 147.88946672922  0.00208924533533332 -69.182258624434 0.00261679900303984 60.0178288977423 
                               0.00140119446213646 -58.6348778009173 0.00208924533533333 -69.1822586244338 0.171272717723463 -36.2618094891523 0.91781880292764 14.745933825657  
                               0.00131870657234013 74.7379608105512 0.00261679900303981 60.017828897742  0.91781880292764 14.7459338256569 0.150745406639213 -122.737647067218 
6.2                            0.187084310783265 -50.5974575664237 0.854874288646669 138.413793030296 0.00137872008756974 -68.1668441305219 0.00134321374454958 69.6575185866994 
                               0.854874288646671 138.413793030296 0.163878387175032 142.215144515016 0.00212362625266851 -72.9367010668294 0.00269022394625726 58.8927025030862 
                               0.00137872008756978 -68.1668441305191 0.00212362625266852 -72.9367010668291 0.17340379760533 -38.7390794485486 0.916974525838439 11.9603081837241 
                               0.00134321374454959 69.6575185866998 0.00269022394625722 58.8927025030861 0.916974525838439 11.960308183724  0.153070594413308 -125.799621018937 
6.25                           0.186729841360513 -53.4765618649238 0.854082411190051 133.775065522512 0.00135558741380965 -77.5534826902055 0.00136870175137915 64.5288243888623 
                               0.854082411190051 133.775065522513 0.163461720466528 136.497241590953 0.00215473389326958 -76.6843036872865 0.00275600685290808 57.7592476387824 
                               0.00135558741380971 -77.5534826902034 0.00215473389326959 -76.6843036872862 0.17544587610861 -41.2205299754263 0.916132089268561 9.17596993230768 
                               0.00136870175137916 64.5288243888627 0.00275600685290805 57.7592476387826 0.916132089268561 9.17596993230754 0.155328365550677 -128.842207120003 
6.3                            0.186094542063391 -56.2931251697683 0.853336218167609 129.134530549319 0.00133661577083099 -86.5868648812628 0.00139515852326748 59.3528388146186 
                               0.853336218167607 129.134530549319 0.162657933314248 130.726789091032 0.00218272839250856 -80.4146339952832 0.00281626420852347 56.6754518684962 
                               0.00133661577083106 -86.5868648812624 0.00218272839250856 -80.4146339952828 0.177392013814139 -43.7053582449892 0.91528789799995 6.39280063819146 
                               0.00139515852326749 59.3528388146191 0.00281626420852346 56.6754518684965 0.91528789799995 6.39280063819137 0.157509849712929 -131.865863571476 
6.35                           0.185196088952219 -59.040883697383 0.852631929660988 124.491836303341 0.00132943634218251 -95.2510344640487 0.00142256427407743 54.1307118091975 
                               0.852631929660987 124.491836303341 0.161475612378352 124.894494017258 0.00220783186937718 -84.1189395662758 0.00287413116215316 55.653668334861  
                               0.00132943634218256 -95.2510344640499 0.00220783186937718 -84.1189395662753 0.179235257629628 -46.1928446455945 0.914436897167883 3.61049833003958 
                               0.00142256427407744 54.130711809198  0.00287413116215316 55.6536683348611 0.914436897167884 3.61049833003944 0.159605235061925 -134.870857601246 
6.4                            0.184055098986186 -61.7137586254584 0.851965094749453 119.846664217349 0.00133884058623184 -103.789824616216 0.00145089069309863 48.8637933035666 
                               0.851965094749452 119.846664217349 0.159926667472633 118.990644004815 0.00223031419051567 -87.7901546903542 0.00293213333748467 54.6676517733857 
                               0.00133884058623184 -103.789824616218 0.00223031419051568 -87.7901546903538 0.180968674735494 -48.6823752707468 0.913573967181994 0.828420024803401 
                               0.00145089069309864 48.8637933035671 0.00293213333748468 54.6676517733856 0.913573967181996 0.828420024803402 0.16160293508346 -137.857303276031 
6.45                           0.182695026859963 -64.305910704107 0.851330654148357 115.198736311001 0.0013633645301464 -112.472571559422 0.00148010020717924 43.5536414544779 
                               0.851330654148356 115.198736311001 0.158026505606036 113.005016891892 0.00225047861730664 -91.4228529210911 0.00299138830072115 53.6767520939824 
                               0.00136336453014637 -112.472571559422 0.00225047861730664 -91.4228529210906 0.182585418538443 -51.1734668345443 0.912698705026795 -1.9545595725957 
                               0.00148010020717925 43.5536414544784 0.00299138830072115 53.6767520939822 0.912698705026795 -1.95455957259565 0.163488076242211 -140.825380006365 
6.5                            0.181142037774289 -66.8118168071618 0.850723023797562 110.547822122442 0.00139839592761639 -121.385396784173 0.00151014534340928 38.2020285404516 
                               0.850723023797559 110.547822122442 0.155794215150266 106.926798366687 0.00226864820829828 -95.0131580999855 0.00305176598384835 52.6457438333263 
                               0.00139839592761635 -121.385396784173 0.00226864820829829 -95.013158099985 0.184078837804875 -53.6657901615772 0.911824377942381 -4.73986103970374 
                               0.00151014534340929 38.2020285404521 0.00305176598384835 52.6457438333259 0.911824377942381 -4.73986103970369 0.165240020712004 -143.776100944666 
6.55                           0.179424850527107 -69.2263730148143 0.850136199468519 105.89374486993  0.00144002639528205 -130.463684746122 0.00154096822273558 32.8109445127188 
                               0.850136199468517 105.89374486993  0.153252756830659 100.744513281282 0.00228515356271788 -98.5586273707735 0.0031124195223835 51.5524474716019 
                               0.00144002639528202 -130.463684746121 0.00228515356271789 -98.5586273707729 0.185442635233452 -56.1591859157804 0.910983231326304 -7.52827111362701 
                               0.00154096822273559 32.8109445127193 0.00311241952238349 51.5524474716015 0.910983231326303 -7.52827111362695 0.16682967136815 -146.713572592325 
6.6                            0.177574541337033 -71.5450286463939 0.849563880839182 101.236386466352 0.00148603686757106 -139.598204137045 0.00157250021274935 27.3825981687538 
                               0.849563880839177 101.236386466352 0.150429156647042 94.4459793641473 0.00230032219143819 -102.058119230161 0.00317223728346604 50.3870271403044 
                               0.00148603686757104 -139.598204137043 0.0023003221914382 -102.05811923016 0.186671069940776 -58.6536642501902 0.91021189768804 -10.3188139886625 
                               0.00157250021274936 27.3825981687542 0.00317223728346603 50.387027140304  0.910211897688037 -10.3188139886625 0.168223026749471 -149.650330368132 
6.65                           0.175624294702921 -73.7639546847135 0.848999611675982 96.5756910277463 0.00153536992133477 -148.691892660425 0.00160466176303176 21.9194159167902 
                               0.848999611675979 96.5756910277462 0.147354693370593 88.0182962379795 0.00231446952039498 -105.511658166029 0.00323010118265791 49.1484731809567 
                               0.00153536992133476 -148.691892660424 0.00231446952039498 -105.511658166028 0.187759179679366 -61.1493801111351 0.909523543183346 -13.1091601587329 
                               0.00160466176303177 21.9194159167906 0.00323010118265789 49.1484731809563 0.909523543183344 -13.1091601587329 0.16941341454471 -152.613825538941 
6.7                            0.173609083976847 -75.8802479632694 0.848436931020384 91.911666581105  0.00158752128583866 -157.673278375391 0.00163736243822069 16.4240381454917 
                               0.848436931020384 91.911666581105  0.144065069540477 81.4478880261819 0.00232789127962647 -108.920305249739 0.00328499839140275 47.8412299945732 
                               0.00158752128583866 -157.67327837539 0.00232789127962648 -108.920305249739 0.188702977739008 -63.6465796692888 0.908902579342421 -15.8974363875221 
                               0.0016373624382207 16.424038145492  0.00328499839140273 47.841229994573  0.908902579342418 -15.8974363875222 0.170494550004954 -155.633285916328 
6.75                           0.171565261975294 -77.8921690579217 0.847869528897202 87.2443847840009 0.00164219593739065 -166.493865850296 0.00167050115167868 10.8993133217126 
                               0.8478695288972  87.2443847840009 0.140600549408679 74.7206244380659 0.00234085680109118 -112.286041338073 0.00333605488202139 46.4728091757948 
                               0.00164219593739065 -166.493865850295 0.00234085680109119 -112.286041338072 0.189499566560098 -66.1455213153757 0.908324668969647 -18.6831291930271 
                               0.00167050115167869 10.8993133217129 0.00333605488202137 46.4728091757946 0.908324668969645 -18.6831291930272 0.171633852889488 -158.689897350328 
6.8                            0.169530041822062 -79.799406875667 0.847291399304995 82.5739786067217 0.00169916197118684 -175.122631084129 0.00170396658550073 5.34829013578347 
                               0.847291399304993 82.5739786067217 0.137006039503313 67.8220527634321 0.00235360251497177 -115.611666125908 0.0033825362082598 45.0523162687487 
                               0.00169916197118684 -175.122631084128 0.00235360251497178 -115.611666125908 0.1901471171087  -68.6463848703556 0.907772444231129 -21.4666303701412 
                               0.00170396658550074 5.3482901357837  0.00338253620825978 45.0523162687486 0.907772444231129 -21.4666303701412 0.172855551759814 -161.721134212787 
6.85                           0.167540851328701 -81.6033565393078 0.846696983276413 77.9006380771258 0.00175820327668625 176.45868699891  0.00173763775954443 -0.225791666866113 
                               0.84669698327641 77.9006380771258 0.133331076915888 60.7377807588431 0.00236632465648414 -118.900711391312 0.00342383818444515 43.589606416983  
                               0.00175820327668626 176.458686998911 0.00236632465648414 -118.900711391312 0.190644695336529 -71.1491904642722 0.907237677380099 -24.2485802419075 
                               0.00173763775954443 -0.225791666865942 0.00342383818444513 43.5896064169829 0.907237677380097 -24.2485802419076 0.174034452394873 -164.697802821588 
6.9                            0.165634551503689 -83.3073897922188 0.846081295622596 73.224604326586  0.00181911248287959 168.259045753336 0.00177138468156473 -5.81951063360744 
                               0.846081295622593 73.2246043265859 0.129629676910958 53.4540559866104 0.00237916982089345 -122.157358478543 0.00345947661800224 42.0948201269601 
                               0.00181911248287959 168.259045753336 0.00237916982089345 -122.157358478543 0.190991965314939 -73.6537488761262 0.906717944395323 -27.0295506158264 
                               0.00177138468156473 -5.81951063360734 0.00345947661800222 42.09482012696   0.906717944395323 -27.0295506158264 0.175073055843484 -167.630240379488 
6.95                           0.16384652180673 -84.9170897856511 0.845440030458869 68.5461622814583 0.00188169666187888 160.280579633914 0.00180506896955348 -11.4292712408612 
                               0.845440030458868 68.5461622814581 0.125959975653492 45.958587211215  0.00239222148528622 -125.386334255521 0.00348907878711458 40.5781332108514 
                               0.00188169666187889 160.280579633915 0.00239222148528623 -125.386334255521 0.191188840645554 -76.1596562982841 0.906213519785103 -29.8099766726614 
                               0.00180506896955349 -11.4292712408612 0.00348907878711457 40.5781332108513 0.906213519785102 -29.8099766726615 0.175938653809689 -170.534941964107 
7                              0.162209631376017 -86.4404163334882 0.844769642486449 63.8656324047524 0.00194578440814703 152.520405290291 0.00183854428077684 -17.0513067608749 
                               0.844769642486447 63.8656324047526 0.122383587927229 38.2416424397661 0.002405479967653 -128.592728032435 0.00351237674980787 39.0496231766082 
                               0.00194578440814703 152.520405290292 0.00240547996765301 -128.592728032434 0.191235169765437 -78.6663321984771 0.905725629618238 -32.5901787026682 
                               0.00183854428077684 -17.051306760875 0.00351237674980786 39.0496231766081 0.905725629618236 -32.5901787026682 0.176628116366928 -173.422574018339 
7.05                           0.160753135414722 -87.8877655314212 0.844067402961239 59.1833619030183 0.00201123028849077 144.97196472633  0.00187165629981794 -22.6816724564284 
                               0.844067402961239 59.1833619030182 0.118964588299867 30.2974288610241 0.00241883279662147 -131.781607833146 0.00352920177752432 37.5191991925802 
                               0.00201123028849077 144.97196472633  0.00241883279662148 -131.781607833146 0.191130520891246 -81.1730862140174 0.905255657471749 -35.3703983348201 
                               0.00187165629981794 -22.6816724564286 0.00352920177752431 37.5191991925801 0.905255657471749 -35.3703983348202 0.177145625162341 -176.298740863279 
7.1                            0.1595015566757  -89.2718910615817 0.843331431022178 54.4997157795447 0.00207791580290847 137.626043885839 0.00190424191098139 -28.3162211689203 
                               0.843331431022177 54.4997157795447 0.115768025107482 22.1257050305328 0.00243201325580461 -134.957189229303 0.00353947917889138 35.9965695351083 
                               0.00207791580290847 137.626043885839 0.00243201325580461 -134.957189229303 0.190874091928035 -83.6791943917807 0.904804835906185 -38.150827545644 
                               0.00190424191098139 -28.3162211689205 0.00353947917889137 35.9965695351082 0.904804835906183 -38.150827545644 0.177495480309726 -179.1662469638  
7.15                           0.158473629765332 -90.6076648968244 0.842560702369403 49.8150680496271 0.0021457472211043 130.471555200833 0.00193612697104992 -33.9505481423846 
                               0.842560702369402 49.8150680496271 0.112857900718237 13.733492076844  0.00244455051166006 -138.121086637303 0.0035432230396781 34.49123557897   
                               0.0021457472211043 130.471555200833 0.00244455051166005 -138.121086637303 0.190464731224401 -86.1839674506453 0.904374151919858 -40.9316280876344 
                               0.00193612697104991 -33.9505481423849 0.00354322303967809 34.4912355789699 0.904374151919858 -40.9316280876344 0.177680655112592 177.973491316916 
7.2                            0.157681396409805 -91.9116723896971 0.841755038081991 45.1297933528968 0.00221465103704844 123.496143621691 0.00196712173074094 -39.5798824482498 
                               0.841755038081989 45.1297933528966 0.110294610215325 5.13664642807028 0.00245573461248515 -141.268865185434 0.00354053075208606 33.0125096132859 
                               0.00221465103704844 123.496143621691 0.00245573461248513 -141.268865185434 0.189901031873761 -88.686800875439 0.903964337160965 -43.7129436316716 
                               0.00196712173074093 -39.5798824482501 0.00354053075208605 33.0125096132858 0.903964337160966 -43.7129436316717 0.177702895307018 175.119735555628 
7.25                           0.157129538955184 -93.201658785389 0.840915076663182 40.4442591168599 0.00228456780229997 116.686658276716 0.00199701226862043 -45.1988841901782 
                               0.840915076663181 40.4442591168599 0.108131930099134 -3.63904201066684 0.00246467263052379 -144.384014465204 0.00353157756723499 31.5695579686899 
                               0.00228456780229997 116.686658276716 0.00246467263052375 -144.384014465205 0.189181458176861 -91.187204285418 0.903575887095434 -46.494907125503 
                               0.00199701226862042 -45.1988841901787 0.00353157756723498 31.5695579686897 0.903575887095432 -46.4949071255031 0.177563082835735 172.272086992603 
7.3                            0.156815025048416 -94.4958669952085 0.840042232297092 35.7588183564107 0.00235544498165015 110.029521006893 0.0020255449512458 -50.8012696012753 
                               0.840042232297092 35.7588183564107 0.106413781028508 -12.557608567744 0.00247061303311214 -147.429883631317 0.00351661176596756 30.171472722557  
                               0.00235544498165015 110.029521006893 0.00247061303311209 -147.429883631318 0.18830447168383 -93.6848128667272 0.903209086755001 -49.2776451764019 
                               0.00202554495124578 -50.8012696012758 0.00351661176596755 30.1714727225568 0.903209086755003 -49.277645176402 0.177261553825289 169.430327002361 
7.35                           0.156727109372546 -95.812324901805 0.839138641935629 31.0738031427573 0.00242722932540483 103.511015737264 0.00205239810499387 -56.3791052903963 
                               0.839138641935627 31.0738031427571 0.105171124474057 -21.5738515692186 0.00247377853926456 -150.346030916953 0.00349595142586257 28.8273752389355 
                               0.00242722932540482 103.511015737264 0.00247377853926448 -150.346030916953 0.187268637522276 -96.1793860395803 0.902864034963214 -52.0612806166044 
                               0.00205239810499386 -56.3791052903968 0.00349595142586256 28.8273752389353 0.902864034963214 -52.0612806166045 0.176798326529613 166.594342299884 
7.4                            0.156847702362131 -97.1681499041703 0.838207103351079 26.3895187436075 0.00249985911803138 97.1175174694645 0.00207712873744679 -61.9214219407283 
                               0.838207103351079 26.3895187436076 0.104419442435316 -30.6355736801813 0.0024765761926977 -153.066068933546 0.00346998421323673 27.5465527145148 
                               0.00249985911803137 97.1175174694643 0.00247657619269762 -153.066068933546 0.186072703533633 -98.6707986463202 0.902540664730137 -54.8459339614059 
                               0.00207712873744677 -61.921421940729 0.00346998421323671 27.5465527145147 0.902540664730137 -54.845933961406 0.1761732552229  163.76409101827  
7.45                           0.157152077297057 -98.5789362958838 0.837251005807126 21.7062384224693 0.00257325656192615 90.8356757991972 0.00209906668020414 -67.4113009463785 
                               0.837251005807123 21.7062384224691 0.104157238735825 -39.6869445770884 0.00248386169880377 -155.569320237567 0.00343917221724965 26.3386232016737 
                               0.00257325656192615 90.8356757991969 0.00248386169880371 -155.569320237566 0.184715652641174 -101.15902888242 0.90223875970033 -57.6317241886077 
                               0.00209906668020411 -67.4113009463792 0.00343917221724963 26.3386232016736 0.902238759700332 -57.6317241886077 0.175386132673741 160.939589172425 
7.5                            0.157609853117854 -100.058277887136 0.836274254598836 17.0241988842975 0.00264732049278493 84.6525648159337 0.00211708682277112 -72.8191261485484 
                               0.836274254598834 17.0241988842971 0.104365863280443 -48.6724864019971 0.0025005740402329 -157.926847559375 0.0034040646510103 25.2137115297606 
                               0.00264732049278493 84.6525648159335 0.00250057404023287 -157.926847559374 0.183196732898646 -103.644145816194 0.901957967257624 -60.4187690982215 
                               0.00211708682277109 -72.819126148549 0.00340406465101028 25.2137115297606 0.901957967257624 -60.4187690982216 0.174436759102417 158.120907794171 
7.55                           0.158186166585686 -101.617457377841 0.835281190430315 12.34359636236   0.00272191959754956 78.5558087449486 0.00212906232755551 -78.0846364624944 
                               0.835281190430314 12.3435963623597 0.105010722431895 -57.5409905102894 0.00252834034496473 -160.269327610054 0.00336532232402824 24.1825902729427 
                               0.00272191959754955 78.5558087449484 0.00252834034496473 -160.269327610054 0.181515470920196 -106.126298135393 0.901697809035093 -63.2071854101078 
                               0.00212906232755549 -78.084636462495 0.00336532232402823 24.1825902729428 0.901697809035094 -63.2071854101078 0.173324990031352 155.308176050693 
7.6                            0.158842937210784 -103.265310364298 0.83427650444358 7.66458335243558 0.0027968863116666 72.5336905531384 0.00213034105451785 -83.0584296745903 
                               0.834276504443576 7.66458335243547 0.106043674471541 -66.24869523695  0.00256505403791936 -162.701522894187 0.0033237590226445 23.2566808770876 
                               0.0027968863116666 72.5336905531381 0.00256505403791936 -162.701522894187 0.17967167407465 -108.605704889191 0.901457689522411 -65.997088696918 
                               0.00213034105451784 -83.0584296745906 0.00332375902264448 23.2566808770877 0.90145768952241 -65.9970886969179 0.172050771277079 152.501588058137 
7.65                           0.159540131695378 -105.008250493327 0.833265149668099 2.9872660115655  0.0028720116019294 66.5752488255968 0.00210858902746012 -87.2373767891609 
                               0.833265149668098 2.9872660115655  0.107406208715326 -74.7612795080655 0.00260728890337703 -165.262128735428 0.00328040562199215 22.4476918172576 
                               0.0028720116019294 66.5752488255965 0.00260728890337703 -165.262128735429 0.177665425840034 -111.082648455296 0.901236903354777 -68.7885932136394 
                               0.00210858902746015 -87.2373767891604 0.00328040562199215 22.4476918172578 0.901236903354775 -68.7885932136394 0.17061416650717 149.70141228034  
7.7                            0.160236948815916 -106.850426723701 0.832252249698741 -1.68829775294172 0.00294704088546863 60.6703664345716 0.00202772121329339 -87.504576266877 
                               0.83225224969874 -1.68829775294181 0.109032928704868 -83.0545516805837 0.00265229652421362 -167.943645915745 0.00323660055669221 21.7664483222267 
                               0.00294704088546863 60.6703664345714 0.00265229652421361 -167.943645915746 0.175497077593778 -113.557469677968 0.901034641764691 -71.5818116633436 
                               0.00202772121329381 -87.5045762668745 0.00323660055669221 21.7664483222269 0.901034641764694 -71.5818116633434 0.169015380932887 146.908003001199 
7.75                           0.160892866541022 -108.793975406796 0.831243005499171 -6.36209947406834 0.00302167138394063 54.8098528049563 0.003769305442336 -87.0936632572082 
                               0.831243005499167 -6.36209947406874 0.110854906449896 -91.1140051454657 0.00269846148460848 -170.72341637219 0.00319409881482158 21.2200964936959 
                               0.00302167138394063 54.8098528049561 0.00269846148460847 -170.723416372191 0.173167239118003 -116.030565008938 0.900849998598955 -74.3768549256158 
                               0.00376930544232634 -87.0936632571943 0.00319409881482159 21.2200964936961 0.900849998598956 -74.3768549256158 0.167254783498191 144.121813677893 
7.8                            0.161468516366724 -110.839328534304 0.830242601339154 -11.034180564957 0.00309555125235799 48.9855199037928 0.00267381471202829 -110.619152896004 
                               0.830242601339154 -11.0341805649569 0.112802602546793 -98.9335843543043 0.00274498851629548 -173.580606960866 0.00315515628909227 20.8063961709051 
                               0.00309555125235799 48.9855199037926 0.00274498851629546 -173.580606960867 0.170676769314582 -118.502385471559 0.900681976254147 -77.1738317661782 
                               0.00267381471202843 -110.619152895992 0.00315515628909229 20.8063961709051 0.900681976254147 -77.1738317661782 0.165332929126195 141.343412165208 
7.85                           0.161926371723946 -112.985543351179 0.829256110984537 -15.7046319819364 0.00316828084044856 43.1902504560062 0.00252538562022463 -115.23926061668 
                               0.829256110984537 -15.7046319819363 0.114808197833352 -106.514041795311 0.00279151487924169 -176.50115813527 0.0031224622804767 20.5037361362343 
                               0.00316828084044856 43.1902504560061 0.00279151487924167 -176.50115813527 0.168026768050819 -120.973437312446 0.90052949186603 -79.9728485412927 
                               0.0025253856202247 -115.239260616677 0.00312246228047673 20.5037361362341 0.900529491866032 -79.9728485412927 0.163250582044921 138.573497919943 
7.9                            0.162231255482745 -115.230625470362 0.828288405351824 -20.3735930922191 0.00323941642620875 37.4180553672191 0.00248778716022424 -120.20804436197 
                               0.828288405351822 -20.373593092219 0.116807310779538 -113.861206266788 0.0028378551759311 -179.477561341304 0.00309864798942059 20.2574404121952 
                               0.00323941642620874 37.418055367219  0.00283785517593107 -179.477561341305 0.165218569658271 -123.444284276506 0.900391384104429 -82.7740089073073 
                               0.00248778716022428 -120.208044361969 0.00309864798942061 20.2574404121947 0.900391384104429 -82.7740089073073 0.161008740840961 135.812921385716 
7.95                           0.162350684914476 -117.571825695082 0.827344062906367 -25.0412497381728 0.00330847669254259 31.6641160126239 0.00247830090874862 -125.381329934906 
                               0.827344062906367 -25.0412497381729 0.118740160108668 -120.984380138014 0.00288386812884816 177.492665041357 0.00308500232284694 19.9698866128237 
                               0.00330847669254259 31.6641160126238 0.00288386812884814 177.492665041357 0.162253738341282 -125.915551526274 0.900266420981046 -85.5774135430918 
                               0.00247830090874864 -125.381329934905 0.00308500232284695 19.969886612823  0.900266420981045 -85.5774135430917 0.158608665624655 133.062705843013 
8                              0.162255080861348 -120.005898507584 0.826427284119895 -29.7078315024252 0.00337495208813239 25.9248060626227 0.00247954620994201 -130.653710192845 
                               0.826427284119895 -29.7078315024253 0.120552273974602 -127.894981406791 0.00292939748921659 174.408432228976 0.00307941013300311 19.5136930532723 
                               0.00337495208813238 25.9248060626226 0.00292939748921657 174.408432228976 0.159134065579919 -128.38793131917 0.900153309183898 -88.3831598900213 
                               0.00247954620994202 -130.653710192844 0.00307941013300309 19.5136930532716 0.900153309183896 -88.3831598900213 0.156051907498773 130.324072099518 
8.05                           0.161917871843105 -122.529316766577 0.825541811310521 -34.3736081915667 0.00343831701948738 20.1976870196393 0.00248572413012801 -135.977277362306 
                               0.825541811310517 -34.3736081915669 0.122194856187436 -134.605467827924 0.0029742521622767 171.266187152263 0.00307489780615552 18.7869508248043 
                               0.00343831701948738 20.1976870196392 0.00297425216227669 171.266187152263 0.155861569503866 -130.862190657036 0.900050705625745 -91.1913419090538 
                               0.00248572413012801 -135.977277362305 0.00307489780615549 18.7869508248039 0.900050705625745 -91.1913419090538 0.153340340384431 127.598466500857 
8.1                            0.161315524265875 -125.138442225491 0.82469085516893 -39.0388855703453 0.00349804456952353 14.48147179326   0.00249437822967558 -141.328512403352 
                               0.824690855168927 -39.0388855703454 0.123624909698884 -141.128530504102 0.00301820616174024 168.060725190759 0.0030613732877656 17.7886075104742 
                               0.00349804456952353 14.4814717932599 0.00301820616174023 168.060725190758 0.152438496148127 -133.339181234852 0.899957232160577 -94.0020498447261 
                               0.00249437822967557 -141.328512403351 0.00306137328776557 17.7886075104741 0.899957232160578 -94.0020498447261 0.15047619516249 124.887592869966 
8.15                           0.160427527722963 -127.829655052528 0.823877029232606 -43.70400039249  0.00355362314931073 8.7759515625888  0.00250430643665716 -146.694935067738 
                               0.823877029232604 -43.7040003924901 0.124805198689975 -147.476518783001 0.00306100844602907 164.785831090773 0.00303080545048156 16.6406109642568 
                               0.00355362314931073 8.77595156258873 0.00306100844602906 164.785831090773 0.148867322463209 -135.819852146967 0.899871494814377 -96.8153699669115 
                               0.00250430643665716 -146.694935067738 0.00303080545048155 16.6406109642569 0.899871494814377 -96.8153699669114 0.147462096032307 122.193449142576 
8.2                            0.159236360445042 -130.599447816506 0.823102293509569 -48.3693147883783 0.00360457419764053 3.08188290706165 0.00251486304224376 -152.069526096883 
                               0.82310229350957 -48.3693147883783 0.125704110234302 -153.661049598228 0.0031023971997409 161.43485322954  0.00298135423631567 15.5220810300416 
                               0.00360457419764053 3.0818829070616  0.0031023971997409 161.434853229541 0.145150760932815 -138.305265969154 0.899792109428214 -99.6313842242655 
                               0.00251486304224375 -152.069526096883 0.00298135423631568 15.5220810300418 0.899792109428212 -99.6313842242654 0.144301098973203 119.518369666497 
8.25                           0.157727454969428 -133.444490696361 0.822367908377789 -53.0352100834801 0.0036504697921367 -2.59916534335129 0.00252567951139865 -157.448156883343 
                               0.822367908377789 -53.0352100834801 0.126295458387058 -159.692755519066 0.00314211484222771 158.001281412843 0.00291672774768751 14.5815968874571 
                               0.0036504697921367 -2.59916534335134 0.00314211484222772 158.001281412844 0.141291765645595 -140.796619036816 0.899717736331539 -102.450169672536 
                               0.00252567951139864 -157.448156883343 0.00291672774768752 14.5815968874571 0.899717736331539 -102.450169672536 0.140996732222347 116.865074385067 
8.3                            0.155889178591966 -136.361675276668 0.821674399797912 -57.7020801347481 0.00369094887347554 -8.26500308845574 0.0025365376644367 -162.82829104706 
                               0.821674399797914 -57.7020801347481 0.126558259126581 -165.581131577477 0.00317992051657339 154.479360207369 0.00284271562236863 13.9001850009187 
                               0.00369094887347554 -8.26500308845576 0.0031799205165734 154.479360207369 0.13729353967192 -143.295267002133 0.899647127458464 -105.271797407449 
                               0.0025365376644367 -162.828291047061 0.00284271562236864 13.9001850009186 0.899647127458462 -105.271797407449 0.137553038764222 114.236726444643 
8.35                           0.153712837535504 -139.348144468326 0.821021536775768 -62.3703242848592 0.00372573075186975 -13.9130421233882 0.00254730631308982 -168.208273513089 
                               0.821021536775765 -62.3703242848594 0.12647649399478 -171.334448182872 0.00321559706244472 150.864731446715 0.00276449764969455 13.5037185454982 
                               0.00372573075186975 -13.9130421233882 0.00321559706244473 150.864731446715 0.13315954361183 -145.8027571014  0.899579189787423 -108.096330485844 
                               0.00254730631308982 -168.208273513089 0.00276449764969455 13.503718545498  0.899579189787423 -108.096330485844 0.133974620973197 111.637000170713 
8.4                            0.151192708306349 -142.401316050931 0.820408321895701 -67.0403400463493 0.00375462468559065 -19.5405428685124 0.00255790717243939 -173.586912844644 
                               0.820408321895699 -67.0403400463494 0.126038873078655 -176.959704359065 0.00324895018217039 147.155064028159 0.00268576009939125 13.389281220253  
                               0.00375462468559065 -19.5405428685124 0.0032489501821704 147.155064028159 0.128893505208036 -148.320869034985 0.899513067905705 -110.92381988197 
                               0.00255790717243939 -173.586912844644 0.00268576009939125 13.3892812202527 0.899513067905702 -110.92381988197 0.130266687777688 109.070161869519 
8.45                           0.148326094642802 -145.518907228882 0.81983299561336 -71.7125156392101 0.00377753459218543 -25.1448737106742 0.00256829541610794 -178.963220391981 
                               0.819832995613353 -71.7125156392102 0.125238603484618 177.537398642512 0.00327979900486822 143.350602607123 0.00260887483864349 13.544635288281  
                               0.00377753459218543 -25.1448737106742 0.00327979900486823 143.350602607124 0.124499429961833 -150.851667008905 0.899448242687068 -113.754296803689 
                               0.00256829541610794 -178.963220391981 0.00260887483864349 13.5446352882807 0.899448242687065 -113.754296803689 0.126435105042342 106.541166560308 
8.5                            0.145113403988955 -148.698967545169 0.819293054842886 -76.3872225162896 0.00379445834269976 -30.7237706585927 0.00257844805135004 175.663761146701 
                               0.819293054842877 -76.3872225162898 0.124073167030265 172.15247881046  0.00330795944229125 139.45455715726  0.00253536060882644 13.9578522995626 
                               0.00379445834269976 -30.7237706585926 0.00330795944229126 139.454557157261 0.119981612755504 -153.397566387087 0.899384625135253 -116.587758671849 
                               0.00257844805135004 175.663761146701 0.00253536060882643 13.9578522995624 0.899384625135249 -116.587758671849 0.12248645031984 104.055774561699 
8.55                           0.14155823375251 -151.939927600715 0.81878528619382 -81.0648080206469 0.00380548154222438 -36.2755848438859 0.00258835670176575 170.295074835206 
                               0.818785286193815 -81.0648080206469 0.122544109960903 166.8825021634   0.00333322406503571 135.473268019293 0.00246628370437127 14.6204324755248 
                               0.00380548154222438 -36.2755848438859 0.00333322406503572 135.473268019293 0.115344650580843 -155.961419673288 0.899322579863578 -119.424145181628 
                               0.00258835670176575 170.295074835206 0.00246628370437126 14.6204324755247 0.899322579863572 -119.424145181628 0.118428073740714 101.620692884415 
8.6                            0.137667454936569 -155.240671376195 0.818305814002175 -85.7455883276305 0.00381076614862629 -41.7995063798606 0.00259802298790594 164.931931331884 
                               0.818305814002175 -85.7455883276305 0.120656847650509 161.725828982637 0.00335534388585628 131.416114660357 0.00240252849177056 15.5271178749816 
                               0.00381076614862629 -41.7995063798606 0.00335534388585629 131.416114660357 0.110593456611267 -158.546628358206 0.899262721689537 -122.263302029889 
                               0.00259802298790594 164.931931331884 0.00240252849177055 15.5271178749817 0.899262721689536 -122.263302029889 0.114268167632708 99.2437476664836 
8.65                           0.133451279286543 -158.600640660144 0.817850163053844 -90.4298418314444 0.00381053466029451 -47.2957549948536 0.00260745549620824 159.575766152415 
                               0.817850163053845 -90.4298418314444 0.118420488131092 156.682286363576 0.00337401768603689 127.295181293354 0.00234496063189259 16.6742106722421 
                               0.00381053466029452 -47.2957549948535 0.0033740176860369 127.295181293354 0.105733276051552 -161.157289802992 0.899205196185808 -125.104938338652 
                               0.00260745549620824 159.575766152415 0.00234496063189259 16.6742106722423 0.89920519618581 -125.104938338652 0.11001584854994 96.9340954691528 
8.7                            0.128923296066792 -162.019981311714 0.817413335613796 -95.1178031408946 0.00380505086506221 -52.7657302976451 0.00261666774759494 154.228278557582 
                               0.817413335613788 -95.1178031408945 0.11584767965277 151.753275367698 0.00338889310482333 123.12473406357  0.00229451781453178 18.0572063923291 
                               0.00380505086506222 -52.765730297645 0.00338889310482334 123.12473406357  0.100769704477193 -163.7983922112  0.899148117809448 -127.948607905692 
                               0.00261666774759494 154.228278557582 0.00229451781453178 18.0572063923294 0.899148117809447 -127.948607905692 0.105681256824342 94.7024831608164 
8.75                           0.124100466141429 -165.499743068572 0.816989902049895 -99.809657851349 0.00379459826464399 -58.2121170400355 0.00262567680879402 148.891455754971 
                               0.816989902049893 -99.809657851349 0.112954489107208 146.941920869267 0.00339958101765186 118.920589479559 0.00225225270185112 19.6680748213127 
                               0.00379459826464399 -58.2121170400354 0.00339958101765187 118.92058947956  0.0957087097656686 -166.4760765437  0.899085328918336 -130.793781213162 
                               0.00262567680879402 148.891455754971 0.00225225270185113 19.668074821313  0.899085328918336 -130.793781213162 0.101275680629218 92.5615683370324 
8.8                            0.119003064279928 -169.042147716797 0.816574103978218 -104.50553825905 0.00377945727957502 -63.6389428545475 0.0026345023223944 143.567584698513 
                               0.816574103978218 -104.50553825905 0.109760319876865 142.253272112539 0.0034056816212678 114.699456415406 0.00221934137309249 21.4923897415283 
                               0.00377945727957502 -63.6389428545474 0.00340568162126781 114.699456415406 0.0905566592622888 -169.197993043762 0.899005084123829 -133.640070034394 
                               0.00263450232239441 143.567584698513 0.00221934137309251 21.4923897415285 0.899005084123829 -133.640070034394 0.0968117139965084 90.5263146392651 
8.85                           0.113654565562786 -172.650945228095 0.816159968461413 -109.205520179234 0.0037598822315469 -69.0515872862287 0.00264316581092693 138.259252995321 
                               0.816159968461414 -109.205520179234 0.106287879328715 137.694561602564 0.00340681807294459 110.478317830595 0.00219706285593594 23.5065708367802 
                               0.0037598822315469 -69.0515872862286 0.0034068180729446 110.478317830595 0.0853203545502269 -171.973793633886 0.898892425416064 -136.487521707443 
                               0.00264316581092694 138.259252995321 0.00219706285593597 23.5065708367803 0.898892425416067 -136.487521707443 0.0923034614111507 88.6144786054867 
8.9                            0.108081478379867 -176.331884788802 0.815741431373382 -113.909621020444 0.00373607894288721 -74.456741264813 0.00265169015934994 132.969340029513 
                               0.815741431373381 -113.909621020444 0.102563207537647 133.275528574731 0.00340267215026304 106.273892885618 0.00218675172438948 25.6756504594205 
                               0.00373607894288721 -74.456741264813 0.00340267215026306 106.273892885618 0.0800070771098801 -174.81582271791 0.898735471061725 -139.336698925578 
                               0.00265169015934995 132.969340029513 0.00218675172438951 25.6756504594205 0.898735471061726 -139.336698925578 0.0877668056838879 86.8472060293338 
8.95                           0.102313134734211 179.906661215816 0.815312467613577 -118.617799253485 0.00370818364374658 -79.8623153944231 0.00266009921187737 127.700999241891 
                               0.815312467613574 -118.617799253485 0.0986157795751318 129.008809810395 0.00339301638508045 102.102195528559 0.00218972573630903 27.9521131818716 
                               0.00370818364374658 -79.8623153944231 0.00339301638508047 102.102195528559 0.0746246491154523 -177.740102556473 0.898530532704161 -142.188380966517 
                               0.00266009921187737 127.700999241891 0.00218972573630906 27.9521131818714 0.898530532704162 -142.188380966517 0.0832197609046489 85.2497545686665 
9                              0.0963814584229644 176.052865274101 0.81486722542982 -123.329955394323 0.00367624379224613 -85.2772936557824 0.00266841744015615 122.457632473933 
                               0.814867225429817 -123.329955394323 0.0944786932857297 124.91039312224  0.00337773823842462 97.9781883827801 0.00220719326376641 30.2763641442774 
                               0.00367624379224613 -85.2772936557823 0.00337773823842464 97.9781883827803 0.0691815140113239 179.232237411771 0.898281374709714 -145.043149417784 
                               0.00266841744015615 122.457632473933 0.00220719326376645 30.2763641442769 0.898281374709716 -145.043149417784 0.0786829383604537 83.8523522273822 
9.05                           0.0903207434887281 172.090324183421 0.814400161709117 -128.045934595785 0.0036402014397652 -90.7115265750468 0.00267666965438205 117.242857337037 
                               0.814400161709118 -128.045934595785 0.0901889519435623 121.000114346061 0.00335685365095181 93.9155224393242 0.00224014943711163 32.5791688673543 
                               0.0036402014397652 -90.7115265750468 0.00335685365095183 93.9155224393244 0.0636868392606715 176.072855975759 0.897994599420965 -147.901208657992 
                               0.00267666965438205 117.242857337037 0.00224014943711167 32.5791688673536 0.89799459942097 -147.901208657992 0.0741801598607089 82.6911820037762 
9.1                            0.0841674900351157 167.996530127178 0.813906174742349 -132.765530913173 0.00359987994828366 -96.1754550600436 0.00268488073935317 112.060468663192 
                               0.813906174742353 -132.765530913173 0.085787844871085 117.302152237106 0.00333050922531432 89.9263515782968 0.0022892734122426 34.7859657827775 
                               0.00359987994828366 -96.1754550600437 0.00333050922531434 89.926351578297  0.0581506323700421 172.743076371638 0.897675838616932 -150.762460338789 
                               0.00268488073935317 112.060468663192 0.00228927341224263 34.7859657827766 0.897675838616935 -150.762460338789 0.069739258353211 81.8094397835151 
9.15                           0.0779603640624131 163.740754611981 0.813380730683703 -137.488493274431 0.00355497520557716 -101.679753621268 0.00269307540505105 106.914395201237 
                               0.813380730683704 -137.488493274431 0.0813214161803338 113.845429879457 0.00329897397467378 86.0212128819493 0.00235483988944262 36.8224169805768 
                               0.00355497520557716 -101.679753621268 0.0032989739746738 86.0212128819495 0.0525838229927267 169.189319002526 0.897328436590725 -153.626653121982 
                               0.00269307540505105 106.914395201237 0.00235483988944265 36.8224169805757 0.897328436590726 -153.626653121982 0.0653931060821359 81.2583249969481 
9.2                            0.0717403761889071 159.281078087084 0.8128199797296  -142.214533146834 0.00350505297351341 -107.234880563172 0.00270127794690572 101.808652820788 
                               0.812819979729602 -142.214533146834 0.0768409876282502 110.66375599256  0.00326262276639929 82.2089661179238 0.00243665503464957 38.6201697098652 
                               0.0035050529735134 -107.234880563172 0.00326262276639931 82.208966117924  0.0469981642751072 165.337076542622 0.896953718423192 -156.49349120366 
                               0.00270127794690572 101.808652820788 0.00243665503464958 38.6201697098639 0.896953718423195 -156.493491203659 0.0611808971546329 81.0976584859895 
9.25                           0.0655514176955703 154.560169570948 0.812220857953392 -146.943333850383 0.00344955458363803 -112.850524283938 0.00270951201491884 96.747295556327  
                               0.812220857953393 -146.943333850383 0.0724036590951431 107.795423797702 0.00322191421884657 78.4967870511418 0.00253402134032774 40.1217528045405 
                               0.00344955458363803 -112.850524283938 0.00322191421884659 78.496787051142  0.0414058233350877 161.087273165448 0.896551702461639 -159.362685345959 
                               0.00270951201491883 96.7472955563271 0.00253402134032774 40.1217528045392 0.896551702461642 -159.362685345959 0.0571496669159996 81.3955330089619 
9.3                            0.0594413624538078 149.499247052113 0.811581170763513 -151.67456142446 0.00338781372987205 -118.534940717893 0.00271780039358404 91.7343658545244 
                               0.811581170763512 -151.67456142446 0.0680726399267615 105.281823774337 0.00317736591286203 74.8902090644939 0.00264573031013039 41.2838525250165 
                               0.00338781372987204 -118.534940717893 0.00317736591286205 74.8902090644942 0.0358240037742916 156.347040800825 0.896121717510204 -162.233967774761 
                               0.00271780039358403 91.7343658545244 0.00264573031013038 41.2838525250152 0.896121717510203 -162.233967774761 0.0533559239906178 82.2259447813703 
9.35                           0.0534640569040501 143.989459618505 0.810899654111908 -156.407876910171 0.00331908737158802 -124.294188968791 0.00272616479625986 86.7738453711962 
                               0.810899654111911 -156.407876910171 0.0639171569568651 103.164438839004 0.00312952947809605 71.3932064141006 0.00277007870249312 42.0787296474786 
                               0.00331908737158801 -124.294188968791 0.00312952947809607 71.3932064141009 0.0304156167007367 151.269990545571 0.895662810059194 -165.107091125734 
                               0.00272616479625985 86.7738453711962 0.0027700787024931 42.0787296474773 0.895662810059196 -165.107091125734 0.0498670558043721 83.6627510632266 
9.4                            0.0476826971676818 137.879881352883 0.81017600986474 -161.142949867766 0.0032426034194788 -130.131291675812 0.00273462567847866 81.8696075977776 
                               0.810176009864745 -161.142949867766 0.0600115400178551 101.47945690221  0.00307896756109311 68.0083110594854 0.00290490438320093 42.4940103315752 
                               0.00324260341947879 -130.131291675812 0.00307896756109312 68.0083110594857 0.0260440118057612 144.372295352595 0.895173980657995 -167.981822516241 
                               0.00273462567847865 81.8696075977776 0.0029049043832009 42.4940103315742 0.895173980657994 -167.981822516241 0.0467617995301049 85.7678018639086 
9.45                           0.0421753324105794 130.961957174254 0.809410912149523 -165.879472908136 0.00315762653665914 -136.045373625671 0.00274320207476613 77.0253734828085 
                               0.809410912149525 -165.879472908137 0.0564329324694606 100.249352599511 0.00302623402750983 64.7367540189666 0.00304764062067285 42.5313434336592 
                               0.00315762653665913 -136.045373625671 0.00302623402750983 64.736754018967  0.0212381975701004 133.20869996305  0.894654311137723 -170.857937368341 
                               0.00274320207476612 77.0253734828085 0.00304764062067281 42.5313434336582 0.894654311137726 -170.857937368341 0.044128571839128 88.5714754752844 
9.5                            0.0370434177027891 122.953324618508 0.80860598199507 -170.61717698092 0.00306354071580255 -142.030863912784 0.00275191146305034 72.2446710576015 
                               0.808605981995073 -170.61717698092 0.0532570062771407 99.4714944541297 0.00297185811553672 61.5786219450592 0.00319539076062524 42.2044448994234 
                               0.00306354071580254 -142.030863912785 0.00297185811553673 61.5786219450597 0.0168480804020101 118.445232433459 0.894103029333492 -173.735214433177 
                               0.00275191146305033 72.2446710576014 0.0031953907606252 42.2044448994227 0.894103029333492 -173.735214433177 0.0420600716271629 92.0465547296685 
9.55                           0.0324238913899609 113.493979015102 0.807763728158267 -175.355847130401 0.00295994324699895 -148.076877025548 0.00276076965981296 67.5307998861131 
                               0.807763728158268 -175.355847130401 0.0505512633914547 99.1054649645275 0.00291633272137032 58.5330201435086 0.00334502651775393 41.5369262003109 
                               0.00295994324699893 -148.076877025548 0.00291633272137032 58.5330201435091 0.0137376691239504 97.2264576546422 0.893519540115744 -176.613432200231 
                               0.00276076965981294 67.5307998861131 0.00334502651775388 41.5369262003104 0.893519540115746 -176.613432200231 0.0406429505024413 96.0826183995696 
9.6                            0.0285022651271575 102.192972333873 0.806887452655182 179.904661595118 0.00284673980070142 -154.166906001718 0.00276979074793374 62.8868009482625 
                               0.806887452655181 179.904661595117 0.0483662028715188 99.0631904846247 0.00286010659890051 55.5982344198989 0.0034933113984875 40.5601338591777 
                               0.0028467398007014 -154.166906001718 0.00286010659890051 55.5982344198994 0.0127785432578107 69.905455412077  0.892903438950453 -179.492366474036 
                               0.00276979074793373 62.8868009482624 0.00349331139848745 40.5601338591774 0.892903438950453 -179.492366474036 0.0399432961360829 100.475762164503 
9.65                           0.0255146061393053 88.8022853126366 0.805981120151929 175.164408414205 0.00272422590444015 -160.278953574108 0.00277898703785076 58.3154323456965 
                               0.805981120151927 175.164408414205 0.0467258645795246 99.2078154743734 0.00280357999977578 52.7718856822705 0.00363704607002276 39.3110873494696 
                               0.00272422590444013 -160.278953574108 0.00280357999977577 52.771885682271  0.0143443386481143 43.9458577543045 0.892254516652175 177.628211166141 
                               0.00277898703785074 58.3154323456965 0.00363704607002272 39.3110873494694 0.89225451665218 177.628211166141 0.039992026733448 104.949191523741 
9.7                            0.0237095797987678 73.5673817160734 0.805049190991115 170.423351610736 0.00259313798594898 -166.386185110841 0.0027883690613357 53.8191510012791 
                               0.805049190991114 170.423351610736 0.0456205302763142 99.3660598716315 0.00274710314970062 50.0510729036635 0.00377322610986436 37.8305254134268 
                               0.00259313798594896 -166.386185110841 0.00274710314970061 50.0510729036642 0.0177359867011816 25.0479379825307 0.891572759786479 174.748534268949 
                               0.00278836906133569 53.8191510012791 0.00377322610986433 37.8305254134268 0.891572759786477 174.748534268949 0.0407766155321749 109.205613520301 
9.75                           0.0232466829840206 57.5213994589613 0.804096418205784 165.681334215596 0.0024546592236371 -172.458109613444 0.00279794559597485 49.4001003192023 
                               0.804096418205781 165.681334215595 0.0450046291000679 99.3532177666708 0.00269097692413089 47.4325016501043 0.00389919667149914 36.1610535797122 
                               0.00245465922363709 -172.458109613444 0.00269097692413088 47.432501650105  0.0220921537269338 12.2376453154301 0.890858348928587 171.868841961695 
                               0.00279794559597484 49.4001003192022 0.00389919667149911 36.1610535797122 0.890858348928585 171.868841961695 0.0422436191073392 112.989590598415 
9.8                            0.0240857716312575 42.1754224512495 0.803127609384889 160.938070931971 0.00231037241311589 -178.46219586798 0.00280772371743246 45.0601035904976 
                               0.803127609384884 160.93807093197  0.044801388159281 99.0027594915555 0.0026354551209307 44.9125967719499 0.00401278550788366 34.3454067792404 
                               0.00231037241311588 -178.46219586798 0.00263545512093068 44.9125967719506 0.0269150159965531 3.18786542491024 0.890111655815552 168.989379082299 
                               0.00280772371743245 45.0601035904975 0.00401278550788364 34.3454067792404 0.890111655815548 168.989379082299 0.0443107159076968 116.12987819055  
9.85                           0.0259908818473295 28.680426049137  0.80214735469376 156.193136667    0.00216216267594377 175.634263001549 0.00281770887580491 40.8006627753849 
                               0.802147354693755 156.193136667    0.0449130934298867 98.1895163455856 0.00258074780157969 42.4875989722148 0.00411239707062992 32.4248736812999 
                               0.00216216267594376 175.634263001549 0.00258074780157967 42.4875989722155 0.0319619544458302 -3.63607809396345 0.889333239836479 166.110396085744 
                               0.0028177088758049 40.8006627753849 0.0041123970706299 32.4248736812999 0.88933323983648 166.110396085744 0.04688230223636 118.547690363743 
9.9                            0.0286507190452373 17.3958102481284 0.801159722724423 151.445957034726 0.0020120839337967 169.862281044167 0.00282790499187267 36.6229621732464 
                               0.801159722724418 151.445957034725 0.0452337540326256 96.8394300269545 0.00252702526447552 40.1536457907866 0.00419705611878402 30.4379515508236 
                               0.0020120839337967 169.862281044168 0.0025270252644755 40.1536457907874 0.0371108628982026 -9.09297783377913 0.8885238440153  163.232148789938 
                               0.00282790499187266 36.6229621732464 0.00419705611878401 30.4379515508236 0.888523844015301 163.232148789938 0.049862735578088 120.238885878822 
9.95                           0.0317884602171975 8.12345247244409 0.80016792617491 146.695801199281 0.00186221081824697 164.249552339609 0.00283831456881868 32.5278764045007 
                               0.800167926174907 146.695801199281 0.0456607551097675 94.9261710819934 0.00247442230844588 37.9068381005263 0.00426639786952127 28.4193002251465 
                               0.00186221081824696 164.24955233961  0.00247442230844585 37.9068381005271 0.0422948897464306 -13.6655672797488 0.887684390507004 160.354898006414 
                               0.00283831456881867 32.5278764045007 0.00426639786952126 28.4193002251464 0.887684390507005 160.354898006414 0.0531645436305068 121.246849064135 
10                             0.0351997156647425 0.476726421399035 0.799173959670789 141.941777435005 0.00171449945271592 158.819254136724 0.00284893881498263 28.5159820754529 
                               0.79917395967079 141.941777435005 0.0461033987340952 92.4598902062118 0.00242304253219037 35.7432935419302 0.00432061064787663 26.3990410226549 
                               0.00171449945271592 158.819254136725 0.00242304253219034 35.743293541931  0.0474740460027655 -17.6369804533749 0.8868159755744  157.478909088059 
                               0.00284893881498262 28.5159820754529 0.00432061064787663 26.3990410226547 0.8868159755744  157.478909088059 0.0567119154236375 121.638363515767 
