! Touchstone file exported from HFSS 3D Layout Design 2026.1.0
!        File:           D:/Work/ADS/HFSS_VERDICT/hfss_sma_connector_cpw.aedt
!        Generated:      02:31:11 PM Aug  6, 2026
!        Design:         SINGLE_END_SMA_CPW_30MM
!        Project:        hfss_sma_connector_cpw
!
! Variables:
!        $sma_Base_D = 6.25mm
!        $sma_Base_L = 8mm
!        $sma_Feet_L = 4mm
!        $sma_Feet_W = 1mm
!        $sma_Front_L = 1.5mm
!        $sma_Front_W = 6.5mm
!        $sma_Hole_D = 1.25mm
!        $sma_PTFE_D = 4.2mm
!        $sma_Pin_D = 0.95mm
!        $sma_Pin_P = 1.7mm
!
# GHz S MA R 50.000000
! Terminal data exported
! Port[1] = Port1
! Port[2] = S1_1_Pin_T1
0.5                            0.079575203413303 -131.641656613753 0.986749998543262 -41.899156595876 0.986749998543261 -41.8991565958761 0.0798987303723587 -133.991063150361 
0.6                            0.0922898791442066 -139.968879546301 0.98407221990558 -50.1701360645506 0.984072219905569 -50.1701360645508 0.0925978699808235 -142.582108706342 
0.7                            0.103528309164658 -148.278443725702 0.981442606842637 -58.4144238329872 0.981442606842626 -58.4144238329873 0.103780152370947 -151.022420123442 
0.8                            0.113164536327147 -156.603838106707 0.978923972014971 -66.635982388182 0.978923972014963 -66.635982388182 0.113328463299149 -159.314472272293 
0.9                            0.121097640566413 -164.975177605147 0.976564977912704 -74.8384013600167 0.976564977912699 -74.8384013600167 0.121151481140366 -167.452607636028 
1                              0.127253714992897 -173.42320016035 0.974404612436749 -83.0252549363805 0.974404612436747 -83.0252549363805 0.127184850375083 -175.423693427308 
1.1                            0.131587080259688 178.017916072113 0.9724720405452  -91.200288460892 0.9724720405452  -91.200288460892 0.131392910640009 176.793137831858 
1.2                            0.134081356783312 169.308096711719 0.970784931955166 -99.3674446666555 0.970784931955167 -99.3674446666555 0.133770650897377 169.227624456775 
1.3                            0.134751041138314 160.398699989321 0.969347822603812 -107.530776646411 0.969347822603813 -107.530776646411 0.134346138342151 161.920484219902 
1.4                            0.133644174901259 151.229138657919 0.968151169975733 -115.694293376455 0.968151169975734 -115.694293376455 0.133183966400732 154.926658097673 
1.5                            0.130846721322972 141.722295118327 0.967171317741081 -123.861773551317 0.967171317741081 -123.861773551317 0.130390454569403 148.319907001843 
1.6                            0.126489441174808 131.778185894286 0.966371383302992 -132.03657398147 0.966371383302992 -132.03657398147 0.126121541573976 142.198957911471 
1.7                            0.120758422818987 121.265379565726 0.965702994015827 -140.221451738666 0.965702994015826 -140.221451738666 0.120594592899183 136.695098639174 
1.8                            0.113910970503639 110.010170754984 0.965108756677936 -148.418414276738 0.965108756677936 -148.418414276738 0.114105593782838 131.980046532179 
1.9                            0.106299070402586 97.7854376407003 0.964525318132037 -156.628608148315 0.964525318132036 -156.628608148315 0.10705289834799 128.26993359933  
2                              0.0984021090368666 84.3068082020966 0.963886849101743 -164.852253982999 0.963886849101742 -164.852253982999 0.0999662223620535 125.814350801366 
2.1                            0.090865551439522 69.2573937476671 0.963128756105678 -173.088632574303 0.963128756105677 -173.088632574303 0.0935310597932024 124.847316257266 
2.2                            0.0845250605596974 52.3846968586938 0.962191401007262 178.663876070668 0.962191401007261 178.663876070668 0.0885790315763634 125.4686350479   
2.3                            0.0803588253330891 33.7149040061783 0.96102359133541 170.407702134828 0.961023591335409 170.407702134828 0.0859900847239454 127.458523536529 
2.4                            0.0792852610829476 13.8146160719728 0.959585604490653 162.145948711367 0.959585604490653 162.145948711367 0.0864705140342397 130.152221735541 
2.5                            0.0818217263576121 -6.20980985126022 0.95785153111035 153.882216060129 0.95785153111035 153.882216060129 0.0902932081450186 132.592682210449 
2.6                            0.0878517855752513 -25.1924956271336 0.955810769178017 145.620398510983 0.955810769178017 145.620398510982 0.0972056512199759 133.941159119498 
2.7                            0.0967364973013925 -42.4504449769482 0.953468567942748 137.364467162295 0.953468567942749 137.364467162295 0.106586360651808 133.778461827051 
2.8                            0.107634216958601 -57.8733095021265 0.950845601574824 129.118252398338 0.950845601574824 129.118252398338 0.117692343914011 132.085291731738 
2.9                            0.119748572826728 -71.6814450486662 0.947976635631862 120.885239819672 0.947976635631862 120.885239819672 0.129829077618154 129.05889604142  
3                              0.132422882632008 -84.1907835186202 0.944908422935989 112.668391506986 0.944908422935989 112.668391506986 0.142414733245703 124.957865201951 
3.1                            0.145143257731997 -95.6962614545606 0.941697019355674 104.470001879298 0.941697019355674 104.470001879298 0.154983704169697 120.024476568708 
3.2                            0.157512848131952 -106.437675868329 0.938404738268341 96.2915941587697 0.938404738268341 96.2915941587697 0.167169363785544 114.459837215455 
3.3                            0.169224922068207 -116.600535419011 0.93509696416836 88.1338600669196 0.935096964168359 88.1338600669196 0.178684621880133 108.422945397258 
3.4                            0.180041971494771 -126.326889849729 0.931839024623787 79.9966422642368 0.931839024623787 79.9966422642367 0.189305901590639 102.037601436737 
3.5                            0.189780835000359 -135.726688270173 0.928693282441011 71.8789565150279 0.928693282441012 71.8789565150279 0.198861118486485 95.4004784849921 
3.6                            0.198302295613828 -144.887054149109 0.92571656466903 63.7790487775086 0.92571656466903 63.7790487775085 0.207220898207773 88.5881696198272 
3.7                            0.205503765727151 -153.879260291634 0.922957999711523 55.6944814095017 0.922957999711523 55.6944814095017 0.214292193098358 81.662797244482  
3.8                            0.21131412250076 -162.76383956467 0.920457294333519 47.6222423511004 0.920457294333519 47.6222423511004 0.22001368840428 74.6763471708764 
3.9                            0.215690135378755 -171.594336744294 0.918243452435806 39.5588713320723 0.918243452435805 39.5588713320723 0.224352620614925 67.6740140572104 
4                              0.218614181420678 179.579881319883 0.916333918469611 31.5005976581117 0.916333918469612 31.5005976581117 0.227302796129783 60.696819863168  
4.1                            0.220093099590325 170.711448725728 0.914734119678515 23.4434847669978 0.914734119678515 23.4434847669977 0.228883699349025 53.7837034459278 
4.2                            0.220158124534257 161.753242412404 0.91343738101554 15.3835773558273 0.913437381015541 15.3835773558271 0.229140630709167 46.9732116724712 
4.3                            0.218865887072975 152.65690726176  0.912425191828672 7.31704735252861 0.912425191828672 7.31704735252856 0.228145828613231 40.304855903335  
4.4                            0.216300484408223 143.371602112606 0.911667811164828 -0.759664720739482 0.911667811164829 -0.759664720739624 0.226000507586225 33.820127098957  
4.5                            0.212576607749242 133.842987873464 0.911125205793512 -8.84971637659714 0.911125205793512 -8.84971637659729 0.222837680817629 27.5630789310657 
4.6                            0.207843654188051 124.012592274413 0.910748319114947 -16.9557412689211 0.910748319114946 -16.9557412689213 0.218825508926223 21.580282087359  
4.7                            0.202290608935986 113.817852344837 0.910480667879503 -25.0797424558044 0.910480667879502 -25.0797424558046 0.214170695947575 15.919821751002  
4.8                            0.19615120200766 103.193375333615 0.910260255783544 -33.2230046820679 0.910260255783541 -33.223004682068 0.209121098162164 10.6288711479264 
4.9                            0.189708329391523 92.074263801471  0.910021778203234 -41.3860296025075 0.910021778203232 -41.3860296025077 0.203966195501426 5.74928895478915 
5                              0.183295888494374 80.4026270470702 0.909699071432268 -49.5684976880317 0.909699071432265 -49.5684976880319 0.199033443624213 1.31079667760226 
5.1                            0.17729501610272 68.1383662131864 0.909227734860444 -57.7692600542355 0.909227734860443 -57.7692600542355 0.194677997604932 -2.67817932842367 
5.2                            0.172120580453612 55.2744157235493 0.908547828679975 -65.9863625822729 0.908547828679973 -65.986362582273 0.191263388208925 -6.24074926434875 
5.3                            0.168193699565363 41.8541879270174 0.907606526704828 -74.2171034763144 0.907606526704827 -74.2171034763145 0.189132207257505 -9.43992311228667 
5.4                            0.16589878038605 27.9850954890082 0.906360587568322 -82.4581238861965 0.906360587568324 -82.4581238861964 0.188569255951912 -12.3807345809937 
5.5                            0.165530326354451 13.8390023055307 0.904778501154478 -90.7055295252732 0.90477850115448 -90.7055295252731 0.189764227282325 -15.2022840732726 
5.6                            0.167243503063441 -0.367299185920807 0.902842172699483 -98.9550394573267 0.902842172699485 -98.9550394573266 0.192784237423997 -18.0594113176059 
5.7                            0.171026570850627 -14.4088513842166 0.900548025232201 -107.202156533369 0.900548025232205 -107.202156533369 0.197565223190467 -21.0989480086516 
5.8                            0.176706611316243 -28.0926385215874 0.897907431193336 -115.442352434247 0.897907431193341 -115.442352434247 0.2039248367909  -24.4386733320253 
5.9                            0.183985168338452 -41.2847636315283 0.894946424307089 -123.671259015364 0.894946424307094 -123.671259015364 0.211591619097958 -28.1554945392127 
6                              0.192488474178903 -53.9172748335686 0.891704690207533 -131.884856765805 0.891704690207536 -131.884856765804 0.220240781929512 -32.2843957356115 
6.1                            0.2018155797567  -65.9786002316525 0.888233885062072 -140.079650824154 0.888233885062076 -140.079650824154 0.229527635355028 -36.8252262345319 
6.2                            0.211574530062001 -77.4967357025905 0.884595380516801 -148.25282528973 0.884595380516805 -148.25282528973 0.239113524095102 -41.752838185299 
6.3                            0.221404579417825 -88.5227800000742 0.880857574874166 -156.402367646534 0.880857574874169 -156.402367646534 0.248683066042783 -47.0270009156652 
6.4                            0.230987037295448 -99.1184394579247 0.877092938627851 -164.52715698414 0.877092938627854 -164.52715698414 0.257953889175537 -52.6002669540294 
6.5                            0.240048564093317 -109.348038369713 0.873374972833547 -172.627012197947 0.873374972833548 -172.627012197947 0.266680899185441 -58.4233688901729 
6.6                            0.248360178062382 -119.274144234392 0.869775249682612 179.297300838241 0.869775249682614 179.297300838241 0.274657012515138 -64.4484679653885 
6.7                            0.255734210185209 -128.955628178451 0.866360678194341 171.24410142346  0.866360678194343 171.24410142346  0.281711849468405 -70.6308086921956 
6.8                            0.262020565510079 -138.447183046828 0.863191099689664 163.210861582731 0.863191099689664 163.210861582731 0.287709428532299 -76.9293031429234 
6.9                            0.267103059341577 -147.799629824078 0.860317275178461 155.194303642171 0.860317275178462 155.194303642171 0.292545553456286 -83.3064469842694 
7                              0.270896248071627 -157.060603702407 0.85777928754047 147.190521829381 0.857779287540471 147.190521829381 0.296145348139126 -89.7278437756169 
7.1                            0.273342983488474 -166.275391294271 0.855605351267486 139.195122025166 0.855605351267487 139.195122025166 0.298461242797406 -96.1615157379913 
7.2                            0.274412818161567 -175.48780142396 0.85381100476026 131.203374423293 0.853811004760263 131.203374423293 0.299471615892158 -102.57711288637 
7.3                            0.274101333735179 175.258986559714 0.85239865516376 123.210374707192 0.85239865516376 123.210374707192 0.299180223917708 -108.945093627003 
7.4                            0.272430427151999 165.921624925862 0.851357451657886 115.211210152929 0.851357451657883 115.211210152929 0.297616486574946 -115.235932918071 
7.5                            0.269449555500625 156.455873947037 0.850663476696535 107.201127602352 0.850663476696533 107.201127602352 0.29483662411968 -121.419414719905 
7.6                            0.265237895796476 146.815992547932 0.850280261841028 99.175700386151  0.850280261841029 99.1757003861509 0.290925555377399 -127.464081609288 
7.7                            0.259907308302813 136.954321461839 0.850159651246583 91.1309909667646 0.850159651246585 91.1309909667644 0.285999348534381 -133.336945351341 
7.8                            0.25360588310586 126.821202640396 0.850243047286373 83.0637053510518 0.850243047286372 83.0637053510518 0.280207862245826 -139.003606848213 
7.9                            0.246521673816849 116.36547761834  0.850463075324346 74.971334304766  0.850463075324345 74.9713343047659 0.273737013488681 -144.428987627011 
8                              0.238885944924054 105.535939932123 0.850745695028277 66.8522752677716 0.850745695028278 66.8522752677715 0.266809859302399 -149.578924135   
8.1                            0.23097484448296 94.2842603157541 0.851012761775608 58.7059278639961 0.85101276177561 58.7059278639959 0.259685399184813 -154.422889294173 
8.2                            0.223107852978781 82.5699843799516 0.851185003426238 50.5327553077075 0.851185003426239 50.5327553077073 0.252653752098701 -158.938025926942 
8.3                            0.215640741528728 70.3680575614401 0.851185327366973 42.3343041192123 0.851185327366973 42.3343041192123 0.246026269695529 -163.114423151574 
8.4                            0.208950405358466 57.6787016314914 0.850942315680924 34.11317562551   0.850942315680923 34.1131756255099 0.24011944561682 -166.961070110881 
8.5                            0.203409454917465 44.5381193346695 0.850393710949223 25.8729448743417 0.850393710949223 25.8729448743417 0.235232455996259 -170.51121307949 
8.6                            0.19935067906529 31.0266082661357 0.849489651973712 17.6180258036061 0.84948965197371 17.6180258036065 0.231619978398082 -173.825180850707 
8.7                            0.197025778784183 17.2692855609223 0.848195398174734 9.35348554240012 0.848195398174733 9.35348554240029 0.229464288264164 -176.988648863836 
8.8                            0.196567772104817 3.42559658178262 0.846493291689335 1.08481512753708 0.846493291689334 1.08481512753726 0.228852526228114 179.894700144865 
8.9                            0.197968824875763 -10.3318999989934 0.844383750381087 -7.18233189654343 0.844383750381085 -7.18233189654325 0.229765077952068 176.715148598507 
9                              0.201081777458844 -23.8432913169846 0.841885159484276 -15.4424182009212 0.841885159484273 -15.4424182009211 0.232078461429736 173.370517392935 
9.1                            0.205645047034923 -36.9827014460397 0.839032624144672 -23.690301990175 0.839032624144672 -23.6903019901746 0.235581839931465 169.777548711288 
9.2                            0.211322122791558 -49.6690255314508 0.835875644631468 -31.9214999434992 0.835875644631465 -31.9214999434992 0.240002441520783 165.878398583207 
9.3                            0.217743690918575 -61.8653887785286 0.832474864147041 -40.1324182440176 0.832474864147037 -40.1324182440177 0.245033633188754 161.641689813584 
9.4                            0.224543089930836 -73.5710973930642 0.828898102304056 -48.3205389555988 0.828898102304049 -48.3205389555989 0.250360406235506 157.059420802934 
9.5                            0.231380983474198 -84.8108921390862 0.825215917697299 -56.4845526019468 0.825215917697293 -56.4845526019469 0.255679393767381 152.141766179505 
9.6                            0.237959456858046 -95.6249666079423 0.821496940152573 -64.6244315412209 0.821496940152566 -64.6244315412209 0.260712837167648 146.911546833349 
9.7                            0.244027913208349 -106.061311701672 0.817803183635154 -72.7414419961646 0.817803183635148 -72.7414419961646 0.26521736007343 141.399444973579 
9.8                            0.249383566165228 -116.17058206567 0.814185505737887 -80.8380949432626 0.814185505737881 -80.8380949432627 0.268988927423034 135.640369259538 
9.9                            0.253868871290213 -126.003033886853 0.810679332565282 -88.9180372685322 0.81067933256528 -88.9180372685324 0.271865263494249 129.670939368092 
10                             0.257367555548438 -135.606928848907 0.807300731687633 -96.9858847015311 0.807300731687633 -96.9858847015311 0.273726620485083 123.527859253473 
