! Touchstone file exported from HFSS 3D Layout Design 2026.1.0
!        File:           D:/Work/ADS/BFP_parallel/BFP_HFSS.aedt
!        Generated:      03:03:48 PM Aug  9, 2026
!        Design:         BFP
!        Project:        BFP_HFSS
!
! Variables:
!        BendModel = 0
!
# GHz S MA R 50.000000
! Terminal data exported
! Port[1] = Port1
! Port[2] = Port2
0.5                            0.989833741898357 142.281443721843 0.000237443914265772 51.4460460363146 0.000237443914265772 51.4460460363146 0.989848238043029 142.06918136315  
0.55                           0.9892349756378  138.557479190143 0.000261244880164161 47.8186321654658 0.000261244880166657 47.8186321654905 0.989250049324844 138.337516160001 
0.6                            0.988655865645066 134.839349111703 0.000285047483568171 44.17769347995   0.000285047483572912 44.1776934798685 0.988673865842414 134.615673358469 
0.65                           0.988088240105485 131.127045849952 0.000308852407139636 40.5291987230963 0.000308852407146206 40.5291987228427 0.988112460596393 130.903809632622 
0.7                            0.987524916986056 127.420662081195 0.000332663506295084 36.8777804658406 0.000332663506303 36.8777804653956 0.987559169162325 127.202163398837 
0.75                           0.986959732650523 123.720345567826 0.000356488186907573 33.2270838522841 0.000356488186916331 33.2270838516481 0.987008066407494 123.511011160759 
0.8                            0.986387457103771 120.026267417309 0.000380337635302192 29.5799817196219 0.00038033763531134 29.5799817188185 0.986453985403655 119.830635155501 
0.85                           0.985803669677582 116.338600167066 0.000404226918344953 25.9387162572596 0.000404226918354053 25.9387162563223 0.985892461860547 116.161300017863 
0.9                            0.985204630860222 112.657502778777 0.000428174977742275 22.3049991510121 0.00042817497775096 22.304999149983  0.985319649703011 112.503236245581 
0.95                           0.984587165721627 108.983110406622 0.000452204544426002 18.680087480447  0.000452204544433998 18.6800874793676 0.984732231255241 108.85662864825  
1                              0.983948564172527 105.315527441988 0.000476341997737206 15.0648447981538 0.000476341997744326 15.064844797062  0.984127333088013 105.221608400043 
1.05                           0.983286498469104 101.654822808278 0.000500617191316034 11.4597925695547 0.000500617191322143 11.4597925684839 0.983502451935704 101.598247688909 
1.1                            0.982598956328745 98.001026810378  0.000525063264074581 7.86515483512114 0.000525063264079651 7.86515483410073 0.982855391704511 97.9865562413483 
1.15                           0.981884187351528 94.3541290695178 0.000549716450981418 4.2808976981942  0.000549716450985441 4.28089769724516 0.982184210996657 94.3864792110347 
1.2                            0.981140660411067 90.7140772266873 0.000574615904984569 0.706764565048532 0.000574615904987609 0.706764564189598 0.981487179926282 90.7978960680858 
1.25                           0.980367029913694 87.0807761996724 0.000599803538431156 -2.85769229309931 0.000599803538433311 -2.85769229385899 0.980762744834254 87.2206202296432 
1.3                            0.979562109144496 83.4540878467879 0.000625323889877165 -6.41308347037911 0.000625323889878568 -6.4130834710355 0.980009499568281 83.6543992446354 
1.35                           0.978724849238575 79.8338309357564 0.00065122402021761 -9.96015715501254 0.000651224020218374 -9.96015715556304 0.979226162148349 80.0989153957399 
1.4                            0.97785432260179 76.2197813465649 0.000677553440566405 -13.4997766078789 0.000677553440566704 -13.4997766083256 0.978411555818081 76.5537866165663 
1.45                           0.9769497098469  72.6116724575768 0.000704364073216059 -17.0329001647519 0.000704364073216028 -17.0329001651002 0.977564593658035 73.0185676467543 
1.5                            0.976010289509015 69.009195678051  0.000731710246246671 -20.5605635488706 0.000731710246246429 -20.5605635491282 0.976684266093665 69.4927513653324 
1.55                           0.975035429963551 65.4120010997405 0.000759648721871816 -24.0838642899577 0.000759648721871514 -24.0838642901329 0.975769630764524 65.9757702555709 
1.6                            0.974024583096635 61.8196982468844 0.00078823875834943 -27.6039480549634 0.000788238758349149 -27.6039480550665 0.974819804332728 62.4669979642165 
1.65                           0.972977279378143 58.2318569086335 0.000817542205204268 -31.1219967057314 0.000817542205204122 -31.1219967057706 0.973833955899959 58.9657509254523 
1.7                            0.97189312406651 54.6480080414186 0.000847623631566919 -34.6392179097753 0.000847623631566983 -34.6392179097632 0.972811301776441 55.4712900258783 
1.75                           0.970771794336484 51.0676447313928 0.000878550487600508 -38.1568361422434 0.000878550487600822 -38.1568361421896 0.971751101405108 51.9828222917332 
1.8                            0.969613037169734 47.4902232091588 0.00091039329924181 -41.6760849295287 0.000910393299242438 -41.6760849294412 0.970652654292393 48.4995025837812 
1.85                           0.968416667886355 43.9151639106906 0.000943225896805247 -45.1982001976458 0.000943225896806208 -45.198200197533 0.969515297835837 45.0204352889986 
1.9                            0.967182569225182 40.3418525798259 0.000977125678380938 -48.7244146009844 0.000977125678382255 -48.724414600855 0.968338405969978 41.5446760015395 
1.95                           0.965910690904047 36.7696414089989 0.00101217390938953 -52.2559527192492 0.00101217390939115 -52.2559527191094 0.967121388577151 38.0712331885547 
2                              0.964601049609103 33.1978502160677 0.00104845606013553 -55.7940270220061 0.00104845606013746 -55.7940270218628 0.965863691630243 34.5990698393374 
2.05                           0.963253729376088 29.6257676561912 0.00108606218372817 -59.3398345112485 0.00108606218373037 -59.3398345111055 0.964564798050882 31.1271050990223 
2.1                            0.961868882336745 26.0526524687487 0.00112508733731306 -62.8945539626047 0.00112508733731549 -62.8945539624664 0.96322422927988 27.6542158907184 
2.15                           0.960446729811102 22.4777347602808 0.00116563205019109 -66.4593436952194 0.0011656320501937 -66.4593436950894 0.961841547567469 24.1792385325071 
2.2                            0.958987563731518 18.9002173253564 0.00120780284309282 -70.0353398089664 0.00120780284309558 -70.035339808846 0.960416358999329 20.7009703582317 
2.25                           0.957491748387554 15.3192770081571 0.00125171280364505 -73.6236548354231 0.00125171280364785 -73.6236548353154 0.95894831728105 17.2181713534371 
2.3                            0.955959722482166 11.7340661083841 0.00129748222391915 -77.2253767560313 0.00129748222392197 -77.2253767559359 0.957437128308472 13.7295658201978 
2.35                           0.954392001489639 8.14371383584758 0.00134523930690717 -80.8415683470743 0.00134523930690995 -80.8415683469923 0.955882555554524 10.233844086913  
2.4                            0.95278918030412 4.54732781877143 0.00139512094984791 -84.4732668166269 0.00139512094985059 -84.4732668165574 0.95428442630472 6.72966428142828 
2.45                           0.951151936164814 0.94399567142899 0.0014472736135486 -88.1214837033687 0.00144727361355114 -88.1214837033126 0.952642638773229 3.21565418808129 
2.5                            0.949481031839739 -2.66721337280257 0.00150185428824102 -91.7872050113507 0.00150185428824336 -91.7872050113052 0.950957170129343 -0.309586788570903 
2.55                           0.94777731904457 -6.2872467565369 0.00155903156811142 -95.471391558298 0.00155903156811352 -95.4713915582632 0.94922808545999 -3.84748552851135 
2.6                            0.946041742066457 -9.9170668149931 0.00161898684848805 -99.1749795180896 0.00161898684848988 -99.1749795180641 0.947455547687375 -7.39949294272314 
2.65                           0.944275341554754 -13.5576489074855 0.00168191566180814 -102.898881140505 0.00168191566180964 -102.898881140487 0.945639828451622 -10.9670815327706 
2.7                            0.942479258431335 -17.2099794573303 0.00174802917097368 -106.643985633464 0.00174802917097486 -106.643985633452 0.943781319955974 -14.5517427333429 
2.75                           0.940654737862565 -20.8750538941374 0.001817555841614 -110.411160194703 0.00181755584161484 -110.411160194696 0.941880547756315 -18.1549840063032 
2.8                            0.938803133222965 -24.5538744931634 0.00189074331818387 -114.201251181276 0.00189074331818438 -114.201251181273 0.939938184456991 -21.7783256538561 
2.85                           0.93692590996713 -28.2474481074293 0.00196786053284564 -118.015085406575 0.0019678605328458 -118.015085406575 0.937955064250654 -25.4232973179855 
2.9                            0.93502464931152 -31.9567837897007 0.00204920008083272 -121.853471555734 0.00204920008083258 -121.853471555736 0.935932198210627 -29.0914341334511 
2.95                           0.933101051611287 -35.6828903032537 0.00213508090162723 -125.71720171153 0.00213508090162674 -125.717201711532 0.933870790209493 -32.784272502503 
3                              0.931156939299327 -39.4267735226491 0.00222585131198997 -129.607052984304 0.00222585131198919 -129.607052984306 0.931772253296933 -36.5033454612751 
3.05                           0.929194259235307 -43.1894337285883 0.00232189244489097 -133.523789241151 0.00232189244488994 -133.523789241152 0.92963822632269 -40.2501776107088 
3.1                            0.927215084291476 -46.9718628043944 0.00242362215798493 -137.468162931904 0.00242362215798367 -137.468162931903 0.927470590536684 -44.0262795891072 
3.15                           0.925221613979772 -50.7750413458168 0.00253149948681231 -141.440917012388 0.00253149948681086 -141.440917012386 0.925271485837672 -47.8331420692345 
3.2                            0.92321617390103 -54.5999357007955 0.002646029731822 -145.442786969344 0.00264602973182036 -145.44278696934 0.923043326274293 -51.6722292705573 
3.25                           0.921201213772256 -58.4474949616105 0.00276777028514935 -149.474502956576 0.00276777028514763 -149.47450295657 0.920788814328332 -55.5449719870455 
3.3                            0.919179303761811 -62.318647938587 0.00289733732352909 -153.536792058497 0.0028973373235273 -153.53679205849 0.918510953430112 -59.4527601432288 
3.35                           0.917153128835226 -66.214300152319 0.00303541351863072 -157.630380705812 0.00303541351862886 -157.630380705803 0.916213058071148 -63.3969349062366 
3.4                            0.915125480786077 -70.1353308903177 0.00318275694655907 -161.755997278786 0.00318275694655726 -161.755997278776 0.913898760790783 -67.3787803996555 
3.45                           0.913099247596909 -74.0825903842021 0.00334021141562934 -165.914374947016 0.00334021141562758 -165.914374947006 0.911572015223616 -71.3995150864856 
3.5                            0.911077399744262 -78.0568971751487 0.00350871847754625 -170.106254811211 0.00350871847754455 -170.1062548112  0.90923709430502 -75.4602829135372 
3.55                           0.909062973028924 -82.0590357484491 0.00368933144401534 -174.332389432821 0.00368933144401378 -174.332389432811 0.906898582645815 -79.5621443384621 
3.6                            0.907059047476623 -86.089754532857 0.00388323180144239 -178.593546862078 0.00388323180144096 -178.593546862069 0.904561362006742 -83.706067393416 
3.65                           0.905068721814125 -90.1497643771397 0.00409174850442145 177.109484695178 0.00409174850442018 177.109484695188 0.902230588731807 -87.8929189761296 
3.7                            0.903095082978555 -94.2397376351512 0.00431638073895407 172.775891395634 0.004316380738953 172.775891395643 0.899911661938782 -92.1234565999062 
3.75                           0.901141170060649 -98.3603080121497 0.00455882488502043 168.404827242391 0.00455882488501953 168.404827242399 0.897610181217001 -96.3983208786239 
3.8                            0.899209932010274 -102.512071349457 0.00482100658343499 163.995406263998 0.00482100658343425 163.995406264004 0.895331892546382 -100.718029071014 
3.85                           0.897304178338222 -106.695587552526 0.00510511903468941 159.5466930565   0.00510511903468885 159.546693056505 0.893082621124645 -105.082970060075 
3.9                            0.895426521921651 -110.911383899916 0.00541366894211793 155.057691282446 0.0054136689421175 155.05769128245  0.890868189764974 -109.493401198304 
3.95                           0.893579312848208 -115.159960008783 0.00574953187750059 150.527329631679 0.00574953187750034 150.527329631681 0.888694321491405 -113.949447507467 
4                              0.891764561995819 -119.441794777936 0.00611601932016601 145.954444640365 0.00611601932016589 145.954444640366 0.886566524893658 -118.451103783237 
4.05                           0.889983852714763 -123.757355684673 0.00651696023611921 141.337759631731 0.00651696023611922 141.337759631731 0.884489960676084 -122.998240221194 
4.1                            0.888238238517628 -128.107110879661 0.00695680087013167 136.675858876994 0.00695680087013176 136.675858876993 0.882469287601326 -127.590612253331 
4.15                           0.886528124037766 -132.4915446097  0.00744072748795044 131.96715586739  0.00744072748795061 131.967155867388 0.88050848562328 -132.227875366866 
4.2                            0.884853125611806 -136.911176607544 0.0079748182209369 127.209854323547 0.00797481822093708 127.209854323545 0.878610653333577 -136.909605775341 
4.25                           0.883211906567812 -141.366586229861 0.00856623206238318 122.401900225714 0.00856623206238338 122.401900225711 0.87677777578085 -141.635327934538 
4.3                            0.88160198049935 -145.85844231131 0.00922344562905867 117.540922697978 0.00922344562905885 117.540922697976 0.875010457077327 -146.404550055645 
4.35                           0.880019473244483 -150.387539951833 0.00995655179901998 112.624160978918 0.00995655179902013 112.624160978915 0.873307609716949 -151.216808984524 
4.4                            0.878458830620054 -154.954845790216 0.0107776391520104 107.648373898351 0.0107776391520105 107.648373898349 0.871666088805379 -156.071726116591 
4.45                           0.87691245365971 -159.561553774687 0.0117012778344612 102.609727164987 0.0117012778344614 102.609727164985 0.870080253868275 -160.969076441451 
4.5                            0.875370235359121 -164.209154070726 0.0127451468793634 97.5036522198293 0.0127451468793634 97.5036522198282 0.868541432684425 -165.908873417014 
4.55                           0.873818961477206 -168.899518619801 0.0139308513775212 92.3246682269779 0.0139308513775213 92.3246682269773 0.867037249327453 -170.89147324136 
4.6                            0.872241520761401 -173.635008085365 0.0152849971075888 87.0661556574539 0.0152849971075889 87.0661556574536 0.865550760143724 -175.917703340576 
4.65                           0.870615843789918 -178.418606648192 0.0168406181816659 81.7200654139673 0.0168406181816659 81.7200654139675 0.86405931326849 179.010978305313 
4.7                            0.868913449057006 176.745906432407 0.0186390944462395 76.2765408313992 0.0186390944462396 76.2765408313997 0.862533003748587 173.892283765745 
4.75                           0.867097410876267 171.853736060281 0.0207327568649665 70.7234200413259 0.0207327568649665 70.7234200413266 0.860932527727873 168.722842672053 
4.8                            0.865119460508068 166.898783860705 0.0231884721522783 65.0455712972952 0.0231884721522784 65.0455712972961 0.859206128818586 163.497878112486 
4.85                           0.862915762164285 161.873269294807 0.0260926406168031 59.2239909613384 0.0260926406168033 59.2239909613395 0.857285148462781 158.210784385143 
4.9                            0.860400619883978 156.767224183071 0.0295582628043841 53.2345580387965 0.0295582628043844 53.2345580387976 0.855077387174598 152.852568545503 
4.95                           0.857456879159986 151.567811013205 0.0337350785624302 47.0462821433782 0.0337350785624305 47.0462821433791 0.85245695836183 147.411101375544 
5                              0.853920918877691 146.258396442862 0.0388243325414604 40.618789484851  0.0388243325414608 40.6187894848517 0.849248389454999 141.870101511739 
5.05                           0.849558560643797 140.817290535996 0.0451005896572622 33.898639810125  0.0451005896572626 33.8986398101255 0.845201049313358 136.2077509271   
5.1                            0.844025329316491 135.216052895597 0.0529443725261622 26.8138155321747 0.0529443725261625 26.8138155321748 0.839946885418005 130.394823239883 
5.15                           0.836799085080327 129.417318276513 0.0628913619572896 19.2653072814826 0.0628913619572898 19.2653072814826 0.832928649159639 124.392246856196 
5.2                            0.82706294198737 123.372372277168 0.0757062798280349 11.1140488811242 0.0757062798280349 11.1140488811241 0.823274906927142 118.148290001719 
5.25                           0.813498356375028 117.019758503319 0.0924904165856481 2.16047988142487 0.0924904165856482 2.16047988142478 0.809578561883976 111.596605219256 
5.3                            0.793921523483934 110.28982848235  0.114822257030293 -7.88691946204553 0.114822257030292 -7.88691946204571 0.78950592116087 104.660092400777 
5.35                           0.764687210891907 103.132335569084 0.144877588457556 -19.4563834426277 0.144877588457555 -19.4563834426278 0.759149698946899 97.2783007951488 
5.4                            0.71997360155825 95.6238261342654 0.18527223321891 -33.1595269210588 0.185272233218908 -33.1595269210588 0.712228092985591 89.5187238493701 
5.45                           0.652277174360629 88.3249360450548 0.237786272591731 -49.7700431191425 0.23778627259173 -49.7700431191425 0.640496987005727 81.9608962401994 
5.5                            0.559858500899686 83.2131190866821 0.299377147353699 -69.9095103085466 0.299377147353698 -69.9095103085464 0.541515064209974 76.766539892463  
5.55                           0.470201413428612 84.3441287438296 0.356848458816462 -93.1597924810069 0.356848458816463 -93.1597924810068 0.444659172069046 78.7358163988834 
5.6                            0.443511138995788 91.5195792125577 0.39263688864978 -117.337393581334 0.392636888649781 -117.337393581334 0.41830574677521 88.0096781355361 
5.65                           0.482771755088336 94.984455594551  0.403828658564288 -139.80167021786 0.403828658564288 -139.80167021786 0.465893250327183 92.6853007014662 
5.7                            0.531959734916769 92.0413564955791 0.402618402101441 -159.475947773439 0.40261840210144 -159.475947773439 0.523111963710278 89.9488815524896 
5.75                           0.56218078412386 85.8525140989455 0.400745030321349 -176.782101838642 0.400745030321348 -176.782101838642 0.559067627714101 83.7707645422605 
5.8                            0.569356721276008 78.4400051771169 0.40397294249429 167.378979129157 0.403972942494289 167.378979129157 0.570394262439452 76.4257795023293 
5.85                           0.55494548415719 70.6471572360598 0.414099878691016 152.158822548402 0.414099878691015 152.158822548402 0.559293129467365 68.8038308221013 
5.9                            0.51993202910811 62.9792421916627 0.430892295059401 136.874582672032 0.430892295059401 136.874582672032 0.527264990442394 61.4152337681734 
5.95                           0.465027360435178 56.17446807679   0.45260809871916 121.014628264411 0.45260809871916 121.014628264411 0.475426721817128 54.9870250437118 
6                              0.394012411187285 51.8283014603275 0.475778753564337 104.273776676719 0.475778753564337 104.273776676719 0.407945412151988 51.0407822272472 
6.05                           0.320706245014907 53.1329600726528 0.495282471283905 86.6402635985589 0.495282471283905 86.6402635985588 0.338774753066483 52.436290767193  
6.1                            0.276482644253774 63.1881966896793 0.505841786818204 68.4624180955362 0.505841786818204 68.4624180955362 0.29774848627233 61.5544849799291 
6.15                           0.291272371389268 75.9273573528823 0.504824976980008 50.3618073049513 0.504824976980007 50.3618073049512 0.311876783457184 72.9627391066267 
6.2                            0.34894054640118 81.0629440395639 0.493904553614736 32.9664721853176 0.493904553614735 32.9664721853175 0.367003447603871 77.9114027846056 
6.25                           0.414063206997272 79.0095695446838 0.477685400320698 16.6530338881342 0.477685400320698 16.6530338881342 0.430548595965048 76.3831421137875 
6.3                            0.468052959175661 73.3648465349834 0.460971120555527 1.47979233072865 0.460971120555527 1.47979233072859 0.484248632487068 71.4556526882235 
6.35                           0.50562983088484 66.2126244538418 0.447157009117859 -12.7227123729287 0.447157009117859 -12.7227123729288 0.522523159208191 65.0748111943978 
6.4                            0.52665815686188 58.4745761586655 0.438090757031323 -26.2334551722634 0.438090757031323 -26.2334551722634 0.545038158509082 58.1510495108587 
6.45                           0.532147756407175 50.537800702589  0.434530618519357 -39.3634719016982 0.434530618519357 -39.3634719016982 0.552768936641449 51.0909979639476 
6.5                            0.522782157871441 42.5894547813288 0.436563281254868 -52.4203927753809 0.436563281254867 -52.4203927753809 0.546511105740344 44.1094035022998 
6.55                           0.498606314630148 34.803785276164  0.443784149041688 -65.6944119714532 0.443784149041688 -65.6944119714532 0.526574722466974 37.4085479270818 
6.6                            0.459380564234061 27.5072946919536 0.45524418646566 -79.4461352672466 0.45524418646566 -79.4461352672466 0.493175235146232 31.327219934972  
6.65                           0.405713577959415 21.4283240729979 0.469242721193728 -93.881368485911 0.469242721193729 -93.881368485911 0.447601012988478 26.5274154464527 
6.7                            0.341579861753583 18.1509559866872 0.483149505301804 -109.104416158991 0.483149505301804 -109.104416158991 0.394548236228781 24.2213497322441 
6.75                           0.279119935273146 20.6458124662228 0.493601167225271 -125.057772343647 0.493601167225271 -125.057772343647 0.345520249034363 26.1041243957451 
6.8                            0.243494781086818 31.4448777795664 0.497410258464747 -141.485530839341 0.497410258464745 -141.485530839341 0.319481073194199 32.7150610982885 
6.85                           0.258123515427384 44.6208970917039 0.492967218189622 -157.974546699719 0.49296721818962 -157.974546699719 0.330752287775567 40.4584633148643 
6.9                            0.311248206881088 50.5511608612804 0.481102706524058 -174.084180906738 0.481102706524057 -174.084180906738 0.372296112932779 44.3990558337948 
6.95                           0.374461477236023 49.2850777600273 0.464578383650445 170.508165317506 0.464578383650444 170.508165317506 0.424751195570265 43.6845065474445 
7                              0.430901923922575 44.1663785872689 0.446699882872531 155.93589595494  0.44669988287253 155.93589595494  0.473657819937141 39.8868675733042 
7.05                           0.474469007098443 37.3030410974649 0.430189473462291 142.162235159226 0.43018947346229 142.162235159226 0.512478071928518 34.455530687287  
7.1                            0.504098466319937 29.6993005909045 0.416804968514666 129.0412767824   0.416804968514666 129.0412767824   0.539413018097577 28.2402785933708 
7.15                           0.520484999608741 21.7982465696587 0.407467794561926 116.374709596648 0.407467794561925 116.374709596648 0.554629955168377 21.6757867175474 
7.2                            0.524593597749764 13.7870125162314 0.402533100168777 103.947507277046 0.402533100168776 103.947507277046 0.558785140349895 14.977132214522  
7.25                           0.517089956262336 5.75071076808875 0.40200211562106 91.545541223064  0.402002115621058 91.5455412230639 0.55240545553649 8.26437070645737 
7.3                            0.49822223984988 -2.2389010667274 0.405622047935836 78.9636279855221 0.405622047935835 78.9636279855221 0.535737342244544 1.64308859714522 
7.35                           0.467970842300761 -10.0495507062082 0.412880327406718 66.0119100730315 0.41288032740672 66.0119100730316 0.508885991580594 -4.72802026428653 
7.4                            0.426469013662778 -17.391471586675 0.422921591504314 52.5267905237231 0.422921591504318 52.5267905237233 0.472239124297572 -10.5582624755478 
7.45                           0.374830231528882 -23.6540347426136 0.434441311300851 38.3906173882681 0.434441311300856 38.3906173882683 0.427276548886782 -15.3200758055202 
7.5                            0.316615129443687 -27.628403916171 0.445657752943169 23.5600416045232 0.445657752943175 23.5600416045232 0.377851175820993 -18.1442788413831 
7.55                           0.260137597829164 -27.2163391056323 0.454504710477736 8.0943237897427  0.454504710477741 8.09432378974252 0.331631167072593 -17.9090855418786 
7.6                            0.220523380858928 -20.2924324684016 0.459126124483798 -7.83561259724858 0.4591261244838  -7.83561259724872 0.29995327397833 -14.0833206828974 
7.65                           0.213883237698807 -9.28867009141327 0.458518169593358 -23.9771996473765 0.458518169593357 -23.9771996473762 0.292401502384835 -8.38491587699273 
7.7                            0.238769081646183 -1.94264486409833 0.452919546822502 -40.0643818620289 0.452919546822498 -40.064381862028 0.307956257549672 -4.32839101462441 
7.75                           0.277087236049229 -1.25364976810352 0.443646992873676 -55.893048146645 0.443646992873673 -55.8930481466435 0.335651919233666 -3.86506171803034 
7.8                            0.313578961951725 -5.29973260115258 0.43250536001404 -71.3662001696085 0.43250536001404 -71.3662001696067 0.363998087799109 -6.63801751633887 
7.85                           0.340806500603191 -11.9964955101125 0.421180162424748 -86.4960401469929 0.421180162424751 -86.4960401469914 0.385877716647751 -11.5950639434863 
7.9                            0.356142877029016 -20.1298818338631 0.410889949089501 -101.377385228751 0.410889949089502 -101.377385228751 0.39806139786731 -17.8869148571012 
7.95                           0.359219390915827 -29.0789902055713 0.402305566851313 -116.153531142069 0.402305566851307 -116.15353114207 0.399571442524977 -24.9797066532531 
8                              0.350623749528353 -38.5314034086587 0.395613183210985 -130.987189656595 0.395613183210966 -130.987189656596 0.390527892696438 -32.5554688960691 
8.05                           0.331369080165206 -48.3156344077309 0.390613999135349 -146.039486613859 0.390613999135316 -146.03948661386 0.371583400654207 -40.4084271237665 
8.1                            0.30277870094029 -58.304169627567 0.386813578589231 -161.455353095985 0.386813578589192 -161.455353095985 0.343751927253342 -48.3685136024794 
8.15                           0.266573548433818 -68.3485598314682 0.383498186480728 -177.353222542992 0.383498186480696 -177.35322254299 0.308451607002265 -56.2441257122152 
8.2                            0.225018383880035 -78.2232365122607 0.379813558534065 166.181568798327 0.379813558534054 166.181568798328 0.267624490955217 -63.7733669603299 
8.25                           0.181011415124106 -87.5620987271178 0.374857894586779 149.098737420774 0.374857894586795 149.098737420771 0.223819703139937 -70.5773341200827 
8.3                            0.138026024281738 -95.7819770024874 0.367783119015997 131.37915274376  0.367783119016021 131.379152743749 0.1801488350064  -76.121401103324 
8.35                           0.0998394046326322 -102.058439667283 0.357879579014335 113.02554309403  0.357879579014335 113.025543094011 0.140049123646985 -79.7425383498445 
8.4                            0.0699210904572855 -105.798045285361 0.344616729079588 94.0512840578243 0.34461672907954 94.0512840578035 0.106748361392987 -80.9840910869378 
8.45                           0.0501359839595592 -108.974110060129 0.32763456303565 74.4733360331788 0.327634563035576 74.4733360331649 0.0821352684041425 -80.7765411246031 
8.5                            0.0395905000544703 -119.865320288096 0.306716771692438 54.3161143225897 0.306716771692408 54.3161143225873 0.0651530245289941 -83.3600984632289 
8.55                           0.0387555673857205 -147.848487234146 0.281805837588957 33.6317258123138 0.281805837589034 33.6317258123137 0.0526726923290797 -97.112846161884 
8.6                            0.0538687363563785 177.605753229651 0.253122861979322 12.5374823966322 0.253122861979487 12.5374823966145 0.0481462617980675 -132.612057583508 
8.65                           0.0857797129011015 151.862789465005 0.221398285169713 -8.74057255154315 0.221398285169863 -8.74057255159091 0.0684141977754102 -177.225472601831 
8.7                            0.129347692241862 133.001455898388 0.188071203683473 -29.8496043231901 0.188071203683521 -29.8496043232543 0.116111799338928 152.890241319059 
8.75                           0.179159097222484 117.563659600062 0.155178243950372 -50.3555832984945 0.155178243950342 -50.3555832985414 0.180875294653795 132.34332893759  
8.8                            0.230497404221958 104.192036633381 0.124810376043059 -69.851856273364 0.124810376043044 -69.8518562733727 0.253812211845374 115.714874409287 
8.85                           0.280148750347266 92.4513591389971 0.0984552699107611 -88.0682029273985 0.0984552699108138 -88.0682029273829 0.327682036265955 101.22174026741  
8.9                            0.326956217989496 82.1276202280996 0.0766923220012809 -104.911693699293 0.0766923220013797 -104.911693699289 0.397315339506233 88.2901636645373 
8.95                           0.37138929002655 72.9617895978555 0.0593398400873974 -120.431144812079 0.0593398400874895 -120.43114481211 0.459850265791598 76.6716678791662 
9                              0.41439076045458 64.6232772139697 0.0458017798128001 -134.747145225283 0.0458017798128539 -134.74714522534 0.514280825873585 66.193628591136  
9.05                           0.456374824874944 56.7960382313904 0.0353660773970886 -147.989778632402 0.0353660773971059 -147.989778632452 0.560757288031833 56.7018105995269 
9.1                            0.496954721775567 49.2605436905735 0.0273718475998803 -160.263177243597 0.0273718475998812 -160.263177243606 0.600001389518356 48.053848536393  
9.15                           0.535273049743729 41.9113570630494 0.0212700368551592 -171.637714337655 0.0212700368551615 -171.637714337614 0.632934297597049 40.1219170990981 
9.2                            0.570468145197066 34.7242044436166 0.0166262390347493 177.838570096823 0.0166262390347591 177.838570096895 0.660478741158718 32.7944945167592 
9.25                           0.60196293668336 27.7124970131037 0.0131020966973125 168.121129947783 0.0131020966973268 168.121129947855 0.683470485719757 25.9761190577816 
9.3                            0.629533020539816 20.8968882313988 0.0104343099390053 159.153382393586 0.0104343099390181 159.153382393634 0.702629054003062 19.5859027360983 
9.35                           0.653243238927719 14.290959251812  0.00841786646286103 150.860486343195 0.00841786646286821 150.860486343214 0.718557067967861 13.5555602012395 
9.4                            0.673344496163749 7.89754782227743 0.00689381797881941 143.152726476935 0.00689381797882014 143.152726476936 0.731751610101504 7.82740451234036 
9.45                           0.690181474448725 1.71003453237695 0.0057400670181033 135.934954005721 0.00574006701809925 135.934954005723 0.742619320622393 2.35252174980341 
9.5                            0.704127480090536 -4.28488789605249 0.00486389042511922 129.117499055844 0.00486389042511294 129.117499055859 0.751491430546223 -2.91080216241931 
9.55                           0.715545191309807 -10.1045459676926 0.00419561935133989 122.624938618869 0.00419561935133367 122.6249386189   0.75863720212634 -7.99839772625144 
9.6                            0.724766483568739 -15.7682302503862 0.00368332389599369 116.400847872703 0.00368332389598899 116.400847872739 0.764275337365826 -12.9412957789442 
9.65                           0.732084459467379 -21.2957899737649 0.00328847246085902 110.408325334902 0.0032884724608566 110.408325334929 0.768583401122887 -17.7666128590047 
9.7                            0.737752502046489 -26.7067522378427 0.00298250833649716 104.62724331431  0.00298250833649697 104.627243314312 0.771705494841638 -22.4982718857982 
9.75                           0.741986947925581 -32.0198163588845 0.00274423191731782 99.0497022579578 0.00274423191731947 99.0497022579239 0.773758467383259 -27.1575883181594 
9.8                            0.744971335330351 -37.2525972777428 0.00255784605041789 93.6751277800709 0.00255784605042067 93.675127780001  0.774836939197458 -31.7637471702099 
9.85                           0.746861087062602 -42.4215249019847 0.0024115198489334 88.5060445839916 0.00241151984893664 88.5060445838938 0.775017383101142 -36.3341915513972 
9.9                            0.747788044160165 -47.5418352208325 0.0022963428420327 83.5450380828215 0.00229634284203549 83.5450380827207 0.774361466792989 -40.8849392139849 
9.95                           0.747864587261241 -52.6276108581746 0.00220556558205384 78.7929673428456 0.00220556558205557 78.7929673427748 0.772918826433136 -45.4308400497017 
10                             0.747187258168999 -57.6918439733398 0.00213404733021509 74.248215885135  0.00213404733021508 74.2482158851351 0.770729409802879 -49.9857845470771 
