! Touchstone file exported from HFSS 3D Layout Design 2026.1.0
!        File:           D:/Work/ADS/SIMADS_EM_PAR/HFSS_VERDICT/sma_connector_100mm_50r_hfss_solve.aedt
!        Generated:      11:22:27 PM Aug  3, 2026
!        Design:         SMA_CONNECTOR_100MM_50R
!        Project:        sma_connector_100mm_50r_hfss_solve
!
# GHz S MA R 50.000000
! Terminal data exported
! Port[1] = Port1
! Port[2] = Port2
4                              0.504073985673659 -150.801333269937 0.67132599026262 112.619788089486 0.671325990262622 112.619788089486 0.500566555884762 -150.761844738455 
4.1                            0.371011281345686 -164.628651221157 0.71955569328538 88.814494550786  0.719555693291866 88.8144945506168 0.361267460210625 -164.718072316586 
4.2                            0.180917889127478 -154.94478658637 0.755309876080715 61.174090217648  0.755309876083465 61.1740902174004 0.169849649168885 -155.678154779089 
4.3                            0.24221538717193 -97.9796999191892 0.737162301536974 32.0060872220001 0.73716230153709 32.0060872219255 0.232529260175832 -94.5114726496671 
4.4                            0.438926577041702 -101.709361226595 0.674883264631039 5.37255645142324 0.674883264631078 5.372556451431   0.43379692464457 -99.3958307359765 
4.5                            0.563250208201783 -115.688716377203 0.614614802016403 -17.2267510031439 0.61461480201646 -17.2267510031394 0.559815343218195 -114.146195995923 
4.6                            0.614716268956252 -129.817871615977 0.582898746686135 -37.0742634368296 0.582898746686111 -37.0742634368304 0.611762886970925 -128.777674123893 
4.7                            0.604966128477518 -143.552570462315 0.586241813011956 -56.3123968336256 0.586241813011934 -56.3123968336254 0.602005162899628 -142.938980621129 
4.8                            0.52830433397942 -157.095500158703 0.623169023389123 -77.2585536046938 0.623169023389145 -77.2585536046948 0.524675522023398 -156.983607681579 
4.9                            0.367724878762384 -166.815460292442 0.678928344345307 -102.147540867019 0.678928344345337 -102.147540867022 0.361516393389295 -167.49462926452 
5                              0.201448642229686 -140.88668879356 0.708593100318457 -131.419178398673 0.70859310031846 -131.419178398676 0.188179864523654 -140.59704356594 
5.1                            0.343149517986758 -105.06008674874 0.671252624475333 -161.202942445656 0.67125262447533 -161.202942445656 0.335853505794569 -102.623471247006 
5.2                            0.527866197100986 -112.735395293164 0.599395481318976 173.139392343938 0.599395481318978 173.139392343938 0.523822361947606 -111.092538804389 
5.3                            0.629272103601194 -125.551165749539 0.543008452923907 152.016764421573 0.543008452923907 152.016764421573 0.626357913804145 -124.378461053781 
5.4                            0.662997106229999 -138.078420580629 0.519917397646763 133.359400436783 0.519917397646761 133.359400436783 0.660446978920161 -137.247979942353 
5.5                            0.639718958603403 -150.350364163239 0.532303844545393 114.755859738081 0.532303844545393 114.755859738081 0.637010457248502 -149.843898735523 
5.6                            0.548577116073875 -162.353143999896 0.577687636259328 93.7015301786559 0.57768763625933 93.7015301786558 0.544949275245527 -162.246189583824 
5.7                            0.372729943882807 -168.401300884459 0.637966665351503 67.8175844557033 0.637966665351505 67.8175844557029 0.366174547207196 -168.868063210403 
5.8                            0.247404956296864 -135.894797106642 0.6601534077559  37.3010379987604 0.660153407755901 37.3010379987602 0.236158816749451 -134.860677405663 
5.9                            0.419252658630507 -114.142642478069 0.611243429780269 7.45739265555034 0.611243429780269 7.45739265555037 0.413182442747241 -112.403503308331 
6                              0.584685957673145 -122.46505692861 0.539803085580432 -17.2124904760067 0.539803085580432 -17.2124904760067 0.580992482491131 -121.240925009989 
6.1                            0.666958679585042 -133.994467125926 0.491451445058517 -37.3308110077593 0.491451445058517 -37.3308110077593 0.66406402509762 -133.122720488562 
6.2                            0.686352606552583 -145.242438028335 0.477416483232669 -55.4300949976235 0.477416483232669 -55.4300949976235 0.683547638886177 -144.663171459744 
6.3                            0.649415416082167 -156.336495288049 0.498049024062187 -74.1076745402522 0.498049024062186 -74.1076745402522 0.646056840504897 -156.071072240449 
6.4                            0.540370764629089 -166.550244434464 0.549413295203181 -96.0871534191566 0.549413295203181 -96.0871534191567 0.535247893791427 -166.7105743564  
6.5                            0.356415071525581 -165.913580748929 0.605901736572841 -123.694080094435 0.605901736572842 -123.694080094435 0.346369282828486 -166.474916589075 
6.6                            0.318819248408902 -130.387864315702 0.60764957532648 -155.305908474075 0.60764957532648 -155.305908474076 0.306762496758524 -128.704359589729 
6.7                            0.508169309511884 -122.310605834575 0.544501603866921 175.743354941084 0.544501603866922 175.743354941084 0.501850415754022 -120.630913445206 
6.8                            0.645228737793752 -131.250947903035 0.476850224379579 152.721775914092 0.476850224379578 152.721775914092 0.64132207256486 -130.007531982693 
6.9                            0.706383288328294 -141.602449494324 0.437959921125144 133.870571163443 0.437959921125143 133.870571163443 0.703409018673706 -140.661080966902 
7                              0.712510884905645 -151.668140296376 0.432406191825583 116.448768636444 0.432406191825583 116.448768636444 0.709769822232067 -150.973572102035 
7.1                            0.664966479540182 -161.646931261585 0.459615384618864 97.8240176840964 0.459615384618866 97.8240176840963 0.661862960341713 -161.203287059607 
7.2                            0.544370162730972 -170.143993065861 0.514886559224765 75.1467811697173 0.514886559224767 75.1467811697171 0.539873686016505 -170.006294948438 
7.3                            0.366257074657278 -164.365808148445 0.567235873159539 46.2542535332384 0.56723587315954 46.2542535332381 0.358223049359896 -164.300741745907 
7.4                            0.385496867948965 -133.181520140212 0.555916460338048 14.0934638499481 0.555916460338049 14.0934638499481 0.377861101071657 -131.887176156507 
7.5                            0.567488143145243 -130.410437301122 0.48912262844098 -13.9887002488544 0.489122628440982 -13.9887002488541 0.563153698194161 -129.269844852562 
7.6                            0.683598956174797 -138.933560740135 0.428163145554919 -35.8683372032126 0.428163145554922 -35.8683372032123 0.680578493290022 -138.077199202456 
7.7                            0.731201089453741 -148.268472913908 0.397010544260619 -53.9420216859338 0.39701054426062 -53.9420216859338 0.72857057632764 -147.639565005619 
7.8                            0.729035943292602 -157.387998967699 0.397194728212458 -71.012145637219 0.397194728212455 -71.0121456372189 0.726238408999649 -156.974649709365 
7.9                            0.675208686456982 -166.404391044099 0.427973830246145 -89.7170077195653 0.427973830246141 -89.7170077195651 0.671574209492875 -166.238594840689 
8                              0.550196940072052 -173.338094988181 0.483952823275658 -112.941020453279 0.483952823275656 -112.941020453279 0.544350168146118 -173.482035802572 
8.1                            0.387777638042406 -164.641741789051 0.531502569119826 -142.549621623189 0.531502569119826 -142.549621623189 0.377438182769766 -164.647480865817 
8.2                            0.434381165206641 -138.777516587298 0.514491053722837 -174.669538945143 0.514491053722837 -174.669538945143 0.425398220951792 -137.553638726811 
8.3                            0.600319688987197 -137.873840586752 0.451623129595634 157.978322979793 0.451623129595636 157.978322979793 0.595002425419906 -136.827250836458 
8.4                            0.700390099898898 -145.694092510913 0.399088532091429 136.658111453744 0.39908853209143 136.658111453744 0.696481817261045 -144.956126274254 
8.5                            0.737422109100414 -154.244633438899 0.375422729545785 118.700265177686 0.375422729545785 118.700265177686 0.733711348109943 -153.779614407805 
8.6                            0.725995561835974 -162.66807843707 0.381452656228261 101.251750024617 0.381452656228259 101.251750024617 0.721527007743637 -162.490423393679 
8.7                            0.660494588079953 -170.718457098364 0.416130114157331 81.5469629022501 0.416130114157323 81.5469629022505 0.653796832831606 -170.899210630839 
8.8                            0.525813504171735 -174.776358774735 0.469884648812718 56.6540476513308 0.46988464881271 56.6540476513314 0.513795778399012 -175.332270589796 
8.9                            0.405846989575686 -159.963537159187 0.500774364364732 25.698473910991  0.500774364364734 25.6984739109905 0.386758961471041 -159.427431078203 
9                              0.506720815615166 -142.208035577188 0.466515528409245 -5.68157707696693 0.466515528409242 -5.68157707696918 0.493352913351899 -140.199506362954 
9.1                            0.651042608294405 -144.742502363888 0.405144110216283 -31.2252136569866 0.405144110216273 -31.2252136569885 0.643570903750469 -143.022329181675 
9.2                            0.728726330599859 -152.248130556344 0.36144024927483 -51.244374398139 0.361440249274825 -51.2443743981396 0.724010717644128 -150.859318884046 
9.3                            0.752538059844848 -160.104327216929 0.345342221646352 -68.5968505454467 0.345342221646355 -68.5968505454466 0.749114546370779 -158.959744716333 
9.4                            0.732091703788974 -167.880848856454 0.356450449450668 -85.9993960632342 0.356450449450673 -85.9993960632342 0.729234351419507 -166.931869026883 
9.5                            0.65831353359306 -175.106885922992 0.393604835620174 -106.171714393722 0.393604835620169 -106.171714393721 0.655511085611246 -174.335403340818 
9.6                            0.520935520576938 -177.170675101625 0.445105239098774 -131.926538495548 0.445105239098768 -131.926538495548 0.517523239458382 -176.548263282716 
9.7                            0.430149563497592 -160.685480851269 0.46742406799772 -163.343075958838 0.467424067997733 -163.343075958841 0.425932667106726 -159.922849451315 
9.8                            0.544160576504415 -147.242815535581 0.429806046110603 165.971952107696 0.429806046110603 165.971952107694 0.540849030863551 -146.395372846376 
9.9                            0.67341873310885 -150.557551195772 0.374640995685374 141.361222152837 0.374640995685438 141.361222152854 0.670591848909509 -149.869687696229 
10                             0.739389463712961 -157.618082891559 0.338200956966055 121.833757861602 0.338200956966055 121.833757861602 0.736440364131741 -157.110649262405 
