! Touchstone file exported from HFSS 3D Layout Design 2026.1.0
!        File:           D:/Work/SIM/ADS_AUTO_SIM/projects/RFSOC_RF/TX_Fillter.aedt
!        Generated:      10:55:58 PM Aug 30, 2026
!        Design:         TX_BAND1_MCFIL_R5_CNN018
!        Project:        TX_Fillter
!
# GHz S MA R 50.000000
! Terminal data exported
! Port[1] = Port1
! Port[2] = Port2
14                             0.963184369110093 172.847081506185 0.00568096884089388 174.261105795629 0.00568096884089387 174.261105795629 0.964959463782643 175.456972675036 
14.05                          0.962436804029219 171.812072004781 0.00582222143904037 173.823187191369 0.00582222143904041 173.823187191369 0.964258479711764 174.440199370708 
14.1                           0.961664706603357 170.767321398867 0.00597105256281145 173.396485414507 0.00597105256281158 173.396485414507 0.963534319868063 173.414299370276 
14.15                          0.960866901122836 169.712500271641 0.00612804461160264 172.98061540246  0.00612804461160284 172.98061540246  0.962785848005036 172.378959833564 
14.2                           0.960042137444987 168.647263328482 0.00629383264136187 172.575114334699 0.00629383264136215 172.575114334699 0.962011854148389 171.333852285911 
14.25                          0.959189085081476 167.57124842481  0.00646910960381527 172.179435763826 0.00646910960381558 172.179435763826 0.96121104860775 170.278631632898 
14.3                           0.958306326715991 166.484075520523 0.00665463214946691 171.792943702586 0.00665463214946725 171.792943702587 0.960382055400531 169.212935098728 
14.35                          0.957392351087364 165.385345554369 0.00685122706100532 171.41490672618  0.00685122706100569 171.41490672618  0.959523405019968 168.136381081194 
14.4                           0.956445545164615 164.274639230886 0.00705979839271977 171.044492155658 0.00705979839272012 171.044492155659 0.958633526470239 167.048567915385 
14.45                          0.955464185530552 163.151515711785 0.00728133540189318 170.680760393632 0.00728133540189355 170.680760393632 0.957710738481141 165.949072537424 
14.5                           0.95444642887918 162.015511202734 0.0075169213701297 170.322659487514 0.00751692137013008 170.322659487514 0.956753239802712 164.83744903859  
14.55                          0.953390301519021 160.866137425549 0.00776774342647199 169.969019997721 0.00776774342647238 169.969019997721 0.955759098466241 163.713227099057 
14.6                           0.952293687759252 159.702879964657 0.00803510350029029 169.618550248072 0.00803510350029066 169.618550248071 0.954726239881951 162.575910289311 
14.65                          0.951154317037913 158.525196475457 0.00832043055066142 169.269832032741 0.00832043055066177 169.269832032741 0.953652433624836 161.424974225879 
14.7                           0.949969749630902 157.332514740803 0.00862529424074851 168.921316847988 0.00862529424074884 168.921316847987 0.952535278738325 160.259864566514 
14.75                          0.94873736075658 156.124230560245 0.00895142025105638 168.571322707229 0.00895142025105671 168.571322707228 0.951372187359912 159.079994828159 
14.8                           0.947454322862856 154.89970545486  0.00930070745499135 168.218031584578 0.00930070745499163 168.218031584577 0.950160366443133 157.884744009105 
14.85                          0.946117585850929 153.658264168525 0.00967524721460609 167.859487514534 0.00967524721460629 167.859487514534 0.948896797315345 156.673453994461 
14.9                           0.944723854951471 152.399191944179 0.0100773450946063 167.493595354167 0.0100773450946065 167.493595354167 0.947578212769743 155.445426721552 
14.95                          0.943269565923891 151.121731551057 0.0105095453396194 167.118120189026 0.0105095453396195 167.118120189026 0.946201071341811 154.199921078983 
15                             0.94175085719609 149.825080036014 0.0109746585145461 166.730687335448 0.0109746585145461 166.730687335448 0.944761528363398 152.936149509837 
15.05                          0.94016353849915 148.508385168734 0.0114757927718984 166.328782860536 0.0114757927718984 166.328782860536 0.943255403320244 151.653274285823 
15.1                           0.938503055476893 147.17074154699  0.0120163892849954 165.909754507386 0.0120163892849954 165.909754507385 0.941678142958883 150.350403414986 
15.15                          0.936764449661624 145.811186323949 0.0126002624736482 165.470812878055 0.0126002624736482 165.470812878055 0.94002477949383 149.0265861409   
15.2                           0.934942313101969 144.428694514847 0.0132316457517731 165.009032691055 0.013231645751773 165.009032691055 0.938289883152847 147.680807985907 
15.25                          0.933030736802847 143.022173835191 0.0139152436468815 164.521353894712 0.0139152436468814 164.521353894712 0.936467508162884 146.311985284978 
15.3                           0.931023251987123 141.590459016768 0.0146562912827347 164.004582383335 0.0146562912827346 164.004582383335 0.934551131117522 144.918959149996 
15.35                          0.928912763008007 140.132305541368 0.015460622382282 163.455390030452 0.0154606223822818 163.455390030452 0.932533580472649 143.500488796721 
15.4                           0.926691470524471 138.646382724974 0.0163347471425932 162.870313722772 0.016334747142593 162.870313722772 0.930406955683696 142.055244158265 
15.45                          0.924350783290996 137.131266077528 0.0172859415618025 162.245753050296 0.0172859415618023 162.245753050296 0.92816253421659 140.581797699636 
15.5                           0.921881216598184 135.585428855079 0.0183223500657579 161.577966281802 0.0183223500657576 161.577966281802 0.925790664325253 139.078615337782 
15.55                          0.919272275020681 134.007232712566 0.0194531035955166 160.863064230474 0.0194531035955164 160.863064230474 0.923280641078128 137.544046360687 
15.6                           0.91651231666913 132.394917356723 0.0206884556831094 160.09700159067  0.0206884556831091 160.097001590671 0.920620562619636 135.976312227709 
15.65                          0.913588395586481 130.746589090382 0.0220399394696626 159.275565302742 0.0220399394696624 159.275565302742 0.917797163050658 134.373494121813 
15.7                           0.910486078255435 129.060208132361 0.0235205491147007 158.39435947689  0.0235205491147005 158.394359476891 0.914795617582772 132.733519113453 
15.75                          0.907189229368733 127.333574592582 0.0251449496153307 157.44878637779  0.0251449496153304 157.44878637779  0.911599314737053 131.054144786607 
15.8                           0.90367976102903 125.564312981914 0.0269297197043796 156.434022937457 0.0269297197043794 156.434022937457 0.908189589288351 129.332942171683 
15.85                          0.899937338357999 123.749855143377 0.0288936332289304 155.34499222336  0.0288936332289302 155.34499222336  0.904545408363939 127.567276830393 
15.9                           0.895939033069756 121.887421510294 0.0310579852196342 154.176329241045 0.031057985219634 154.176329241045 0.900643001551177 125.754287948408 
15.95                          0.891658914865567 119.974000634119 0.03344696972902 152.922340395748 0.0334469697290199 152.922340395749 0.896455424010601 123.890865318907 
16                             0.887067568502945 118.006326989977 0.0360881174058795 151.576955877182 0.0360881174058794 151.576955877182 0.891952039389475 121.973624153516 
16.05                          0.882131522062997 115.980857175753 0.0390128016119761 150.133674169936 0.039012801611976 150.133674169936 0.887097906758741 119.998877750749 
16.1                           0.876812569294011 113.893744792548 0.0422568225540075 148.585497836771 0.0422568225540074 148.585497836771 0.881853052853267 117.962608207009 
16.15                          0.871066966011161 111.740814562153 0.0458610791936663 146.924859687296 0.0458610791936664 146.924859687296 0.876171607636165 115.860435603139 
16.2                           0.864844477547648 109.517536648027 0.0498723382818762 145.143538453145 0.0498723382818762 145.143538453145 0.870000777790043 113.68758648711  
16.25                          0.858087251526077 107.21900276937  0.0543441082183835 143.232563179576 0.0543441082183836 143.232563179576 0.863279629500037 111.438863070507 
16.3                           0.85072848839767 104.839906635541 0.0593376217557094 141.182105769705 0.0593376217557094 141.182105769705 0.855937649484743 109.108615466024 
16.35                          0.842690882433768 102.374532630096 0.0649229246117807 138.981361569661 0.0649229246117808 138.98136156966  0.847893052821659 106.690720667719 
16.4                           0.833884810124026 99.8167587591932 0.071180054975642 136.618418693775 0.0711800549756421 136.618418693775 0.83905080972471 104.178574039543 
16.45                          0.824206254529192 97.1600829654465 0.0782002789610606 134.080118156136 0.0782002789610606 134.080118156136 0.829300374450853 101.565102158637 
16.5                           0.813534478396226 94.3976864509088 0.0860873153788435 131.351909085794 0.0860873153788434 131.351909085794 0.818513123469527 98.8428104335521 
16.55                          0.801729504225438 91.5225542935821 0.0949584343578215 128.417706764502 0.0949584343578216 128.417706764502 0.806539555711234 96.0038856634594 
16.6                           0.788629538970928 88.5276832634    0.104945241258817 125.259766492671 0.104945241258817 125.259766492671 0.793206388675804 93.0403835753489 
16.65                          0.774048613846831 85.4064205115421 0.116193851487272 121.858594073997 0.116193851487272 121.858594073997 0.778313820550206 89.9445456677708 
16.7                           0.757774922620642 82.1529961610006 0.128864014676658 118.192924839537 0.128864014676658 118.192924839537 0.761633448550946 86.709310082847  
16.75                          0.73957066907064 78.7633393327857 0.143126553464288 114.239818381605 0.143126553464288 114.239818381605 0.742907673959154 83.3291097391622 
16.8                           0.719174712857018 75.2363020356756 0.159158249781004 109.974935835023 0.159158249781003 109.974935835023 0.72185192482627 79.8010896635143 
16.85                          0.696309957044966 71.575458448769  0.17713307454799 105.373089580455 0.17713307454799 105.373089580455 0.698161716487088 76.1269257643665 
16.9                           0.670698225817638 67.7916946097052 0.197208501370481 100.409177706189 0.197208501370481 100.409177706189 0.671527428986447 72.3154883538681 
16.95                          0.642086197937197 63.9068437181036 0.219505742080968 95.0596282683925 0.219505742080968 95.0596282683927 0.641660575878858 68.3866594811953 
17                             0.610286431730939 59.9586282992322 0.244083371053887 89.3044642667533 0.244083371053887 89.3044642667535 0.608335919975181 64.376667049591  
17.05                          0.575236950701558 56.0070878532943 0.270905326186715 83.1300333104186 0.270905326186716 83.1300333104188 0.571453383234065 60.3453045197865 
17.1                           0.537080209953921 52.1423960061051 0.299806969890226 76.5322962282016 0.299806969890227 76.5322962282017 0.531121293694177 56.3852883757126 
17.15                          0.496256385269655 48.4933138229293 0.330466597666383 69.5203198563033 0.330466597666384 69.5203198563034 0.487757065478599 52.6336085804766 
17.2                           0.45359626383384 45.2341378409089 0.362393347763007 62.1193010927773 0.362393347763008 62.1193010927773 0.442192565070252 49.2836855319303 
17.25                          0.410386510222056 42.5852933769864 0.394943476384696 54.372175701849  0.394943476384697 54.3721757018491 0.395760305410252 46.5945866630169 
17.3                           0.368367335898569 40.7980247706982 0.427372501011821 46.3388332048401 0.427372501011822 46.3388332048401 0.350325133311591 44.8875949016689 
17.35                          0.329612839547114 40.1077207375432 0.458919702651854 38.0923583970372 0.458919702651854 38.0923583970372 0.308212952303873 44.5085161218564 
17.4                           0.296243653898621 40.6407841229217 0.488907377252376 29.7125573049508 0.488907377252376 29.7125573049508 0.271966440913143 45.7195455187416 
17.45                          0.269954831883136 42.2874720226298 0.516827833831943 21.2779959683066 0.516827833831942 21.2779959683066 0.243840542733464 48.4989684000618 
17.5                           0.25146224132643 44.6218106487828 0.542393485121036 12.8583779176099 0.542393485121035 12.8583779176099 0.225044446048997 52.340104018801  
17.55                          0.240161711521528 46.9893329469986 0.565539322920427 4.50895267529415 0.565539322920425 4.50895267529418 0.21508318965463 56.3046969979144 
17.6                           0.234305936730169 48.7595559112768 0.586384535044697 -3.73213525223628 0.586384535044696 -3.73213525223619 0.211820987929199 59.4397491401122 
17.65                          0.231633410036362 49.5496031515967 0.605171460280092 -11.8436269431801 0.605171460280091 -11.84362694318  0.212360327152157 61.1960076147784 
17.7                           0.230024875197648 49.2651949379285 0.62220152598609 -19.8188368918154 0.622201525986089 -19.8188368918152 0.214025210899573 61.4875871522038 
17.75                          0.227865773784326 48.006882863468  0.637781948470497 -27.6622658005075 0.637781948470496 -27.6622658005074 0.214856156632824 60.5019404135378 
17.8                           0.224110826718305 45.9603943733955 0.652189077922219 -35.3860185401178 0.652189077922219 -35.3860185401178 0.213643631110683 58.5124730556048 
17.85                          0.218194374513389 43.3282885419152 0.665648165011237 -43.0066013804657 0.665648165011237 -43.0066013804657 0.209765015040724 55.7820926477336 
17.9                           0.209903773923381 40.3024600928285 0.678326181964717 -50.5423707196259 0.678326181964717 -50.5423707196259 0.203001209302288 52.5345372010793 
17.95                          0.199269573658539 37.061288327641  0.690333554373596 -58.0116896556451 0.690333554373596 -58.0116896556452 0.193393766804786 48.9576531784247 
18                             0.186486363115527 33.7794038604599 0.701731161470571 -65.4317282542816 0.701731161470571 -65.4317282542817 0.181148357683441 45.2188591200324 
18.05                          0.171862719317856 30.6450302559497 0.712539878066962 -72.8177940532581 0.712539878066961 -72.8177940532583 0.166574934202961 41.4863784927406 
18.1                           0.155796191694533 27.8851802256436 0.722750795170548 -80.1830715696806 0.722750795170547 -80.1830715696808 0.150055103106319 37.9579057910993 
18.15                          0.138772721982315 25.8030082500447 0.732334908621964 -87.5386607688557 0.732334908621962 -87.5386607688559 0.132032647368949 34.9054154256341 
18.2                           0.121397182638342 24.8344340805881 0.741251509097444 -94.8938213071877 0.741251509097442 -94.8938213071878 0.113032629407749 32.7563811296644 
18.25                          0.104473019371569 25.6267426023727 0.749454803604441 -102.256345763573 0.749454803604439 -102.256345763573 0.0937341443092669 32.2556683400298 
18.3                           0.0891585295037441 29.0983472654964 0.75689851024962 -109.632999201697 0.756898510249618 -109.632999201697 0.0751704895918453 34.7890430432566 
18.35                          0.077184685207118 36.2536415841139 0.763538335637852 -117.029974400991 0.76353833563785 -117.029974400992 0.0592333688084968 42.8409429845372 
18.4                           0.0708441918506355 47.185759535397  0.769332385515246 -124.453322572216 0.769332385515244 -124.453322572216 0.0495296539542603 59.0855298139608 
18.45                          0.0720173863781798 59.5300952393763 0.774239675861938 -131.909328669351 0.774239675861937 -131.909328669351 0.0504076268365371 79.807536270882  
18.5                           0.0806187824185749 69.5369464164974 0.778216999332809 -139.404808351619 0.778216999332809 -139.404808351619 0.0616767091956115 94.631892535961  
18.55                          0.0948521400203004 75.4141175846365 0.781214459737871 -146.947309668869 0.781214459737872 -146.947309668869 0.0791500245880088 100.998821391327 
18.6                           0.112842161285771 77.5746652128395 0.783170023294989 -154.545205946511 0.783170023294991 -154.545205946511 0.099754677453371 101.757056576772 
18.65                          0.133385913925662 77.0306809382986 0.784003468943342 -162.207666633942 0.784003468943345 -162.207666633942 0.122115690975194 99.2396344594118 
18.7                           0.15587499970353 74.6171584565684 0.783610179811508 -169.944490055115 0.783610179811511 -169.944490055115 0.145720860935569 94.7196523492769 
18.75                          0.180071458199594 70.8952918548211 0.781855337315808 -177.765776854724 0.781855337315812 -177.765776854725 0.170453593344934 88.8748810336168 
18.8                           0.20594550973275 66.2244695898657 0.778569287695246 174.318582643476 0.77856928769525 174.318582643476 0.196391171248519 82.0873405144318 
18.85                          0.23357349056297 60.8355255331875 0.773545159460435 166.299636654831 0.773545159460438 166.299636654831 0.223707313823192 74.5904386752264 
18.9                           0.263068991195208 54.8804661922842 0.766540190656318 158.170340103338 0.76654019065632 158.170340103338 0.252611731180019 66.540599063979  
18.95                          0.294529827710988 48.4636907311174 0.757282578252779 149.926767785617 0.75728257825278 149.926767785616 0.28330151269956 58.0534426038444 
19                             0.327992848918341 41.6616514333018 0.745485789280529 141.569537393172 0.745485789280529 141.569537393172 0.315915803187082 49.2227685403935 
19.05                          0.363394750993866 34.5356068260341 0.730871870013128 133.105342396301 0.730871870013128 133.105342396301 0.350492904178978 40.1307962365463 
19.1                           0.400541211220996 27.1401178016988 0.713204011395571 124.548409399591 0.713204011395571 124.548409399591 0.386933419055388 30.8537897508147 
19.15                          0.439089298096643 19.528659718386  0.692326277224895 115.9216069009   0.692326277224895 115.9216069009   0.424975795750372 21.4651271202418 
19.2                           0.478548925825135 11.7569858428651 0.668205219890658 107.256877682379 0.668205219890659 107.25687768238  0.464191408156854 12.0367967076084 
19.25                          0.518307419890016 3.88451443413171 0.640965043910189 98.5946906721546 0.640965043910191 98.5946906721551 0.50400447330847 2.6397172781759  
19.3                           0.557676846235742 -4.02607404604806 0.61090660062081 89.9823441239649 0.610906600620812 89.9823441239655 0.543737392800927 -6.65697647440538 
19.35                          0.595957665426633 -11.9107324578857 0.578502316659643 81.4711933302837 0.578502316659646 81.4711933302843 0.582675543833591 -15.7875424059814 
19.4                           0.632506868309285 -19.7069370726828 0.544364503778479 73.1131567287126 0.544364503778483 73.1131567287132 0.620139522940468 -24.6918402887655 
19.45                          0.666796707686544 -27.3569117377147 0.509191770625747 64.9570666874174 0.509191770625751 64.9570666874179 0.65555017309816 -33.3176809761724 
19.5                           0.69845278420275 -34.8105082353126 0.473704440942622 57.0454811221748 0.473704440942626 57.0454811221751 0.688473928849397 -41.6227972825307 
19.55                          0.727266519331186 -42.0272228195517 0.438582259770281 49.4124357681481 0.438582259770284 49.4124357681483 0.718642202789384 -49.5760241460282 
19.6                           0.75318411810081 -48.9771034599562 0.404415499937578 42.0823568362499 0.40441549993758 42.08235683625   0.745945887918278 -57.1575010078648 
19.65                          0.776279156041939 -55.6405870383003 0.37167538398784 35.0700787037859 0.37167538398784 35.0700787037859 0.770411584568384 -64.3579559717024 
19.7                           0.796717610158689 -62.0075090228774 0.340704077652439 28.3817142504786 0.340704077652437 28.3817142504786 0.792168357537265 -71.177309511614 
19.75                          0.814722954175881 -68.0756130143423 0.311720437801614 22.0160444266828 0.311720437801611 22.0160444266827 0.811412989953266 -77.6229066214776 
19.8                           0.830546267960126 -73.8488706096131 0.284835947896433 15.966112819595  0.284835947896428 15.9661128195949 0.828379186464108 -83.7076638763586 
19.85                          0.844443542192685 -79.3358466794495 0.260075460115168 10.2207875583737 0.260075460115163 10.2207875583737 0.843313398371058 -89.4483422720804 
19.9                           0.856660287402667 -84.5482541252262 0.237398619784169 4.7661445823692  0.237398619784163 4.76614458236937 0.85645776636685 -94.8640682318055 
19.95                          0.867422381422947 -89.4997631183657 0.216719380722782 -0.413394279964107 0.216719380722775 -0.413394279963774 0.868039369781651 -99.9751498145639 
20                             0.876931652795308 -94.205073936504 0.197922345941101 -5.33417885780747 0.197922345941094 -5.33417885780693 0.878264417860349 -104.802183140402 
20.05                          0.885364726463017 -98.6792297592797 0.180875604185177 -10.01268132611  0.180875604185171 -10.0126813261094 0.887315962072929 -109.365414806733 
20.1                           0.892873909644304 -102.93713093001 0.165440287322185 -14.46504254961  0.165440287322178 -14.465042549609 0.895353906719214 -113.684314153631 
20.15                          0.899589208043423 -106.993208968305 0.151477336741441 -18.7067732452024 0.151477336741435 -18.7067732452013 0.902516379340016 -117.777308346145 
20.2                           0.905620849510481 -110.861221808206 0.13885204162073 -22.7525721951999 0.138852041620725 -22.7525721951986 0.90892179842296 -121.66163820678 
20.25                          0.911061920448979 -114.554137719641 0.127436881945436 -26.6162296193516 0.127436881945431 -26.6162296193502 0.91467120313712 -125.353300022464 
20.3                           0.915990885660179 -118.084081976953 0.117113131937528 -30.310590323428 0.117113131937523 -30.3105903234265 0.919850579346512 -128.867046091372 
20.35                          0.920473874001232 -121.462326444397 0.107771589377085 -33.8475572641085 0.107771589377081 -33.847557264107 0.924533033920283 -132.216423530321 
20.4                           0.924566683040276 -124.699307393936 0.0993127110871856 -37.2381212423414 0.0993127110871822 -37.2381212423398 0.928780746459545 -135.413836445187 
20.45                          0.928316497867812 -127.804660964608 0.091646362231578 -40.4924064686142 0.0916463622315753 -40.4924064686127 0.932646675205987 -138.470620942562 
20.5                           0.931763342025469 -130.787268804535 0.0846913289159747 -43.619724821917 0.0846913289159723 -43.6197248219155 0.936176021428729 -141.397125764907 
20.55                          0.934941289207443 -133.655308764196 0.0783746989248889 -46.6286339064906 0.0783746989248872 -46.6286339064894 0.939407471038192 -144.202793755349 
20.6                           0.937879467837977 -136.416307200889 0.0726311821737264 -49.5269956635652 0.0726311821737251 -49.5269956635641 0.942374238510739 -146.896241094609 
20.65                          0.940602890017728 -139.077190660367 0.0674024182908313 -52.3220334692449 0.0674024182908305 -52.3220334692441 0.9451049397592  -149.485332469952 
20.7                           0.943133133665448 -141.64433554715 0.0626363015420553 -55.0203864683567 0.0626363015420549 -55.0203864683561 0.947624319503985 -151.977251171875 
20.75                          0.945488903163238 -144.123614978022 0.0582863412971375 -57.6281604545711 0.0582863412971375 -57.6281604545709 0.949953856324474 -154.378563674881 
20.8                           0.947686490130905 -146.520442407988 0.054311068009823 -60.1509749830787 0.0543110680098234 -60.150974983079 0.952112265697922 -156.695278624465 
20.85                          0.949740152471668 -148.839811879526 0.0506734891716058 -62.5940066480325 0.0506734891716064 -62.5940066480332 0.954115918414249 -158.932900382223 
20.9                           0.951662426716602 -151.086334914566 0.0473405961055813 -64.9620286124345 0.0473405961055822 -64.9620286124356 0.9559791890259  -161.096477417361 
20.95                          0.953464386005201 -153.264274172862 0.044282920210158 -67.2594465715515 0.0442829202101591 -67.2594465715531 0.957714746559203 -163.190645906258 
21                             0.955155853769286 -155.377574061006 0.041474135923464 -69.4903313823619 0.0414741359234653 -69.4903313823641 0.959333797609669 -165.219668933347 
21.05                          0.956745581301742 -157.42988850741 0.0388907069603252 -71.65844861508  0.0388907069603267 -71.6584486150828 0.960846290160336 -167.187471691341 
21.1                           0.958241395842388 -159.424606130414 0.0365115720651811 -73.767285288255 0.0365115720651825 -73.7672852882581 0.962261084971477 -169.097673066905 
21.15                          0.959650324550381 -161.364873026057 0.0343178664804258 -75.8200740430351 0.0343178664804273 -75.8200740430388 0.963586100155596 -170.953613976193 
21.2                           0.960978698708632 -163.25361339383 0.0322926754500282 -77.8198149995008 0.0322926754500299 -77.819814999505 0.964828433536441 -172.758382787869 
21.25                          0.962232241678437 -165.093548206041 0.0304208162946354 -79.7692955215739 0.030420816294637 -79.7692955215784 0.965994466559461 -174.514838142282 
21.3                           0.963416143455693 -166.88721211155 0.0286886458610039 -81.6711080989335 0.0286886458610055 -81.6711080989383 0.967089952842421 -176.225629446405 
21.35                          0.964535124143181 -168.636968748764 0.0270838904354995 -83.5276665359247 0.027083890435501 -83.5276665359298 0.968120093901744 -177.893215296045 
21.4                           0.965593488221273 -170.345024627112 0.0255954954993926 -85.3412206194358 0.0255954954993941 -85.3412206194411 0.969089604139536 -179.519880050472 
21.45                          0.966595171151531 -172.013441720978 0.024213492980973 -87.1138694206379 0.0242134929809744 -87.1138694206433 0.970002766809245 178.892251239754 
21.5                           0.967543779567325 -173.644148905875 0.0229288839193373 -88.8475733695808 0.0229288839193386 -88.8475733695861 0.970863482378786 177.341199373101 
21.55                          0.968442626079434 -175.238952353391 0.0217335346936438 -90.5441652270338 0.021733534693645 -90.544165227039 0.971675310465852 175.825118846899 
21.6                           0.969294759541738 -176.79954498943 0.0206200851883977 -92.2053600646678 0.0206200851883988 -92.2053600646727 0.972441506320692 174.342286875951 
21.65                          0.970102991474113 -178.327515109275 0.0195818674600559 -93.8327643526568 0.0195818674600569 -93.8327643526613 0.973165052668319 172.891093455155 
21.7                           0.970869919219447 -179.824354233172 0.0186128336438677 -95.4278842429583 0.0186128336438685 -95.4278842429621 0.973848687588139 171.470032355544 
21.75                          0.971597946313897 178.708535722738 0.0177074919938136 -96.9921331268153 0.0177074919938142 -96.9921331268182 0.974494928998851 170.077692955729 
21.8                           0.972289300469782 177.26983589324  0.016860850084435 -98.5268385363138 0.0168608500844354 -98.5268385363157 0.975106096225653 168.712752821805 
21.85                          0.972946049505153 175.85830446876  0.0160683643229732 -100.033248452019 0.0160683643229734 -100.033248452019 0.975684329051746 167.373970958621 
21.9                           0.973570115500583 174.472771204462 0.0153258950252711 -101.512537071691 0.0153258950252709 -101.51253707169 0.976231604593955 166.060181663935 
21.95                          0.974163287419544 173.112132385788 0.0146296664009481 -102.965810088784 0.0146296664009477 -102.965810088781 0.976749752290621 164.770288924635 
22                             0.974727232392384 171.775346207514 0.0139762308739373 -104.394109523699 0.0139762308739367 -104.394109523695 0.977240467246846 163.503261300914 
22.05                          0.975263505833667 170.461428527836 0.0133624372349481 -105.798418145609 0.0133624372349472 -105.798418145602 0.977705322146195 162.25812725025  
22.1                           0.975773560537611 169.169448962938 0.0127854021840213 -107.17966351789 0.0127854021840201 -107.179663517881 0.978145777907823 161.033970848264 
22.15                          0.976258754875369 167.898527291032 0.0122424848751738 -108.538721695843 0.0122424848751723 -108.538721695831 0.978563193242611 159.829927868182 
22.2                           0.976720360200416 166.647830137983 0.0117312641221701 -109.876420601247 0.0117312641221683 -109.876420601233 0.978958833240545 158.645182184678 
22.25                          0.97715956755358 165.416567919405 0.0112495179655676 -111.193543094446 0.0112495179655655 -111.19354309443 0.979333877103496 157.478962471553 
22.3                           0.97757749374683 164.203992016634 0.0107952053371121 -112.49082976088 0.0107952053371096 -112.490829760861 0.979689425122237 156.33053916584  
22.35                          0.977975186894467 163.00939216618  0.0103664495889825 -113.768981425341 0.0103664495889797 -113.768981425319 0.980026504983501 155.19922167383  
22.4                           0.978353631451448 161.832094044243 0.00996152368286585 -115.028661403538 0.00996152368286275 -115.028661403514 0.980346077481777 154.084355796979 
22.45                          0.97871375281099 160.671457029662 0.00957883685789006 -116.27049749685 0.00957883685788671 -116.270497496823 0.980649041701029 152.985321357922 
22.5                           0.979056421507126 159.526872130244 0.00921692261749939 -117.495083732226 0.00921692261749576 -117.495083732197 0.980936239723379 151.901530008802 
22.55                          0.979382457062325 158.397760058831 0.00887442789378341 -118.70298184514 0.00887442789377956 -118.70298184511 0.981208460914788 150.832423205887 
22.6                           0.979692631515521 157.283569446757 0.00855010326391573 -119.894722499092 0.00855010326391171 -119.89472249906 0.981466445831729 149.777470336017 
22.65                          0.979987672661765 156.183775183467 0.00824279410748478 -121.070806230387 0.00824279410748075 -121.070806230354 0.981710889787605 148.73616698186  
22.7                           0.980268267031141 155.097876872106 0.0079514326058605 -122.231704101763 0.00795143260585645 -122.231704101731 0.981942446113171 147.708033314162 
22.75                          0.980535062631519 154.025397391817 0.00767503049553927 -123.377858042726 0.00767503049553534 -123.377858042695 0.982161729141263 146.69261260035  
22.8                           0.980788671476976 152.965881558299 0.0074126724968201 -124.509680848263 0.00741267249681645 -124.509680848234 0.982369316942709 145.689469819818 
22.85                          0.981029671921403 151.91889487494  0.00716351034733503 -125.627555800917 0.00716351034733189 -125.627555800893 0.982565753837334 144.698190377133 
22.9                           0.981258610814728 150.884022367509 0.00692675737701032 -126.731835874055 0.00692675737700788 -126.731835874036 0.982751552701333 143.718378905219 
22.95                          0.981476005497386 149.860867496005 0.006701683567065 -127.822842466782 0.00670168356706361 -127.822842466772 0.982927197089995 142.749658151288 
23                             0.981682345647061 148.849051137803 0.00648761104074726 -128.900863613705 0.00648761104074723 -128.900863613705 0.983093143192755 141.791667938947 
