! Touchstone file exported from HFSS 3D Layout Design 2026.1.0
!        File:           D:/Work/SIM/ADS_AUTO_SIM/projects/RFSOC_RF/TX_Fillter.aedt
!        Generated:      04:56:32 AM Aug 31, 2026
!        Design:         TX_BAND1_MCFIL_R49_CNN024
!        Project:        TX_Fillter
!
# GHz S MA R 50.000000
! Terminal data exported
! Port[1] = Port1
! Port[2] = Port2
14                             0.973654768101844 -163.412541147604 0.00352087307759582 -177.318774020666 0.00352087307759581 -177.318774020666 0.975127981792884 -158.979576674574 
14.05                          0.973186213646986 -164.285073235875 0.00358733010131279 -177.727652365322 0.00358733010131279 -177.727652365322 0.974689311719635 -159.843052972557 
14.1                           0.972703310779524 -165.163196421867 0.0036568616741788 -178.115836193907 0.0036568616741788 -178.115836193907 0.974237527219896 -160.711938488343 
14.15                          0.97220535827969 -166.047077767184 0.00372970806668154 -178.482827645506 0.00372970806668152 -178.482827645504 0.973772001109822 -161.586383858344 
14.2                           0.971691608403993 -166.936893183212 0.00380613311173469 -178.82816039164 0.00380613311173465 -178.828160391639 0.973292065310641 -162.466547620251 
14.25                          0.971161263003516 -167.832828014043 0.00388642679921774 -179.151407012921 0.00388642679921773 -179.151407012919 0.972797007494376 -163.352596728127 
14.3                           0.9706134692502  -168.735077666102 0.00397090817643775 -179.452187237808 0.00397090817643774 -179.452187237807 0.972286067396503 -164.244707107937 
14.35                          0.97004731492444 -169.64384828897 0.00405992859215267 -179.730177085346 0.00405992859215266 -179.730177085346 0.971758432756502 -165.143064257284 
14.4                           0.96946182321087 -170.559357512419 0.00415387532666248 -179.985118943103 0.00415387532666244 -179.985118943102 0.971213234841967 -166.047863893606 
14.45                          0.968855946941844 -171.481835245232 0.00425317565604466 179.783167402683 0.00425317565604465 179.783167402684 0.970649543505837 -166.959312655497 
14.5                           0.968228562219441 -172.411524542041 0.00435830140501449 179.574772785968 0.00435830140501449 179.574772785968 0.970066361719237 -167.877628862391 
14.55                          0.967578461336899 -173.348682545135 0.00446977405027943 179.389685752676 0.00446977405027945 179.389685752677 0.969462619514213 -168.803043338415 
14.6                           0.966904344908685 -174.293581509035 0.00458817044482699 179.227778776439 0.004588170444827 179.227778776439 0.968837167261126 -169.735800306906 
14.65                          0.966204813104871 -175.246509916557 0.00471412924356622 179.088793681158 0.00471412924356622 179.088793681159 0.968188768194361 -170.676158362855 
14.7                           0.96547835586955 -176.207773696181 0.00484835812243133 178.972326389302 0.00484835812243134 178.972326389303 0.967516090087049 -171.624391531388 
14.75                          0.96472334198443 -177.177697551738 0.00499164189680114 178.877811154491 0.00499164189680117 178.877811154491 0.966817695960306 -172.580790421392 
14.8                           0.963938006816791 -178.156626416829 0.0051448516613341 178.804504479092 0.00514485166133408 178.804504479092 0.966092033694699 -173.545663484503 
14.85                          0.963120438565136 -179.144927047993 0.00530895509259937 178.751468960595 0.00530895509259938 178.751468960595 0.965337424390627 -174.519338390926 
14.9                           0.962268562785348 179.857010227567 0.00548502807885838 178.717557352181 0.00548502807885838 178.717557352181 0.964552049299616 -175.502163535033 
14.95                          0.961380124943858 178.848769591797 0.00567426786881483 178.701397160544 0.00567426786881484 178.701397160544 0.963733935119142 -176.494509685277 
15                             0.960452670701273 177.829907622846 0.00587800796408562 178.701376134149 0.00587800796408563 178.701376134149 0.962880937408903 -177.496771794886 
15.05                          0.959483523578503 176.799950966343 0.00609773501972121 178.715629014197 0.00609773501972122 178.715629014197 0.961990721844969 -178.5093709919  
15.1                           0.958469759595898 175.758393764723 0.00633510806476024 178.742025924529 0.00633510806476024 178.742025924529 0.961060742978865 -179.532756769573 
15.15                          0.957408178402119 174.704694814807 0.00659198041226513 178.778162761685 0.00659198041226511 178.778162761685 0.960088220109354 179.432590599049 
15.2                           0.956295270320592 173.638274419694 0.00687042469764958 178.821353908859 0.00687042469764956 178.82135390886  0.959070109803545 178.386157395388 
15.25                          0.955127178634038 172.558510896218 0.0071727615679143 178.868627534741 0.00717276156791429 178.868627534741 0.958003074518117 177.327393507791 
15.3                           0.953899656297484 171.464736693729 0.00750159264574029 178.916723648749 0.00750159264574028 178.916723648749 0.956883446667667 176.255709167428 
15.35                          0.952608016111934 170.356234073621 0.0078598385150131 178.962094967894 0.00785983851501309 178.962094967894 0.955707187361176 175.170471328111 
15.4                           0.951247073197772 169.232230291757 0.00825078262288204 179.00091050928  0.00825078262288205 179.00091050928  0.954469838874173 174.0709996452   
15.45                          0.949811078370528 168.091892217629 0.00867812217356764 179.029061659834 0.00867812217356764 179.029061659834 0.9531664697366  172.956562002674 
15.5                           0.948293640730951 166.934320314576 0.00914602730784659 179.042170296697 0.00914602730784658 179.042170296698 0.951791611086356 171.826369530643 
15.55                          0.946687637422801 165.758541894616 0.00965921012817927 179.035598344848 0.00965921012817926 179.035598344848 0.950339182655379 170.679571047984 
15.6                           0.944985108067908 164.56350354927  0.0102230054536746 179.004457970579 0.0102230054536746 179.004457970579 0.948802406405251 169.515246856428 
15.65                          0.943177130836451 163.34806264423  0.0108434655850754 178.943621428213 0.0108434655850754 178.943621428213 0.947173705395736 168.332401803354 
15.7                           0.941253676422618 162.110977750838 0.0115274718446655 178.847729409514 0.0115274718446656 178.847729409514 0.945444584930087 167.129957521006 
15.75                          0.939203435335004 160.850897871456 0.0122828662506407 178.711196595384 0.0122828662506407 178.711196595384 0.943605492347486 165.906743740191 
15.8                           0.937013612830216 159.566350299344 0.0131186074164732 178.528212979312 0.0131186074164732 178.528212979312 0.941645650989441 164.661488567418 
15.85                          0.934669684456385 158.255726937859 0.0140449556659336 178.292739419889 0.0140449556659337 178.292739419889 0.939552862807364 163.392807607097 
15.9                           0.932155103452743 156.917268890314 0.0150736934641428 177.99849577957  0.0150736934641428 177.99849577957  0.937313272743748 162.099191806662 
15.95                          0.929450949071817 155.549049123908 0.0162183886336585 177.638939908819 0.0162183886336586 177.63893990882  0.934911086334308 160.778993905426 
16                             0.926535502124275 154.148953013882 0.0174947095114433 177.207235624969 0.0174947095114433 177.207235624969 0.932328229847727 159.430413382399 
16.05                          0.92338373053056 152.714656595734 0.0189208032771633 176.696207696476 0.0189208032771633 176.696207696476 0.929543939583535 158.051479831835 
16.1                           0.919966663194623 151.24360240745  0.0205177512242162 176.098281656458 0.0205177512242163 176.098281656458 0.926534263539254 156.640034759927 
16.15                          0.91625062484311 149.732972911621 0.0223101178351498 175.405406013812 0.0223101178351499 175.405406013812 0.923271454356849 155.193711910518 
16.2                           0.912196297300729 148.179661683395 0.0243266142392785 174.608954086047 0.0243266142392786 174.608954086047 0.91972322706009 153.709916421428 
16.25                          0.907757563665252 146.580242889249 0.0266009010198313 173.699602228686 0.0266009010198314 173.699602228686 0.915851848379605 152.185803431957 
16.3                           0.902880080669955 144.930940151068 0.0291725603755623 172.667180672737 0.0291725603755624 172.667180672737 0.911613016236429 150.61825727879  
16.35                          0.897499510933374 143.227596830594 0.0320882731475889 171.500492511068 0.0320882731475891 171.500492511068 0.906954478131313 149.00387324559  
16.4                           0.891539330834674 141.465651306412 0.0354032417139925 170.187095632232 0.0354032417139927 170.187095632232 0.901814325961577 147.338945150358 
16.45                          0.8849081121342  139.640123313022 0.0391829041840815 168.713041676153 0.0391829041840816 168.713041676153 0.896118892981471 145.619464146799 
16.5                           0.877496158351252 137.745621456198 0.043504986616443 167.062565566537 0.0435049866164431 167.062565566537 0.889780168344727 143.841137426635 
16.55                          0.869171365420505 135.776388559806 0.0484619342477972 165.217719218922 0.0484619342477972 165.217719218922 0.882692640557924 141.999440738027 
16.6                           0.859774181104435 133.726412068895 0.0541637429140964 163.157944289892 0.0541637429140965 163.157944289892 0.874729492690863 140.08972686895  
16.65                          0.849111580716607 131.589643794498 0.0607411656181462 160.859582495199 0.0607411656181463 160.859582495199 0.865738117749363 138.107425151623 
16.7                           0.836950099607587 129.360400750953 0.0683491755145032 158.295330111415 0.0683491755145031 158.295330111415 0.855535036822229 136.048387108388 
16.75                          0.823008243157089 127.034062795193 0.0771703909166725 155.433659192343 0.0771703909166723 155.433659192343 0.843900548385296 133.909464083857 
16.8                           0.806949171986469 124.608252320019 0.0874178565165838 152.238257266503 0.0874178565165836 152.238257266503 0.830573924506416 131.689448509314 
16.85                          0.788375672497979 122.084788883122 0.0993360510863768 148.667588161753 0.0993360510863766 148.667588161753 0.815250880672615 129.390575452338 
16.9                           0.76683145167705 119.472871522928 0.113198163400354 144.674760486431 0.113198163400354 144.674760486431 0.797586655032616 127.020864854381 
16.95                          0.741816274429273 116.794160456761 0.129296480244795 140.208019482567 0.129296480244795 140.208019482567 0.777210682207801 124.597670254375 
17                             0.71282793886242 114.090678131026 0.147921252954471 135.21235730027  0.147921252954471 135.21235730027  0.753762760885147 122.15282385779  
17.05                          0.679451532498604 111.436580036971 0.169322184076151 129.632941499179 0.16932218407615 129.632941499179 0.726965290660907 119.739559875028 
17.1                           0.641523603617032 108.954395101765 0.193647168991077 123.421192929326 0.193647168991077 123.421192929326 0.696748890262871 117.440574929812 
17.15                          0.599397954653738 106.834101541274 0.220857991750959 116.544166964234 0.220857991750959 116.544166964234 0.663442009457528 115.374456361753 
17.2                           0.554312061777389 105.34679243907  0.250635913482548 108.997015474687 0.250635913482547 108.997015474687 0.628004570685385 113.693509432148 
17.25                          0.508766723263784 104.829846562223 0.282312000553916 100.81637827161  0.282312000553915 100.81637827161  0.592215435622508 112.560379484016 
17.3                           0.466658854651985 105.598741158669 0.314877114192277 92.0898707057689 0.314877114192278 92.0898707057689 0.558625108140964 112.089803495098 
17.35                          0.432709429475116 107.74384833109  0.347119127280994 82.9551340820912 0.347119127280994 82.9551340820913 0.530052330200465 112.260085001482 
17.4                           0.410842171929465 110.884948078638 0.377877893912811 73.5839863808161 0.377877893912811 73.5839863808161 0.50861223103382 112.845001759007 
17.45                          0.402111144632682 114.166540481146 0.406324254907503 64.1539982833362 0.406324254907502 64.1539982833361 0.494734128514407 113.447698349508 
17.5                           0.403921527100974 116.672764581506 0.432132217742685 54.8173558402032 0.432132217742685 54.8173558402031 0.486884503167826 113.651027941243 
17.55                          0.411433761394492 117.891157479882 0.455472383291628 45.67870077185   0.455472383291627 45.6787007718499 0.482222729375726 113.175262929268 
17.6                           0.419743073085518 117.788623214658 0.476860596227424 36.7880310514514 0.476860596227422 36.7880310514514 0.477642180163594 111.930760152228 
17.65                          0.425167284593141 116.604940591192 0.496956160030925 28.14685498923   0.496956160030923 28.14685498923   0.470525179281936 109.971717525963 
17.7                           0.425449933863522 114.654769872038 0.516389302693795 19.7214612740912 0.516389302693793 19.7214612740913 0.459007239166447 107.424896332097 
17.75                          0.419459676178009 112.237281468467 0.535649208284343 11.4574984990337 0.535649208284341 11.4574984990338 0.441920167238315 104.442287945065 
17.8                           0.40683974028246 109.62298908693  0.555027133871756 3.29259696121215 0.555027133871755 3.29259696121221 0.4186372304287  101.186304233687 
17.85                          0.38778244836811 107.07636731956  0.574596874792608 -4.83390430336181 0.574596874792608 -4.83390430336174 0.388952086929106 97.8406122151382 
17.9                           0.362956115744328 104.893213286677 0.594218610118628 -12.9738367569326 0.594218610118627 -12.9738367569326 0.353040186248277 94.642967795616  
17.95                          0.333567508280166 103.445095233902 0.613560735928346 -21.1651271738044 0.613560735928345 -21.1651271738044 0.311515475320281 91.9481288839432 
18                             0.301538772870553 103.222273825126 0.632140864929863 -29.4284503454584 0.632140864929864 -29.4284503454584 0.265603711766154 90.3501094924295 
18.05                          0.269764439436192 104.840380868947 0.64938868419923 -37.765672639025 0.64938868419923 -37.7656726390251 0.217524060222738 90.9338784449764 
18.1                           0.242312660957343 108.900959271291 0.664729052186333 -46.1603975145239 0.664729052186333 -46.1603975145241 0.171379086054146 95.7608800721242 
18.15                          0.22410903682446 115.514960275643 0.677675164089424 -54.5808656019489 0.677675164089423 -54.5808656019491 0.135127677299776 108.176416830216 
18.2                           0.219314731352273 123.608647289087 0.687913196302614 -62.9850583595962 0.687913196302613 -62.9850583595964 0.121683767526825 129.021854536746 
18.25                          0.228779791119904 131.072336084387 0.695357331177082 -71.3272582531663 0.695357331177081 -71.3272582531665 0.137739783156192 148.698347776392 
18.3                           0.249387253415064 136.20663326239  0.700160864379993 -79.564836485897 0.700160864379991 -79.5648364858972 0.172881989709986 159.391230928427 
18.35                          0.276282134370166 138.602261576081 0.702682893584926 -87.6639573596102 0.702682893584924 -87.6639573596103 0.214615999186335 163.070602501721 
18.4                           0.3051468090379  138.679119847532 0.703423772518386 -95.6032707306464 0.703423772518385 -95.6032707306465 0.256229964877564 162.879929441578 
18.45                          0.332951641177703 137.038083018739 0.702949318360975 -103.375309605111 0.702949318360974 -103.375309605111 0.294594168939355 160.619160727288 
18.5                           0.357814963683773 134.180280048425 0.701821855630817 -110.9859077764  0.701821855630817 -110.9859077764  0.328248113147138 157.210975759336 
18.55                          0.378672130818077 130.460014682539 0.70054877635212 -118.452287673383 0.70054877635212 -118.452287673383 0.356561225632637 153.139548867083 
18.6                           0.394994801447134 126.110321313616 0.699551209101238 -125.800510505466 0.699551209101239 -125.800510505466 0.379353158347753 148.668112874478 
18.65                          0.406594201961857 121.277283242787 0.699149829253985 -133.062829760703 0.699149829253987 -133.062829760703 0.396697828848671 143.942368949605 
18.7                           0.413493553632123 116.047251730117 0.699562550653798 -140.275274406595 0.699562550653799 -140.275274406595 0.408813171230522 139.041914769595 
18.75                          0.415851258054191 110.465771347283 0.700908978913509 -147.475600390082 0.70090897891351 -147.475600390082 0.415998995166119 134.007245883879 
18.8                           0.41392059071004 104.550106591391 0.703217853338034 -154.701626063456 0.703217853338036 -154.701626063456 0.418605527595983 128.854432509406 
18.85                          0.408035629748361 98.2973057572699 0.706435318171427 -161.989910002165 0.706435318171428 -161.989910002165 0.417022573129231 123.58296172432  
18.9                           0.3986159035404  91.6892427698822 0.710433227455228 -169.374722979721 0.710433227455228 -169.374722979721 0.411682314417731 118.17926811598  
18.95                          0.386183874451914 84.6956779762832 0.715017581910637 -176.887290761183 0.715017581910637 -176.887290761183 0.40307021819742 112.617039706718 
19                             0.371390084873475 77.2762278689049 0.719937540651638 175.444677081248 0.719937540651638 175.444677081248 0.391739281485934 106.854656647482 
19.05                          0.355040763737284 69.3823068841522 0.724895215888871 167.597122452992 0.72489521588887 167.597122452992 0.378323606841931 100.829824590162 
19.1                           0.338122074914753 60.9606697256503 0.729555669485221 159.549375995825 0.729555669485221 159.549375995825 0.363548816634744 94.4516171153604 
19.15                          0.32181399650117 51.9610695091691 0.733555335366754 151.283463581693 0.733555335366755 151.283463581693 0.348239971902787 87.5909630613608 
19.2                           0.307484927510008 42.3511295791428 0.736505855131792 142.783036583043 0.736505855131794 142.783036583043 0.333332847298107 80.0724907139895 
19.25                          0.29665583503946 32.1399600643462 0.737989659915508 134.032132703641 0.737989659915512 134.032132703641 0.319900140791058 71.6739778554102 
19.3                           0.290922442623043 21.4054340545219 0.737544399945455 125.014182448116 0.73754439994546 125.014182448116 0.309204647781671 62.1443086137997 
19.35                          0.291831043451724 10.3083524313746 0.73463643632999 115.711909364193 0.734636436329997 115.711909364194 0.302774395999424 51.2542839202091 
19.4                           0.300720864166658 -0.929266202288855 0.728629845236899 106.108966374782 0.728629845236906 106.108966374782 0.302446784631537 38.8882194630578 
19.45                          0.318560896580439 -12.0863845424993 0.718766877291362 96.1941882039045 0.718766877291369 96.1941882039046 0.310262206415941 25.1531460316361 
19.5                           0.345799210729965 -23.0122958582729 0.704186772090656 85.9690195839237 0.704186772090662 85.9690195839237 0.328083456375112 10.4305167740937 
19.55                          0.382217651944142 -33.6547074688934 0.684016091343546 75.4577287989537 0.68401609134355 75.4577287989537 0.35698214167156 -4.70954910115487 
19.6                           0.426795982515067 -44.0310474824629 0.657552936385087 64.7182794077783 0.657552936385088 64.7182794077782 0.396683371545551 -19.7002438706805 
19.65                          0.477652434384895 -54.1713604824178 0.624526155370021 53.8496311935976 0.624526155370021 53.8496311935976 0.445394316608628 -34.1308060546783 
19.7                           0.532172505226032 -64.0722287204802 0.585343764252369 42.9902304809524 0.585343764252367 42.9902304809527 0.500103470666028 -47.7708462847834 
19.75                          0.587382358782014 -73.6822464830213 0.541196848982623 32.3044949440128 0.54119684898262 32.3044949440134 0.557210209034224 -60.5121570565199 
19.8                           0.640477345280219 -82.9162786538441 0.493920842920259 21.959512777413  0.493920842920257 21.959512777414  0.613256717126347 -72.3087128092561 
19.85                          0.689298015963983 -91.6829741216537 0.445642588230857 12.0997863372167 0.445642588230856 12.099786337218  0.665523411816948 -83.1472272971663 
19.9                           0.732569748822905 -99.9094897242183 0.398365571496818 2.82906957745355 0.398365571496819 2.82906957745511 0.71231924262027 -93.0399653501255 
19.95                          0.769866582582683 -107.554618008828 0.353661504508946 -5.79590041172172 0.35366150450895 -5.79590041172007 0.752948971875659 -102.023582787687 
20                             0.801395242340847 -114.60993447191 0.312546363599673 -13.7609870053511 0.312546363599678 -13.7609870053494 0.78747327576757 -110.155553136215 
20.05                          0.827732657776527 -121.093408486852 0.2755150096571  -21.0842836803751 0.275515009657106 -21.0842836803735 0.816412032561167 -117.507472987905 
20.1                           0.84960761611853 -127.040471063138 0.2426602176188  -27.8045459476869 0.242660217618806 -27.8045459476854 0.84049329015181 -124.157537119698 
20.15                          0.867757395479682 -132.495814390862 0.213809196276981 -33.9713414729221 0.213809196276987 -33.9713414729209 0.860484441891641 -130.184198237794 
20.2                           0.882851730440991 -137.507263996016 0.188639876583807 -39.637938594412 0.188639876583812 -39.637938594411 0.87709895856588 -135.661826441567 
20.25                          0.895463127970911 -142.121819176739 0.166764841280643 -44.8567891492862 0.166764841280647 -44.8567891492854 0.890956311024249 -140.65828229294 
20.3                           0.906063737098317 -146.383423723943 0.147785021130662 -49.6770038588712 0.147785021130666 -49.6770038588707 0.90257326902341 -145.23393320161 
20.35                          0.91503488920126 -150.33192946739 0.13132040029775 -54.1431768675424 0.131320400297754 -54.1431768675421 0.912370910340768 -149.441601549773 
20.4                           0.922681111033166 -154.002800949848 0.117025215631059 -58.2950415711159 0.117025215631062 -58.2950415711158 0.92068785070026 -153.327036169796 
20.45                          0.929244404164653 -157.42723877981 0.104593575053346 -62.1675949994848 0.104593575053348 -62.1675949994849 0.927794654377763 -156.929628522114 
20.5                           0.934916966002507 -160.632512967298 0.0937596130818622 -65.7914580438434 0.0937596130818637 -65.7914580438434 0.933907104575533 -160.283203039697 
20.55                          0.939851790354219 -163.642380652717 0.0842948206120796 -69.1933319294486 0.0842948206120807 -69.1933319294487 0.939197496447153 -163.416787147713 
20.6                           0.944171180821414 -166.477517608514 0.0760041359328855 -72.3964723593936 0.0760041359328862 -72.3964723593937 0.943803844858721 -166.355314813136 
20.65                          0.947973446097254 -169.155926959545 0.0687216978116846 -75.4211404357548 0.068721697811685 -75.4211404357549 0.947837211263334 -169.120245967459 
20.7                           0.951338105254036 -171.693308625805 0.0623067373407244 -78.2850116499373 0.0623067373407244 -78.2850116499375 0.951387454458088 -171.730099746087 
20.75                          0.954329912442637 -174.103384228849 0.0566398344034017 -81.0035367015194 0.0566398344034016 -81.0035367015194 0.954527712305864 -174.20090726295 
20.8                           0.95700196398537 -176.398178126232 0.0516196225649779 -83.5902545203313 0.0516196225649776 -83.5902545203311 0.957317884688864 -176.546592914445 
20.85                          0.959398099790101 -178.588258074561 0.047159949870524 -86.0570610762282 0.0471599498705236 -86.0570610762279 0.959807340487869 -178.779294036124 
20.9                           0.961554764854423 179.317059869451 0.0431874651783756 -88.4144388566656 0.0431874651783751 -88.4144388566653 0.962037025761872 179.090371670279 
20.95                          0.963502458324221 177.30953741384  0.0396395835877758 -90.6716521581237 0.0396395835877753 -90.6716521581232 0.964041111140294 177.053082476987 
21                             0.965266867191873 175.381866537858 0.0364627802948336 -92.8369130849287 0.0364627802948331 -92.8369130849282 0.9658482846713  175.100625407749 
21.05                          0.966869758239052 173.527544385961 0.0336111640474038 -94.9175226659982 0.0336111640474033 -94.9175226659973 0.967482771402546 173.225739243848 
21.1                           0.968329683950002 171.740767023847 0.0310452859856409 -96.9199909430695 0.0310452859856404 -96.9199909430688 0.968965141707008 171.421982570919 
21.15                          0.969662544619599 170.016339046418 0.028731145248323 -98.8501393340165 0.0287311452483226 -98.8501393340153 0.97031295566039 169.683622568901 
21.2                           0.970882038725986 168.349596496726 0.0266393583515131 -100.713188070099 0.0266393583515128 -100.713188070097 0.971541279613076 168.005541002346 
21.25                          0.972000026009104 166.736340965956 0.0247444645501269 -102.513831061207 0.0247444645501266 -102.513831061206 0.972663102645523 166.383154498143 
21.3                           0.97302682196101 165.172783096155 0.0230243439896587 -104.256300160665 0.0230243439896584 -104.256300160664 0.973689674194722 164.812346717782 
21.35                          0.973971438112217 163.655494004089 0.0214597294042578 -105.944420477275 0.0214597294042575 -105.944420477274 0.974630779285694 163.289410457881 
21.4                           0.974841779231294 162.181363392412 0.0200337954504925 -107.581658110643 0.0200337954504924 -107.581658110641 0.975494964112369 161.810998061458 
21.45                          0.975644806075834 160.747563320342 0.0187318125473918 -109.171161459392 0.0187318125473917 -109.17116145939 0.976289721898387 160.374078806964 
21.5                           0.97638667044306 159.351516776609 0.0175408543968016 -110.71579706374 0.0175408543968016 -110.715797063739 0.977021646814061 158.975902174158 
21.55                          0.977072827821102 157.990870338511 0.0164495502567512 -112.218180787925 0.0164495502567511 -112.218180787924 0.977696562069512 157.613966075321 
21.6                           0.977708131828027 156.663470317571 0.0154478746010201 -113.680705018625 0.0154478746010201 -113.680705018624 0.978319627024807 156.285989294995 
21.65                          0.978296913763918 155.367341888716 0.0145269680787317 -115.105562448293 0.0145269680787317 -115.105562448291 0.978895427165555 154.989887508156 
21.7                           0.978843049931175 154.100670779834 0.0136789847382088 -116.494766923271 0.0136789847382088 -116.49476692327 0.979428050018623 153.72375235058  
21.75                          0.97935001885433 152.861787164789 0.0128969613410862 -117.850171762506 0.0128969613410862 -117.850171762505 0.979921149476652 152.485833100628 
21.8                           0.979820950119067 151.649151458075 0.0121747053002032 -119.173485890964 0.0121747053002033 -119.173485890964 0.980378000522939 151.27452060211  
21.85                          0.980258666224978 150.461341755155 0.0115066983563845 -120.466288080341 0.0115066983563846 -120.46628808034 0.980801545971042 150.08833311612  
21.9                           0.980665718588536 149.297042700838 0.0108880135879797 -121.730039546463 0.0108880135879798 -121.730039546463 0.981194436533652 148.925903838025 
21.95                          0.981044418626818 148.155035600095 0.0103142437418346 -122.966095116607 0.0103142437418347 -122.966095116607 0.981559065295984 147.785969855921 
22                             0.981396864687437 147.034189612657 0.00978143920053948 -124.175713149419 0.00978143920053957 -124.17571314942 0.981897597476997 146.667362360377 
22.05                          0.981724965457176 145.933453895339 0.00928605417082093 -125.360064364446 0.00928605417082101 -125.360064364446 0.982211996207191 145.568997943261 
22.1                           0.98203046037415 144.851850575151 0.00882489990194526 -126.520239716438 0.00882489990194532 -126.520239716439 0.982504044926617 144.489870846945 
22.15                          0.98231493748086 143.78846845244  0.00839510392923141 -127.657257431191 0.00839510392923147 -127.657257431192 0.982775366905133 143.429046044936 
22.2                           0.98257984908403 142.742457346958 0.00799407449293918 -128.772069303879 0.00799407449293923 -128.772069303881 0.983027442304009 142.385653051661 
22.25                          0.98282652552853 141.713023011469 0.00761946941237271 -129.865566347501 0.00761946941237275 -129.865566347503 0.983261623130061 141.358880373215 
22.3                           0.983056187344437 140.699422547379 0.00726916880348383 -130.938583867528 0.00726916880348385 -130.938583867529 0.983479146377645 140.347970522853 
22.35                          0.983269955986406 139.700960265416 0.00694125111922307 -131.991906029042 0.0069412511192231 -131.991906029044 0.983681145607693 139.352215535188 
22.4                           0.983468863351385 138.716983941645 0.00663397206835525 -133.0262699742  0.00663397206835525 -133.026269974201 0.983868661174825 138.370952921712 
22.45                          0.983653860233168 137.746881425337 0.00634574603288316 -134.042369540546 0.00634574603288316 -134.042369540547 0.984042649281709 137.403562017709 
22.5                           0.983825823849163 136.790077560622 0.00607512965862332 -135.040858624468 0.0060751296586233 -135.04085862447 0.98420399001341 136.449460676947 
22.55                          0.983985564555464 135.846031388475 0.00582080733950797 -136.022354228609 0.00582080733950795 -136.022354228611 0.98435349448222 135.50810227604  
22.6                           0.984133831849962 134.914233599626 0.00558157835522337 -136.987439227362 0.00558157835522333 -136.987439227363 0.984491911194813 134.578972995047 
22.65                          0.984271319749516 133.994204212432 0.00535634545496299 -137.936664880473 0.005356345454963 -137.936664880475 0.984619931737888 133.661589344967 
22.7                           0.984398671615529 133.085490452816 0.0051441047083201 -138.870553121242 0.00514410470832007 -138.870553121244 0.984738195865144 132.755495916278 
22.75                          0.984516484492355 132.187664815981 0.00494393646844265 -139.789598642677 0.00494393646844259 -139.789598642678 0.984847296057189 131.860263325731 
22.8                           0.984625313014538 131.30032329192  0.00475499731317864 -140.694270802282 0.0047549973131786 -140.694270802284 0.984947781616415 130.975486341276 
22.85                          0.984725672931645 130.423083738746 0.00457651284758897 -141.585015363785 0.00457651284758894 -141.585015363786 0.985040162350696 130.100782167269 
22.9                           0.984818044293281 129.555584389633 0.00440777126635324 -142.462256092034 0.00440777126635321 -142.462256092035 0.985124911892806 129.235788874167 
22.95                          0.984902874331538 128.697482480693 0.00424811758762019 -143.326396215489 0.00424811758762017 -143.326396215489 0.985202470696449 128.380163958638 
23                             0.984980580073569 127.848452988485 0.00409694848107538 -144.17781976912 0.00409694848107538 -144.17781976912 0.985273248744696 127.533583021602 
