! Touchstone file exported from HFSS 3D Layout Design 2026.1.0
!        File:           D:/Work/SIM/ADS_AUTO_SIM/projects/RFSOC_RF/TX_Fillter.aedt
!        Generated:      11:49:09 PM Aug 30, 2026
!        Design:         TX_BAND1_MCFIL_R11_CNN025
!        Project:        TX_Fillter
!
# GHz S MA R 50.000000
! Terminal data exported
! Port[1] = Port1
! Port[2] = Port2
14                             0.966446902285255 179.675283811618 0.0049910180157306 178.64920054076  0.00499101801573059 178.64920054076  0.968268083700192 -175.425371650076 
14.05                          0.965780534128377 178.665164981956 0.0051104026817411 178.250813778739 0.00511040268174113 178.250813778739 0.967639666970632 -176.387060610006 
14.1                           0.965092412202673 177.646497725683 0.00523618270584518 177.867209128283 0.00523618270584519 177.867209128284 0.966990439698899 -177.356691577319 
14.15                          0.964381466151825 176.618998673321 0.00536886257778117 177.498161093854 0.00536886257778117 177.498161093855 0.966319357926983 -178.334532015257 
14.2                           0.963646555183413 175.582369971124 0.0055089940366321 177.143366366932 0.0055089940366321 177.143366366932 0.965625307640688 -179.320863257436 
14.25                          0.962886462252161 174.536298350844 0.0056571809475929 176.802436405194 0.0056571809475929 176.802436405195 0.964907098869907 179.684018583186 
14.3                           0.962099887661736 173.480454126194 0.00581408471970006 176.474889802408 0.00581408471970003 176.474889802409 0.964163459188093 178.679801632062 
14.35                          0.961285442016509 172.414490109112 0.00598043032991355 176.160144516722 0.00598043032991354 176.160144516723 0.96339302653885 177.666157190443 
14.4                           0.960441638445333 171.338040438109 0.00615701302794205 175.857510037074 0.00615701302794204 175.857510037074 0.962594341307615 176.642738584506 
14.45                          0.959566884008612 170.250719310189 0.00634470580665472 175.566179579013 0.00634470580665475 175.566179579013 0.961765837544834 175.609179917452 
14.5                           0.958659470187415 169.15211960681  0.00654446773509673 175.285222411881 0.00654446773509675 175.285222411881 0.960905833233695 174.565094714765 
14.55                          0.95771756233888 168.04181140331  0.00675735326532575 175.013576428197 0.00675735326532574 175.013576428198 0.960012519479904 173.510074451682 
14.6                           0.956739187985305 166.91934034997  0.0069845226408946 174.750041072627 0.00698452264089456 174.750041072627 0.959083948482895 172.443686950629 
14.65                          0.955722223784668 165.784225911513 0.00722725355424933 174.493270751099 0.00722725355424931 174.493270751099 0.958118020126744 171.365474634899 
14.7                           0.954664381007334 164.635959450256 0.00748695422312262 174.241768839785 0.0074869542231226 174.241768839785 0.95711246700428 170.274952623177 
14.75                          0.953563189316889 163.474002136384 0.00776517808278605 173.993882407806 0.00776517808278603 173.993882407806 0.956064837658942 169.17160664761  
14.8                           0.952415978621409 162.297782666765 0.00806364032251654 173.747797756043 0.00806364032251652 173.747797756043 0.954972477794744 168.054890775973 
14.85                          0.951219858724416 161.106694771477 0.00838423653168774 173.501536856667 0.00838423653168769 173.501536856667 0.953832509164565 166.92422491601  
14.9                           0.94997169646094 159.900094484615 0.00872906376454665 173.252954753546 0.00872906376454659 173.252954753547 0.952641805799396 165.77899207723  
14.95                          0.948668089952283 158.677297152998 0.00910044438418457 172.999737952467 0.00910044438418453 172.999737952467 0.951396967184904 164.618535362231 
15                             0.947305339551675 157.437574153068 0.00950095310691655 172.739403792217 0.00950095310691651 172.739403792217 0.950094287924734 163.442154656003 
15.05                          0.945879414979931 156.180149282491 0.00993344773995859 172.469300743614 0.00993344773995855 172.469300743614 0.948729723350283 162.249102977468 
15.1                           0.944385918063107 154.90419478864  0.0104011041900081 172.186609534272 0.0104011041900081 172.186609534272 0.947298850441453 161.038582452788 
15.15                          0.942820040380027 153.608826991284 0.0109074564205552 171.888344943541 0.0109074564205552 171.888344943541 0.94579682330886 159.809739864554 
15.2                           0.941176515002696 152.293101451295 0.0114564421544426 171.571358055931 0.0114564421544425 171.571358055931 0.944218322351006 158.561661724787 
15.25                          0.939449561362555 150.956007630918 0.0120524552589161 171.232338704074 0.0120524552589161 171.232338704074 0.942557496034942 157.293368812691 
15.3                           0.937632822094659 149.596462984182 0.0127004059174305 170.867817775381 0.0127004059174305 170.867817775381 0.940807894049721 156.003810110111 
15.35                          0.935719290493246 148.213306408149 0.0134057898909349 170.47416900152  0.0134057898909348 170.47416900152  0.938962390340706 154.691856058662 
15.4                           0.933701226947345 146.805290977004 0.0141747684074056 170.047609797839 0.0141747684074056 170.047609797839 0.937013094239808 153.356291052403 
15.45                          0.931570062403332 145.371075871369 0.0150142604993607 169.584200671606 0.0150142604993607 169.584200671606 0.934951247550205 151.995805068585 
15.5                           0.92931628650964 143.909217404866 0.0159320499436977 169.079842673637 0.0159320499436977 169.079842673637 0.932767105008861 150.608984326607 
15.55                          0.9269293176209  142.418159038847 0.0169369093567375 168.530272327109 0.0169369093567375 168.530272327109 0.930449795017997 149.194300851682 
15.6                           0.924397351254452 140.896220264882 0.0180387444718066 167.931053428839 0.0180387444718066 167.931053428839 0.927987156884259 147.750100805319 
15.65                          0.921707182876704 139.341584223451 0.0192487621908335 167.277565080237 0.0192487621908336 167.277565080237 0.925365550003471 146.274591429863 
15.7                           0.918844000019765 137.7522839174   0.0205796666707069 166.564985264949 0.0205796666707068 166.564985264949 0.922569629444078 144.765826439875 
15.75                          0.915791137653063 136.126186871563 0.0220458884962803 165.788269244735 0.0220458884962802 165.788269244735 0.919582081170788 143.221689680479 
15.8                           0.912529789415717 134.460978088081 0.0236638529219906 164.942121991065 0.0236638529219906 164.942121991065 0.916383308658818 141.639876864168 
15.85                          0.909038665700433 132.754141154049 0.0254522942486801 164.020963803604 0.0254522942486802 164.020963803604 0.912951060815874 140.017875196542 
15.9                           0.905293587607833 131.002937380158 0.0274326246521788 163.018888185193 0.0274326246521788 163.018888185193 0.909259988879785 138.352940713713 
15.95                          0.90126700339435 129.204382894918 0.029629367195719 161.929610943646 0.029629367195719 161.929610943646 0.90528111721127 136.642073188312 
16                             0.896927411148838 127.355223702479 0.0320706643192209 160.746409373382 0.0320706643192209 160.746409373382 0.900981209564595 134.881988530749 
16.05                          0.892238667993914 125.451908853828 0.0347888747483672 159.462050237013 0.0347888747483673 159.462050237013 0.896322008409523 133.069088738239 
16.1                           0.88715916208939 123.49056211258  0.0378212733860882 158.068705126383 0.0378212733860882 158.068705126383 0.891259320136041 131.199429657919 
16.15                          0.881640819158382 121.466952865491 0.0412108701148357 156.557851650311 0.0412108701148357 156.557851650311 0.88574191350332 129.268687180636 
16.2                           0.875627910342999 119.376467606159 0.0450073641547414 154.920158802194 0.0450073641547414 154.920158802194 0.87971019263594 127.272123042959 
16.25                          0.869055623370882 117.214084217299 0.0492682500192352 153.145354855911 0.0492682500192352 153.14535485591  0.873094599626271 125.204552299895 
16.3                           0.861848355195797 114.974352657009 0.0540600880770576 151.222076308494 0.0540600880770576 151.222076308494 0.865813696258446 123.060315912644 
16.35                          0.853917683218161 112.651387765489 0.0594599454755739 149.137696871238 0.0594599454755739 149.137696871238 0.857771871274239 120.833264037689 
16.4                           0.84515997707388 110.238883121924 0.0655569988667911 146.878136527349 0.0655569988667911 146.878136527349 0.848856622193938 118.516758905372 
16.45                          0.835453629372426 107.730159748661 0.0724542646045877 144.427652567373 0.0724542646045877 144.427652567373 0.838935374752385 116.103711241445 
16.5                           0.824655921150026 105.118270790963 0.0802703782004899 141.768617807982 0.0802703782004899 141.768617807982 0.827851838453564 113.58667191803  
16.55                          0.812599611881144 102.396194259317 0.0891412731250026 138.881296675313 0.0891412731250026 138.881296675313 0.815421970232859 110.958012256346 
16.6                           0.799089479845475 99.5571621243492 0.0992214960337549 135.743638608845 0.0992214960337549 135.743638608845 0.801429756745536 108.210244073752 
16.65                          0.783899275245831 96.5951976224806 0.110684723931677 132.331121828174 0.110684723931677 132.331121828174 0.785623271462046 105.336556870105 
16.7                           0.766769941892599 93.5059660547811 0.123722799872685 128.61670075889  0.123722799872685 128.61670075889  0.767711877560883 102.331688042134 
16.75                          0.747410587131554 90.2880898800681 0.138542264651365 124.570939189125 0.138542264651365 124.570939189125 0.74736611506856 99.1932969192028 
16.8                           0.725504612563365 86.9451367377908 0.15535694371062 120.16244938236  0.15535694371062 120.16244938236  0.724222825466242 95.9240886354883 
16.85                          0.700724700348995 83.4885532330334 0.17437472288891 115.358802534869 0.17437472288891 115.358802534869 0.697899494566017 92.535030249669  
16.9                           0.67276187856528 79.9418669567487 0.195776407871718 110.128118349923 0.195776407871718 110.128118349923 0.668023569564893 89.0501105320131 
16.95                          0.641375211839155 76.3464614823403 0.219684906775742 104.441557483023 0.219684906775741 104.441557483023 0.634284231101844 85.5131850276932 
17                             0.606468660927038 72.76902966449   0.246124546451   98.2768860118706 0.246124546450999 98.2768860118706 0.596514735136407 81.9974380142963 
17.05                          0.56819822725074 69.3102083619641 0.274973884354742 91.6230915355203 0.274973884354741 91.6230915355203 0.554810996739525 78.6176968744495 
17.1                           0.527102654189082 66.1125126135605 0.305921211674103 84.4856447902476 0.305921211674102 84.4856447902476 0.509683717848645 75.5448462018139 
17.15                          0.48423202124914 63.3629831660816 0.33843878491337 76.8914257130353 0.338438784913369 76.8914257130354 0.462224353633689 73.0190376973095 
17.2                           0.441221100252295 61.2815675955032 0.371795677319044 68.8917431577279 0.371795677319044 68.891743157728  0.41423880397201 71.3525421270968 
17.25                          0.400226458448109 60.0814306977154 0.405123955268434 60.5616658311735 0.405123955268433 60.5616658311736 0.36826867807032 70.9015264563829 
17.3                           0.363638964762942 59.8889364385124 0.437535061920499 51.9945042001223 0.437535061920499 51.9945042001224 0.327381730615974 71.9707411299709 
17.35                          0.333536812750151 60.6348147610607 0.46825836507753 43.2918378859376 0.46825836507753 43.2918378859376 0.294593269313702 74.6223962736159 
17.4                           0.311005050636131 61.9820355420476 0.496757324166089 34.5513411819118 0.496757324166089 34.5513411819119 0.27189293816101 78.4583155655098 
17.45                          0.295667661058109 63.3866855925776 0.522784862734521 25.8557008117691 0.522784862734521 25.855700811769  0.25927368163045 82.6183269430331 
17.5                           0.285791477822683 64.2976530362652 0.54636641564443 17.2654232377229 0.546366415644431 17.2654232377228 0.254579437005899 86.1562594396268 
17.55                          0.278932443065664 64.35125474623   0.567728704582981 8.81664335431897 0.567728704582981 8.81664335431889 0.254466878274109 88.4877630601794 
17.6                           0.272685080839036 63.4275927695885 0.58720693062556 0.52325975261795 0.58720693062556 0.523259752617857 0.255679960408464 89.5038474818469 
17.65                          0.265149512927219 61.5871335982424 0.605159408453022 -7.61828037064759 0.605159408453021 -7.61828037064769 0.255786087845744 89.401186075838  
17.7                           0.255061216698769 58.980366758532  0.621905476175483 -15.6232882723408 0.621905476175482 -15.6232882723409 0.253300185870839 88.4896405928372 
17.75                          0.241722959998636 55.7865020446952 0.637689891301509 -23.5134809424955 0.637689891301508 -23.5134809424956 0.24751812442945 87.0893382415938 
17.8                           0.224876026227898 52.1887175105777 0.652669608981064 -31.3126148343008 0.652669608981062 -31.3126148343008 0.238306161892565 85.5018799892718 
17.85                          0.204582105829398 48.3765429147513 0.666916560683773 -39.0432974494978 0.666916560683772 -39.0432974494979 0.225941854273743 84.0183989991163 
17.9                           0.181138586504532 44.570035480771  0.680430590661554 -46.7249154117065 0.680430590661553 -46.7249154117065 0.211021946265675 82.9412718398519 
17.95                          0.155030298716483 41.0744988212813 0.69315809888472 -54.3725175739332 0.69315809888472 -54.3725175739331 0.194427568538159 82.6070058411518 
18                             0.126924134399306 38.4061980419113 0.70501314326573 -61.9964736238161 0.70501314326573 -61.9964736238161 0.177331583292808 83.3966324034723 
18.05                          0.0977499393792582 37.6288499196731 0.715898495479916 -69.6027393236958 0.715898495479916 -69.6027393236957 0.161222417593683 85.703917750313  
18.1                           0.0690782342745687 41.4262306791299 0.725724558151763 -77.1935710884891 0.725724558151764 -77.1935710884891 0.147880113035194 89.8047683955279 
18.15                          0.0448763072924448 57.649522805002  0.734424394951267 -84.7685374268653 0.734424394951268 -84.7685374268653 0.139168174142668 95.5858219651692 
18.2                           0.037085129982063 96.6497632008522 0.741963602699343 -92.3256770497243 0.741963602699345 -92.3256770497244 0.13651012115526 102.277994403621 
18.25                          0.0528858516379117 126.446734495334 0.748344428451703 -99.8626613299813 0.748344428451705 -99.8626613299814 0.140245949049508 108.606855876375 
18.3                           0.0780357277017655 135.563915705309 0.753604320791543 -107.37783839224 0.753604320791544 -107.37783839224 0.149470824967188 113.442298365252 
18.35                          0.104733744853204 136.329119194752 0.757809831694734 -114.871068296638 0.757809831694735 -114.871068296638 0.162569902016141 116.285483304182 
18.4                           0.130756545249374 133.715863000855 0.761047283448153 -122.34429908402 0.761047283448153 -122.34429908402 0.177900438776271 117.192998598397 
18.45                          0.155312564829943 129.461934080583 0.763411790694337 -129.801874343489 0.763411790694337 -129.801874343489 0.194155699320474 116.467718619323 
18.5                           0.178083876809415 124.281186643239 0.764996091527302 -137.2505970486  0.764996091527302 -137.2505970486  0.210431612163095 114.442107420569 
18.55                          0.19898357174924 118.508788787298 0.765880286838034 -144.699596869023 0.765880286838034 -144.699596869023 0.226169542511873 111.39269407367  
18.6                           0.218074216494975 112.316218858763 0.766123140284803 -152.160057634936 0.766123140284803 -152.160057634936 0.241078631833744 107.524636889901 
18.65                          0.235531623781098 105.795051858014 0.76575516544791 -159.644859579812 0.76575516544791 -159.644859579812 0.255071237031267 102.980884531719 
18.7                           0.251624081881838 98.9942580140914 0.76477339616525 -167.168180345402 0.764773396165251 -167.168180345402 0.268215698302427 97.8562925775057 
18.75                          0.266697606148882 91.9388613489987 0.763137534476479 -174.745082566185 0.763137534476479 -174.745082566185 0.280702832097758 92.2105187902234 
18.8                           0.281163377283424 84.6403812657757 0.760767105066997 177.608903432916 0.760767105066998 177.608903432916 0.292821694457478 86.0786197630629 
18.85                          0.295485135082995 77.1033754857285 0.757539313937261 169.878214066014 0.757539313937262 169.878214066014 0.304940755058923 79.4797838408212 
18.9                           0.310164703156503 69.3299889738559 0.753287515251912 162.047737254424 0.753287515251914 162.047737254424 0.317491129118813 72.4248481856023 
18.95                          0.325723906670945 61.3233430939926 0.747800544838775 154.103400098099 0.747800544838776 154.103400098099 0.330948705892163 64.9230209295197 
19                             0.342681275306917 53.0900826129517 0.7408236893729  146.032926339484 0.740823689372901 146.032926339484 0.345812069562497 56.9878639693653 
19.05                          0.361522333622715 44.6421634938192 0.732062702586154 137.826833746264 0.732062702586153 137.826833746264 0.362573393920349 48.6422336842168 
19.1                           0.382663185222175 35.9979152341922 0.72119294885429 129.479724464299 0.721192948854289 129.479724464299 0.381680469621592 39.9216606171823 
19.15                          0.40640867982914 27.1824850852909 0.707876204349608 120.991872623954 0.707876204349606 120.991872623954 0.403490103356105 30.8757010397686 
19.2                           0.432908776466409 18.2278779666757 0.691787451968224 112.371023568469 0.691787451968221 112.371023568469 0.428216406538104 21.5671461116839 
19.25                          0.462119545571927 9.17283347752463 0.672652623365664 103.6341889916   0.672652623365661 103.6341889916   0.455881463065731 12.069484239626  
19.3                           0.493777828732776 0.0626567768485836 0.650295258229417 94.8090754072847 0.650295258229414 94.8090754072849 0.486279305536413 2.46339390440239 
19.35                          0.527399515319402 -9.05112504187142 0.624685672455438 85.9346743907357 0.624685672455435 85.934674390736  0.518965281114154 -7.16694049545431 
19.4                           0.56230905543966 -18.1116328608751 0.595981778430857 77.0605504551448 0.595981778430855 77.0605504551451 0.553280068502252 -16.7372370492451 
19.45                          0.597701343757393 -27.058414408937 0.564548608513633 68.2445527077114 0.564548608513632 68.2445527077118 0.588410226364564 -26.1662212624414 
19.5                           0.632727717440426 -35.830276842827 0.530946284363644 59.5490466179991 0.530946284363643 59.5490466179995 0.62347680423168 -35.3786007347899 
19.55                          0.666589219194353 -44.3689027249221 0.495884133388419 51.0362012811593 0.495884133388419 51.0362012811595 0.657634182085059 -44.3079592201031 
19.6                           0.698616964731834 -52.6226051158264 0.460149131340739 42.7631874820968 0.460149131340739 42.7631874820969 0.690157534545048 -52.8993335216961 
19.65                          0.728323624032809 -60.5494507916146 0.424524926910925 34.7781836414885 0.424524926910925 34.7781836414884 0.720501405825783 -61.1110484582383 
19.7                           0.755419732725874 -68.1191607930544 0.389719446539541 27.1178278582969 0.389719446539542 27.1178278582967 0.748321881037567 -68.9154426827274 
19.75                          0.779798955148178 -75.3135722611243 0.356314207196219 19.8063248180966 0.356314207196218 19.8063248180962 0.773465788439236 -76.2983752159506 
19.8                           0.801503108396761 -82.1258242702862 0.324740183717458 12.8560087083096 0.324740183717457 12.8560087083091 0.795937642155909 -83.257697974701 
19.85                          0.820679188192066 -88.5586683385182 0.295277497492873 6.26891610574287 0.295277497492871 6.26891610574225 0.815856905553122 -89.8010711435581 
19.9                           0.83753810116052 -94.6223627958201 0.268071842712411 0.0388668548626643 0.268071842712408 0.0388668548620153 0.833415824711155 -95.9435379908669 
19.95                          0.852320717168915 -100.332535794304 0.243159693612743 -5.84636675933515 0.24315969361274 -5.84636675933586 0.848843989929872 -101.705199113357 
20                             0.865273150388513 -105.708269753739 0.22049575589343 -11.4030811519311 0.220495755893427 -11.4030811519319 0.862381958170532 -107.109199811248 
20.05                          0.876630732386615 -110.770530661379 0.199978396516112 -16.6499939435809 0.199978396516108 -16.6499939435816 0.87426366974398 -112.180123210122 
20.1                           0.886608973463971 -115.540969136603 0.181470906513349 -21.6069659082229 0.181470906513345 -21.6069659082235 0.884706090863429 -116.94279334636 
20.15                          0.895399545294881 -120.041062255919 0.164817985083663 -26.2940678367566 0.164817985083659 -26.2940678367572 0.89390415606258 -121.42144131222 
20.2                           0.903169540200863 -124.291538619994 0.149857739478897 -30.7309380989677 0.149857739478894 -30.7309380989681 0.90202925161754 -125.639166266705 
20.25                          0.910062662768597 -128.312023255471 0.136429914605382 -34.9363687723977 0.136429914605378 -34.936368772398 0.909229855842981 -129.617621026107 
20.3                           0.916201413750886 -132.120844245206 0.124381175045536 -38.9280623010172 0.124381175045534 -38.9280623010174 0.915633349255343 -133.376859896239 
20.35                          0.921689659345116 -135.734952930572 0.11356820492695 -42.7225099380851 0.113568204926947 -42.7225099380853 0.921348343534882 -136.93529814266 
20.4                           0.92661522386814 -139.169920296566 0.103859264320431 -46.3349536853953 0.103859264320429 -46.3349536853954 0.926467130121976 -140.309744427779 
20.45                          0.931052310116457 -142.439981850412 0.0951346999855656 -49.7794030427376 0.0951346999855636 -49.7794030427376 0.931068023480791 -143.515477980259 
20.5                           0.935063657431876 -145.558111244482 0.087286780230801 -53.0686858426221 0.0872867802307993 -53.068685842622 0.9352174870825  -146.566350649652 
20.55                          0.938702410586217 -148.536109015611 0.0802191183994461 -56.2145186488557 0.0802191183994449 -56.2145186488556 0.938971999296559 -149.474900377512 
20.6                           0.94201370751756 -151.384697338796 0.0738458681460779 -59.2275868315707 0.0738458681460771 -59.2275868315705 0.942379656007425 -152.252467276958 
20.65                          0.945036011215405 -154.113614935449 0.0680908134048834 -62.1176277869019 0.068090813404883 -62.1176277869018 0.94548152755984 -154.909306813433 
20.7                           0.947802217812183 -156.731708539189 0.0628864327041789 -64.8935131400676 0.0628864327041786 -64.8935131400675 0.948312796948974 -157.454696854836 
20.75                          0.950340573813017 -159.247018864712 0.0581729872421521 -67.5633274098759 0.0581729872421521 -67.5633274098759 0.950903708853136 -159.897036888059 
20.8                           0.952675433242223 -161.666860051981 0.0538976614848163 -70.1344417233698 0.0538976614848165 -70.1344417233699 0.953280358206265 -162.243938698272 
20.85                          0.954827881998586 -163.997892223268 0.0500137712677976 -72.6135819057056 0.050013771267798 -72.6135819057057 0.955465344372925 -164.502308439069 
20.9                           0.956816252848597 -166.246187207002 0.0464800454306766 -75.0068907460867 0.0464800454306771 -75.006890746087 0.957478313693283 -166.678420403088 
20.95                          0.958656550752009 -168.417287730448 0.043259981386532 -77.3199845375452 0.0432599813865325 -77.3199845375455 0.95933640980032 -168.777983017157 
21                             0.960362804844664 -170.516260519488 0.040321271657206 -79.5580041644846 0.0403212716572067 -79.5580041644851 0.96105464797546 -170.806197691148 
21.05                          0.961947360484976 -172.547743807062 0.0376352965324541 -81.7256611076649 0.0376352965324549 -81.7256611076656 0.962646227031669 -172.767811185185 
21.1                           0.963421122307076 -174.515989768989 0.0351766771162369 -83.827278779641 0.0351766771162377 -83.8272787796419 0.964122789829655 -174.667162152533 
21.15                          0.964793757179637 -176.424902394715 0.0329228827490164 -85.8668296136256 0.0329228827490172 -85.8668296136266 0.965494641528774 -176.508222483094 
21.2                           0.966073864292731 -178.278071273065 0.0308538869001974 -87.8479683182369 0.0308538869001982 -87.8479683182381 0.966770933012011 -178.294634026715 
21.25                          0.967269118230391 179.921198262962 0.0289518659496626 -89.7740616881833 0.0289518659496633 -89.7740616881846 0.967959815558242 179.970258776024 
21.3                           0.968386389781165 178.169858227841 0.0272009357169227 -91.6482153322983 0.0272009357169234 -91.6482153322997 0.969068571719022 178.283379880619 
21.35                          0.969431848346467 176.465093947066 0.0255869210836498 -93.4732976491228 0.0255869210836505 -93.4732976491244 0.970103726449035 176.641895819222 
21.4                           0.970411049086956 174.804302566548 0.0240971545485909 -95.2519613487107 0.0240971545485915 -95.2519613487122 0.971071141801974 175.043192699046 
21.45                          0.971329007367375 173.185073817853 0.02272030002825 -96.9866627889087 0.0227203000282506 -96.9866627889104 0.971976097905519 173.484855686584 
21.5                           0.972190262592804 171.605172782261 0.02144619865856 -98.6796793658139 0.0214461986585606 -98.6796793658154 0.97282336244393 171.964650685264 
21.55                          0.972998933152049 170.062524426517 0.0202657337554904 -100.333125171817 0.0202657337554908 -100.333125171818 0.97361725048293 170.48050794963  
21.6                           0.973758763878954 168.555199709884 0.0191707124540876 -101.948965110767 0.0191707124540879 -101.948965110768 0.974361676151518 169.030507410521 
21.65                          0.974473167195365 167.081403085853 0.0181537618665209 -103.529027638298 0.0181537618665212 -103.5290276383  0.975060197434709 167.612865513457 
21.7                           0.97514525889897 165.639461242961 0.017208237882572 -105.075016276146 0.0172082378825722 -105.075016276147 0.975716055118607 166.225923396735 
21.75                          0.975777889395929 164.227812947625 0.0163281449837334 -106.588520032204 0.0163281449837336 -106.588520032205 0.976332206755336 164.868136257096 
21.8                           0.976373671044943 162.844999868291 0.0155080656581018 -108.071022842939 0.0155080656581019 -108.07102284294 0.97691135637281 163.538063769393 
21.85                          0.976935002170254 161.489658274438 0.0147430981910138 -109.52391214138 0.0147430981910138 -109.52391214138 0.977455980537095 162.234361443028 
21.9                           0.977464088211428 160.16051151656  0.0140288017691987 -110.948486642108 0.0140288017691987 -110.948486642108 0.977968351278543 160.955772812064 
21.95                          0.977962960403902 158.856363204238 0.0133611479771891 -112.345963424263 0.013361147977189 -112.345963424262 0.978450556312928 159.701122368339 
22                             0.978433492323206 157.576091009047 0.0127364778866487 -113.717484384386 0.0127364778866485 -113.717484384385 0.978904516922593 158.469309157711 
22.05                          0.978877414575128 156.318641027502 0.0121514640446451 -115.064122122872 0.0121514640446449 -115.064122122871 0.979332003807496 157.259300968994 
22.1                           0.979296327871935 155.083022646626 0.0116030767579388 -116.386885320671 0.0116030767579387 -116.386885320668 0.97973465117001 156.070129053403 
22.15                          0.979691714699566 153.86830386126  0.0110885541490196 -117.686723656597 0.0110885541490194 -117.686723656594 0.980113969258925 154.900883319512 
22.2                           0.980064949751276 152.673606997895 0.0106053755276017 -118.964532310111 0.0106053755276015 -118.964532310107 0.980471355565694 153.750707955053 
22.25                          0.980417309278384 151.498104804872 0.0101512376800621 -120.221156089503 0.0101512376800619 -120.221156089499 0.980808104838854 152.618797432401 
22.3                           0.980749979487942 150.341016873147 0.00972403373014251 -121.457393221163 0.00972403373014228 -121.457393221158 0.981125418059517 151.504392859446 
22.35                          0.981064064099469 149.20160635577  0.00932183426824643 -122.673998831757 0.00932183426824623 -122.673998831752 0.981424410501391 150.406778641768 
22.4                           0.9813605911579  148.079176957589 0.00894287048478424 -123.871688151801 0.00894287048478404 -123.871688151795 0.981706118982298 149.32527942584  
22.45                          0.981640519187164 146.973070169761 0.00858551907607583 -125.051139466111 0.00858551907607562 -125.051139466104 0.98197150840002 148.259257296196 
22.5                           0.981904742757938 145.882662726305 0.00824828872000759 -126.212996833975 0.0082482887200074 -126.212996833968 0.982221477633354 147.208109202458 
22.55                          0.982154097533772 144.807364262295 0.00792980794356303 -127.357872599553 0.00792980794356286 -127.357872599546 0.982456864878905 146.171264594662 
22.6                           0.982389364851834 143.746615155395 0.00762881422601791 -128.486349710882 0.00762881422601776 -128.486349710875 0.982678452485348 145.148183247565 
22.65                          0.982611275887612 142.699884534296 0.00734414420046017 -129.598983864064 0.00734414420046006 -129.598983864056 0.982886971339261 144.138353256649 
22.7                           0.982820515446981 141.666668439261 0.00707472483273658 -130.696305487496 0.00707472483273648 -130.696305487489 0.983083104850065 143.141289190282 
22.75                          0.983017725423913 140.646488121466 0.00681956547127651 -131.77882157958 0.00681956547127647 -131.778821579573 0.983267492575942 142.15653038409  
22.8                           0.983203507957637 139.63888846911  0.00657775067377439 -132.847017411984 0.00657775067377431 -132.847017411978 0.983440733527664 141.183639364995 
22.85                          0.983378428319195 138.643436549468 0.00634843372767149 -133.901358109378 0.00634843372767145 -133.901358109373 0.983603389182978 140.222200393579 
22.9                           0.983543017553956 137.659720257073 0.00613083079097355 -134.942290115491 0.00613083079097353 -134.942290115486 0.983755986240495 139.271818114611 
22.95                          0.98369777490368 136.687347059153 0.00592421558834917 -135.970242554397 0.00592421558834917 -135.970242554394 0.983899019138726 138.332116306488 
23                             0.983843170029191 135.725942830292 0.00572791460483588 -136.985628495091 0.00572791460483588 -136.985628495091 0.984032952363112 137.40273672128  
