! Touchstone file exported from HFSS 3D Layout Design 2026.1.0
!        File:           D:/Work/SIM/ADS_AUTO_SIM/projects/RFSOC_RF/TX_Fillter.aedt
!        Generated:      08:11:31 AM Aug 31, 2026
!        Design:         TX_BAND1_MCFIL_R74_CNN014
!        Project:        TX_Fillter
!
# GHz S MA R 50.000000
! Terminal data exported
! Port[1] = Port1
! Port[2] = Port2
14                             0.973654451390818 -164.497564463039 0.0035690728342646 -177.058563849308 0.0035690728342646 -177.058563849308 0.974463374232873 -159.46942075025 
14.05                          0.97318665357114 -165.36640652503 0.00363811783415171 -177.45042011582 0.00363811783415172 -177.45042011582 0.974005470007452 -160.349139157057 
14.1                           0.972704445897148 -166.240766119739 0.00371043109077246 -177.821304242617 0.00371043109077247 -177.821304242617 0.973533772357098 -161.234557134464 
14.15                          0.972207118083862 -167.12081251096 0.00378627121631845 -178.170760405543 0.0037862712163185 -178.170760405542 0.973047619156188 -162.125833132167 
14.2                           0.971693912364711 -168.006724015395 0.00386592229275151 -178.498371589765 0.00386592229275155 -178.498371589765 0.97254630486626 -163.023133899609 
14.25                          0.97116401950325 -168.898688602145 0.00394969667185999 -178.803767633047 0.00394969667186004 -178.803767633048 0.972029076949105 -163.926635028276 
14.3                           0.97061657439949 -169.796904540491 0.00403793810374151 -179.086634133848 0.00403793810374155 -179.086634133848 0.971495131920586 -164.836521536735 
14.35                          0.970050651242294 -170.701581100662 0.00413102523392271 -179.346722251582 0.00413102523392273 -179.346722251582 0.970943611002672 -165.752988502449 
14.4                           0.969465258152534 -171.612939312785 0.00422937551454497 -179.583859412482 0.00422937551454501 -179.583859412482 0.970373595325341 -166.676241744875 
14.45                          0.968859331253912 -172.531212789824 0.00433344958103656 -179.797960916761 0.0043334495810366 -179.79796091676 0.969784100623271 -167.606498564834 
14.5                           0.968231728099349 -173.456648620984 0.00444375615260095 -179.989042420885 0.00444375615260098 -179.989042420885 0.969174071364452 -168.543988545728 
14.55                          0.967581220370331 -174.389508342826 0.0045608575228557 179.842766757293 0.00456085752285573 179.842766757293 0.968542374238774 -169.488954422806 
14.6                           0.966906485754363 -175.330068996194 0.00468537571627322 179.697209593233 0.00468537571627325 179.697209593233 0.967887790924098 -170.441653027419 
14.65                          0.966206098891416 -176.27862427806 0.00481799939697084 179.573886687158 0.00481799939697088 179.573886687158 0.967209010035038 -171.402356314024 
14.7                           0.965478521263482 -177.235485798484 0.00495949162920543 179.472241126803 0.00495949162920544 179.472241126803 0.966504618145234 -172.371352478625 
14.75                          0.964722089881734 -178.200984454184 0.00511069860404372 179.391543075751 0.00511069860404375 179.391543075752 0.965773089757076 -173.348947178403 
14.8                           0.96393500460262 -179.175471931652 0.00527255946460564 179.330874322088 0.00527255946460566 179.330874322089 0.965012776072928 -174.33546486349 
14.85                          0.963115313876939 179.840677645585 0.00544611738360697 179.289113061095 0.00544611738360697 179.289113061094 0.964221892398523 -175.331250233205 
14.9                           0.962260898703587 178.847065909056 0.0056325320723999 179.264919220667 0.00563253207239992 179.264919220668 0.963398503981512 -176.336669830645 
14.95                          0.961369454521304 177.84326825814  0.00583309393120943 179.256720666037 0.00583309393120943 179.256720666037 0.962540510055333 -177.352113791285 
15                             0.960438470726031 176.828831672373 0.00604924008686714 179.262700637652 0.00604924008686716 179.262700637652 0.961645625819517 -178.377997763293 
15.05                          0.959465207446933 175.803272299279 0.00628257260835394 179.280786779236 0.00628257260835394 179.280786779236 0.960711362041024 -179.41476501957 
15.1                           0.958446669148742 174.766072790406 0.00653487924344881 179.308642098356 0.00653487924344883 179.308642098356 0.95973500190545 179.537111215817 
15.15                          0.957379574549522 173.716679354515 0.00680815708363903 179.343658166197 0.00680815708363904 179.343658166198 0.958713574680124 178.477125201114 
15.2                           0.956260322248236 172.65449849251  0.00710463964147727 179.382950804116 0.00710463964147729 179.382950804116 0.957643825670572 177.404735841097 
15.25                          0.955084951341906 171.578893373733 0.0074268279175562 179.423358420561 0.0074268279175562 179.423358420562 0.956522181854563 176.319363548941 
15.3                           0.953849096173109 170.489179807521 0.007777526146605 179.461443053194 0.007777526146605 179.461443053195 0.955344712460025 175.220386768094 
15.35                          0.952547934179171 169.384621757376 0.0081598830480445 179.493494039148 0.00815988304804451 179.493494039148 0.954107083609692 174.107138111431 
15.4                           0.951176125607458 168.264426337559 0.00857743957076817 179.515534084904 0.00857743957076816 179.515534084904 0.952804505980273 172.978900069132 
15.45                          0.949727743607229 167.127738223373 0.00903418432124146 179.523327341274 0.00903418432124146 179.523327341274 0.95143167420945 171.834900230151 
15.5                           0.948196192896057 165.97363339663  0.00953461810604775 179.5123889149   0.00953461810604779 179.5123889149   0.949982696520384 170.674305954843 
15.55                          0.946574114812702 164.801112136831 0.0100838293144715 179.477995072718 0.0100838293144715 179.477995072718 0.948451012708142 169.496218428106 
15.6                           0.944853276089602 163.609091156252 0.0106875822257376 179.415193227072 0.0106875822257376 179.415193227073 0.946829298229728 168.299666013528 
15.65                          0.94302443808248 162.396394763604 0.0113524207642729 179.318810632931 0.0113524207642729 179.318810632931 0.945109351638965 167.083596819443 
15.7                           0.941077202450575 161.161744926286 0.0120857907637535 179.183460589406 0.0120857907637535 179.183460589406 0.943281961983566 165.846870377936 
15.75                          0.938999828348796 159.903750085918 0.0128961844603632 179.003544817354 0.0128961844603632 179.003544817355 0.941336752001053 164.588248328105 
15.8                           0.936779015020915 158.620892566676 0.013793311746946 178.773250581824 0.013793311746946 178.773250581824 0.93926199197052 163.306383986278 
15.85                          0.93439964220466 157.311514402304 0.0147883037188432 178.486541037399 0.0147883037188432 178.486541037399 0.937044377843993 161.999810679915 
15.9                           0.931844458890099 155.973801397979 0.0158939552735629 178.137137187253 0.0158939552735629 178.137137187253 0.934668765725031 160.666928720979 
15.95                          0.929093708603153 154.60576524149  0.0171250150437328 177.718489750394 0.0171250150437327 177.718489750394 0.932117852794513 159.305990902755 
16                             0.92612467637792 153.205223490877 0.0184985328096977 177.223739110797 0.0184985328096976 177.223739110797 0.929371792292594 157.915086427494 
16.05                          0.922911138760091 151.769777303242 0.0200342768278338 176.645661358791 0.0200342768278337 176.645661358791 0.926407727011604 156.492123220893 
16.1                           0.919422693332565 150.296786848571 0.0217552363030565 175.976598210042 0.0217552363030564 175.976598210042 0.923199221765985 155.034808678645 
16.15                          0.91562393811168 148.783344499645 0.0236882276082403 175.208368281349 0.0236882276082402 175.208368281349 0.919715570278685 153.540629044441 
16.2                           0.911473463425982 147.226246146898 0.0258646268715226 174.332156797867 0.0258646268715226 174.332156797867 0.915920945630288 152.006827875993 
16.25                          0.906922609237811 145.621961422858 0.028321256227797 173.338380291091 0.0283212562277969 173.338380291091 0.911773355627551 150.430384475684 
16.3                           0.901913929018896 143.966604342344 0.0311014562664444 172.216522219635 0.0311014562664443 172.216522219634 0.907223354987753 148.807993839713 
16.35                          0.896379287132207 142.25590704441  0.0342563826859216 170.954934725083 0.0342563826859215 170.954934725083 0.902212455109295 147.136050762712 
16.4                           0.890237500532229 140.485201236693 0.037846570149932 169.540600981808 0.0378465701499318 169.540600981808 0.896671159841518 145.410642458821 
16.45                          0.883391418786487 138.649415037242 0.0419438093224523 167.958851942712 0.0419438093224522 167.958851942712 0.890516543430211 143.627556796549 
16.5                           0.875724322283192 136.74309789915  0.0466333811575583 166.19303098056  0.0466333811575582 166.19303098056  0.88364927790185 141.782317580109 
16.55                          0.867095514371644 134.760494341583 0.0520166804495976 164.224100460188 0.0520166804495975 164.224100460188 0.875950018350157 139.870265166139 
16.6                           0.857335004107211 132.695700144311 0.0582142290211633 162.030186523272 0.0582142290211631 162.030186523272 0.867275079464789 137.886711517254 
16.65                          0.84623725158351 130.542955425951 0.065369011539186 159.586063855387 0.0653690115391859 159.586063855387 0.857451411207965 135.827215755323 
16.7                           0.833554132870359 128.297162198439 0.0736499367353025 156.862593544922 0.0736499367353024 156.862593544922 0.846271054072128 133.688052623971 
16.75                          0.818987677260671 125.954766478329 0.0832549904485972 153.826148635391 0.0832549904485971 153.826148635392 0.833485611378806 131.466986469434 
16.8                           0.802183912676773 123.515226587386 0.0944132395427045 150.438100367781 0.0944132395427046 150.438100367781 0.818801966050173 129.164522738186 
16.85                          0.782730618105865 120.983411772977 0.107384181193102 146.654503208604 0.107384181193102 146.654503208604 0.80188173028057 126.785891594821 
16.9                           0.760164363672237 118.373447733726 0.122451923743031 142.426220819355 0.122451923743031 142.426220819355 0.782349086922663 124.344119655244 
16.95                          0.733996458113648 115.714736771466 0.139910322895107 137.699888419011 0.139910322895107 137.699888419011 0.759815123254255 121.864633882151 
17                             0.703773644067418 113.061049204298 0.160033742333681 132.420303975601 0.160033742333681 132.420303975601 0.733931511227185 119.3918112339   
17.05                          0.669196686774128 110.503435666356 0.183027485142541 126.535028027299 0.183027485142541 126.535028027299 0.704491183747865 116.997468580177 
17.1                           0.63032387763212 108.186511630256 0.208954273361779 120.00199326194  0.20895427336178 120.00199326194  0.67159378372326 114.78990316247  
17.15                          0.587874531920444 106.323760164254 0.23764187593562 112.800466326837 0.23764187593562 112.800466326837 0.63587785947196 112.91879799622  
17.2                           0.543595381316346 105.198056727207 0.268594929395116 104.944349155916 0.268594929395117 104.944349155915 0.598771711654873 111.565390507214 
17.25                          0.500530042921517 105.117077876547 0.300957333837106 96.4944149656547 0.300957333837107 96.4944149656546 0.562618981124305 110.901103059692 
17.3                           0.462847556238682 106.282088080163 0.333582008563707 87.5635613201295 0.333582008563708 87.5635613201293 0.5304351811451  111.002751662647 
17.35                          0.434814453578385 108.574285184695 0.365233973299819 78.3089515687769 0.36523397329982 78.3089515687768 0.505102083588355 111.748813450333 
17.4                           0.418964007761806 111.417082799915 0.394875272004237 68.909385206816  0.394875272004237 68.909385206816  0.48819355247672 112.781935984203 
17.45                          0.414606457784347 113.959785589745 0.421908450894221 59.5341392564822 0.421908450894221 59.5341392564822 0.479160084606383 113.618939222462 
17.5                           0.418110503725275 115.51211622187  0.446264570019034 50.3149680041047 0.446264570019034 50.3149680041048 0.475543568800285 113.853161173305 
17.55                          0.424713702072828 115.808129786092 0.468315715567466 41.3309406229917 0.468315715567466 41.3309406229918 0.474029740785772 113.286767355935 
17.6                           0.430230874711092 114.935462415076 0.488685724520787 32.6082537331482 0.488685724520787 32.6082537331483 0.47151610293498 111.922078480597 
17.65                          0.431752442825501 113.141232605995 0.508054866233832 24.1305168539679 0.508054866233833 24.130516853968  0.465660687188901 109.879464325246 
17.7                           0.427575917839366 110.698153695809 0.527015834291561 15.8530849802041 0.527015834291561 15.8530849802042 0.454947394514575 107.324280550519 
17.75                          0.416880687119641 107.856282119669 0.545991338460828 7.71676293135759 0.545991338460828 7.71676293135767 0.438531108755536 104.431731117059 
17.8                           0.399439341731382 104.84632286444  0.565198523834259 -0.341150674129552 0.565198523834259 -0.341150674129467 0.416065237060576 101.384043241833 
17.85                          0.375456630829429 101.907469156515 0.584642244537776 -8.37867734398569 0.584642244537776 -8.37867734398565 0.387601556713011 98.3893475480548 
17.9                           0.345539997676553 99.3302789377079 0.604126357515636 -16.4432881058384 0.604126357515636 -16.4432881058383 0.353585784772821 95.7186208096242 
17.95                          0.310789641161597 97.517116934579  0.623280497650829 -24.5678062856627 0.623280497650828 -24.5678062856626 0.314953514948687 93.7661832009022 
18                             0.273012814467832 97.0670739160172 0.641604716590068 -32.7678682906398 0.641604716590067 -32.7678682906398 0.273345744990184 93.1474019840874 
18.05                          0.23509590901859 98.8726489879219 0.658534183415323 -41.0410767232188 0.658534183415321 -41.0410767232187 0.231506262495685 94.8400125225349 
18.1                           0.20153411406468 104.092369028653 0.673520866783156 -49.3681465867143 0.673520866783154 -49.3681465867142 0.193947061030313 100.262666046073 
18.15                          0.178653990909697 113.485730557185 0.686120861594703 -57.716209715141 0.686120861594702 -57.7162097151408 0.167559969394341 110.66916345065  
18.2                           0.172695791045702 125.645854128752 0.696069194289661 -66.0440165154603 0.69606919428966 -66.0440165154601 0.159905848034916 124.776074144218 
18.25                          0.184937814787533 136.660864575964 0.703323473108883 -74.3082355813339 0.703323473108882 -74.3082355813337 0.172901138836919 137.636741060875 
18.3                           0.210233363117852 143.699402843306 0.708065631005821 -82.4696831333475 0.708065631005821 -82.4696831333473 0.200314757128656 145.647273456411 
18.35                          0.241728297543475 146.727034117854 0.710664024933529 -90.4983343330608 0.710664024933529 -90.4983343330607 0.234127649786691 149.018127448434 
18.4                           0.274333428068981 146.834827383425 0.711609669736436 -98.3763797147245 0.711609669736437 -98.3763797147243 0.268810142449973 149.218368522927 
18.45                          0.304979240079661 145.021559577347 0.711445066372096 -106.099181355136 0.711445066372096 -106.099181355136 0.301241482912414 147.441282312583 
18.5                           0.331962609099516 141.961072416658 0.710701258764284 -113.674486706054 0.710701258764284 -113.674486706054 0.329781086652344 144.439649873066 
18.55                          0.354408717636012 138.070785771055 0.709851732909349 -121.120512659012 0.709851732909348 -121.120512659012 0.353635930205036 140.663206131543 
18.6                           0.371937532287974 133.601484711737 0.709284704557708 -128.46351628018 0.709284704557707 -128.46351628018 0.372503958485223 136.379440061416 
18.65                          0.384465049804904 128.699517700662 0.709290729670508 -135.735319136292 0.709290729670506 -135.735319136293 0.38637249592265 131.74800110081  
18.7                           0.392085720623045 123.444955877955 0.710060821906892 -142.971059971969 0.71006082190689 -142.971059971969 0.395402415861296 126.863834493796 
18.75                          0.395005941312666 117.874282060616 0.711690552045503 -150.207288945742 0.711690552045501 -150.207288945742 0.399863632049927 121.782272944422 
18.8                           0.393511667008071 111.993600895283 0.714186867516868 -157.480414124917 0.714186867516866 -157.480414124917 0.400103627295165 116.533808069237 
18.85                          0.387959887498705 105.785887185448 0.717475810148517 -164.825466029155 0.717475810148514 -164.825466029155 0.396537974785043 111.132665255534 
18.9                           0.378787267112969 99.2142449979461 0.721410488173564 -172.275144210413 0.721410488173562 -172.275144210413 0.389655150726297 105.58127179767  
18.95                          0.366531265900036 92.2223374502128 0.725779381373174 -179.859133710621 0.725779381373172 -179.859133710621 0.380029428876387 99.8715598033035 
19                             0.35186026659765 84.732929875773  0.730315252492641 172.396288408798 0.73031525249264 172.396288408798 0.368336200183498 93.9834029714638 
19.05                          0.335609940411636 76.6459645900661 0.734704591262625 164.468312637131 0.734704591262625 164.468312637131 0.35536432128481 87.8802443770744 
19.1                           0.318823101389621 67.8390938310114 0.738596697211689 156.337281839813 0.73859669721169 156.337281839813 0.342020789050036 81.5022510377521 
19.15                          0.302788320161778 58.1765058056653 0.741610432231524 147.986007228172 0.741610432231525 147.986007228172 0.329324970566432 74.7584257246768 
19.2                           0.289065434704556 47.5355375617783 0.743335782003291 139.398823852896 0.743335782003294 139.398823852896 0.318393231537944 67.5212838055102 
19.25                          0.279470106587061 35.8605097735039 0.743327326175467 130.560652733047 0.74332732617547 130.560652733046 0.310419048234273 59.6306085778929 
19.3                           0.275969319921021 23.2384034071374 0.741088344814761 121.456533844523 0.741088344814763 121.456533844522 0.306654464235932 50.9144562523158 
19.35                          0.280444588622234 9.95381611812617 0.736048350344548 112.07228607704  0.736048350344549 112.072286077039 0.308389234237155 41.2319338292804 
19.4                           0.29435193018461 -3.54738659650891 0.727543697451662 102.397055868171 0.727543697451662 102.39705586817  0.316901429479765 30.529711378524  
19.45                          0.318413689483584 -16.803737996563 0.714819810413187 92.4283989349558 0.714819810413185 92.4283989349552 0.333332410294995 18.8867640455125 
19.5                           0.352473760701078 -29.4965732689533 0.697081089644616 82.1800019566325 0.697081089644614 82.1800019566321 0.358454021513218 6.51639658439968 
19.55                          0.395507059001068 -41.504299614608 0.673612995185919 71.6910103023495 0.673612995185917 71.6910103023493 0.392365353845331 -6.28247408234378 
19.6                           0.445696120679658 -52.8450907237166 0.643979182356191 61.0342690947948 0.64397918235619 61.0342690947947 0.434240325021329 -19.1956895816604 
19.65                          0.500565259928663 -63.5842004803747 0.60825018491865 50.3193510846349 0.608250184918652 50.319351084635  0.482272405262904 -31.9455107090608 
19.7                           0.557240299858258 -73.768784926665 0.567168108361837 39.686488656947  0.567168108361842 39.6864886569471 0.533898318068804 -44.3086829445527 
19.75                          0.612852343449657 -83.4064244099724 0.522141200889851 29.2905830989308 0.522141200889858 29.2905830989309 0.5862586145304  -56.1141627361848 
19.8                           0.664980889422271 -92.4749453430641 0.475029420833512 19.2793511653633 0.475029420833521 19.2793511653632 0.636733699266871 -67.2379563574014 
19.85                          0.711969590078364 -100.944112265166 0.42779540504826 9.77304927817116 0.42779540504827 9.77304927817074 0.683356126557692 -77.601101303962 
19.9                           0.753010950349235 -108.794350396263 0.38216510997071 0.852293126595912 0.38216510997072 0.852293126595124 0.724977327839153 -87.1679007726805 
19.95                          0.788021286152078 -116.026058037619 0.339415315935292 -7.44391925221579 0.339415315935301 -7.44391925221694 0.76119965853037 -95.9408694070789 
20                             0.817409374509813 -122.660034300563 0.300318711386032 -15.1122813166118 0.30031871138604 -15.1122813166132 0.792174911381658 -103.95212533974 
20.05                          0.841842911105134 -128.73272023472 0.265205386257776 -22.1755129741664 0.265205386257782 -22.1755129741681 0.818378547474705 -111.253331441394 
20.1                           0.862070876293029 -134.28990735615 0.234077163940711 -28.6725182632893 0.234077163940715 -28.6725182632913 0.840426249491948 -117.906468587819 
20.15                          0.878814096858953 -139.381146538489 0.206725353980382 -34.6503273709303 0.206725353980385 -34.6503273709323 0.858952824458712 -123.976721762123 
20.2                           0.892711288025124 -144.05570243824 0.18282681715579 -40.1583845693105 0.182826817155791 -40.1583845693126 0.874545813735831 -129.52772237093 
20.25                          0.904301384029537 -148.360057309583 0.162011889548502 -45.2449495123713 0.162011889548502 -45.2449495123733 0.887717096842641 -134.618788761956 
20.3                           0.914025859980037 -152.33662505877 0.14390736815861 -49.955094654327 0.14390736815861 -49.9550946543288 0.898896943466772 -139.303614767266 
20.35                          0.922240098871395 -156.023284217337 0.128160882698948 -54.3297805551111 0.128160882698947 -54.3297805551128 0.908439440309446 -143.629894739249 
20.4                           0.929227498425497 -159.453406849055 0.114452779193137 -58.4055985684098 0.114452779193137 -58.4055985684114 0.916632536342049 -147.639495222305 
20.45                          0.935213157525071 -162.656154923887 0.102500280373461 -62.2148933036243 0.10250028037346 -62.2148933036257 0.92370905579951 -151.368908735869 
20.5                           0.940375829274135 -165.65689762119 0.0920572272565544 -65.7860788674922 0.0920572272565539 -65.7860788674932 0.929856949469244 -154.849824620092 
20.55                          0.944857797200863 -168.47766266593 0.0829115276980615 -69.1440358876564 0.082911527698061 -69.1440358876573 0.935228124679516 -158.109721365614 
20.6                           0.948772781383064 -171.137574197265 0.0748816015084459 -72.3105246560152 0.0748816015084455 -72.3105246560158 0.939945735507506 -161.172429624133 
20.65                          0.95221215260982 -173.653254004492 0.0678125615112438 -75.3045800018359 0.0678125615112435 -75.3045800018363 0.944110057013845 -164.058642271281 
20.7                           0.955249767260132 -176.039177172743 0.0615725263066254 -78.142871634922 0.0615725263066254 -78.1428716349222 0.947803153262524 -166.78636350608 
20.75                          0.957945710682347 -178.307980993402 0.0560492548140526 -80.8400240958193 0.0560492548140526 -80.8400240958193 0.951092559590189 -169.371297394173 
20.8                           0.960349191564596 179.529270046491 0.0511471745771158 -83.4088961076166 0.051147174577116 -83.4088961076163 0.954034178280162 -171.827180403046 
20.85                          0.962500782252882 177.462858649431 0.0467848113644077 -85.8608219693794 0.0467848113644079 -85.860821969379 0.956674555118673 -174.166064170899 
20.9                           0.96443415759427 175.484223418817 0.042892594997011 -88.2058188609815 0.0428925949970114 -88.205818860981 0.959052672271056 -176.398555110545 
20.95                          0.966177449853519 173.585796984651 0.039411002050438 -90.452764265956 0.0394110020504385 -90.4527642659554 0.961201364555513 -178.534017131343 
21                             0.967754309465383 171.760869067173 0.0362889919374546 -92.609547589617 0.036288991937455 -92.6095475896165 0.963148442664379 179.419256860669 
21.05                          0.969184739864379 170.003470547596 0.0334826940440804 -94.6831996999108 0.033482694044081 -94.6831996999103 0.964917588052793 177.453899746143 
21.1                           0.970485758199152 168.308275171368 0.030954307275338 -96.6800036856513 0.0309543072753385 -96.6800036856508 0.966529069457448 175.563347034946 
21.15                          0.971671921287243 166.670516027519 0.0286711780086348 -98.605589684634 0.0286711780086354 -98.6055896846334 0.968000319584623 173.741732198935 
21.2                           0.97275574677048 165.085914407538 0.0266050272136456 -100.465016219353 0.0266050272136462 -100.465016219352 0.969346401724613 171.983797502999 
21.25                          0.973748052350308 163.550619043769 0.0247313019600099 -102.262840106646 0.0247313019600105 -102.262840106645 0.97058038932096 170.284817837774 
21.3                           0.974658230642949 162.061154063146 0.0230286305168405 -104.003176684105 0.0230286305168411 -104.003176684105 0.971713676371825 168.64053547595  
21.35                          0.97549447316006 160.614374273307 0.0214783636991453 -105.689751819255 0.0214783636991459 -105.689751819255 0.972756232594607 167.047104024219 
21.4                           0.976263953863756 159.207426631884 0.0200641880510993 -107.325946933152 0.0200641880510998 -107.325946933152 0.973716814255493 165.501040133859 
21.45                          0.976972980420312 157.837716943298 0.01877179892133 -108.914838073172 0.0187717989213304 -108.914838073171 0.974603139233441 163.999181773925 
21.5                           0.97762711950195 156.502880987136 0.0175886235393944 -110.45922990494 0.0175886235393947 -110.45922990494 0.97542203308638 162.538652070076 
21.55                          0.978231301124876 155.20075941407  0.0165035859049761 -111.961685355864 0.0165035859049765 -111.961685355864 0.976179551490122 161.116827876523 
21.6                           0.978789905962862 153.929375854009 0.0155069067075572 -113.424551527979 0.0155069067075575 -113.424551527979 0.976881083332229 159.731312384341 
21.65                          0.979306838763643 152.686917771039 0.0145899326537386 -114.849982402213 0.0145899326537388 -114.849982402213 0.977531437891829 158.379911181662 
21.7                           0.979785590363569 151.471719673957 0.0137449905345046 -116.239958776333 0.0137449905345048 -116.239958776333 0.978134918867427 157.060611274224 
21.75                          0.98022929030196 150.282248352784 0.0129652621514782 -117.596305812135 0.0129652621514783 -117.596305812135 0.978695387486804 155.771562651805 
21.8                           0.980640751648453 149.117089862695 0.0122446768696176 -118.920708511574 0.0122446768696176 -118.920708511575 0.979216316514291 154.511062050152 
21.85                          0.981022509350108 147.97493801935  0.0115778190986767 -120.214725394723 0.0115778190986768 -120.214725394724 0.979700836637194 153.27753861136  
21.9                           0.981376853161833 146.854584205062 0.0109598484475418 -121.479800612996 0.0109598484475418 -121.479800612997 0.980151776446139 152.069541190218 
21.95                          0.98170585602977 145.754908314898 0.0103864306610124 -122.717274697916 0.0103864306610123 -122.717274697916 0.98057169700956 150.885727091317 
22                             0.982011398641951 144.67487069668  0.00985367775142857 -123.928394117592 0.00985367775142847 -123.928394117592 0.980962921869266 149.724852053037 
22.05                          0.982295190735517 143.613504959785 0.009358095988944 -125.114319789323 0.00935809598894385 -125.114319789323 0.981327563143555 148.58576132081  
22.1                           0.982558789648719 142.56991154524  0.00889654062336028 -126.276134676506 0.00889654062336012 -126.276134676506 0.98166754430995 147.467381674322 
22.15                          0.982803616523863 141.543251964531 0.00846617638472711 -127.41485058083 0.00846617638472687 -127.41485058083 0.981984620146084 146.36871429205  
22.2                           0.983030970500444 140.53274362719  0.00806444295548073 -128.531414226019 0.00806444295548053 -128.531414226019 0.982280394230516 145.28882835249  
22.25                          0.983242041182881 139.537655187917 0.00768902472872948 -129.626712716802 0.00768902472872925 -129.626712716801 0.982556334341963 144.226855284952 
22.3                           0.983437919622244 138.557302353186 0.00733782426948268 -130.701578445968 0.00733782426948245 -130.701578445967 0.982813786043119 143.181983594336 
22.35                          0.983619608014114 137.591044095068 0.00700893898151235 -131.756793513084 0.00700893898151212 -131.756793513083 0.983053984691779 142.153454194177 
22.4                           0.983788028283927 136.638279226696 0.00670064055488563 -132.793093710402 0.0067006405548854 -132.793093710401 0.983278066085789 141.140556190654 
22.45                          0.983944029705498 135.698443299565 0.00641135683027385 -133.811172124593 0.00641135683027363 -133.811172124592 0.983487075918084 140.142623067549 
22.5                           0.984088395677002 134.771005787765 0.00613965576780338 -134.811682396904 0.00613965576780316 -134.811682396903 0.983681978192697 139.159029228337 
22.55                          0.984221849760787 133.855467528545 0.00588423125199567 -135.795241679163 0.00588423125199548 -135.795241679162 0.983863662731256 138.189186856986 
22.6                           0.984345061078298 132.951358392266 0.00564389050153715 -136.762433318516 0.00564389050153695 -136.762433318515 0.984032951881468 137.232543063704 
22.65                          0.984458649138685 132.058235158012 0.00541754288426898 -137.713809299852 0.00541754288426881 -137.713809299851 0.984190606523813 136.288577285858 
22.7                           0.98456318816894 131.175679573894 0.00520418996478155 -138.649892471437 0.0052041899647814 -138.649892471436 0.984337331459733 135.356798917851 
22.75                          0.984659211004246 130.303296583491 0.00500291663506104 -139.571178576298 0.00500291663506091 -139.571178576296 0.984473780253523 134.4367451467   
22.8                           0.984747212589496 129.440712702003 0.00481288319838248 -140.478138109256 0.00481288319838238 -140.478138109255 0.984600559590754 133.5279789728   
22.85                          0.984827653136276 128.587574527488 0.00463331829358001 -141.371218017254 0.00463331829357993 -141.371218017252 0.984718233207963 132.630087397591 
22.9                           0.984900960973973 127.743547374211 0.00446351256138025 -142.250843258571 0.00446351256138017 -142.250843258571 0.984827325441419 131.742679761945 
22.95                          0.984967535128766 126.908314016518 0.00430281296701555 -143.117418234814 0.00430281296701552 -143.117418234814 0.984928324436832 130.865386220802 
23                             0.985027747660092 126.081573532898 0.00415061770414147 -143.971328107976 0.00415061770414147 -143.971328107976 0.98502168505672 129.997856341201 
