! Touchstone file exported from HFSS 3D Layout Design 2026.1.0
!        File:           D:/Work/SIM/ADS_AUTO_SIM/projects/RFSOC_RF/TX_Fillter.aedt
!        Generated:      01:37:46 AM Aug 31, 2026
!        Design:         TX_BAND1_MCFIL_R23_CNN044
!        Project:        TX_Fillter
!
# GHz S MA R 50.000000
! Terminal data exported
! Port[1] = Port1
! Port[2] = Port2
14                             0.972065983822497 -168.689222703135 0.00375456159535763 -179.158886295502 0.00375456159535762 -179.158886295502 0.97426207549201 -161.963263419654 
14.05                          0.971545615526095 -169.581245162006 0.00382805935281952 -179.576044126205 0.00382805935281952 -179.576044126206 0.97380826812678 -162.822454677466 
14.1                           0.971008766755637 -170.479677642795 0.00390499845305548 -179.974386617331 0.00390499845305547 -179.974386617331 0.973340775742644 -163.687072207921 
14.15                          0.970454633506936 -171.384728543664 0.00398564212428732 179.646444759166 0.00398564212428729 179.646444759166 0.972858942710488 -164.557275960185 
14.2                           0.969882359356575 -172.296617014225 0.0040702786817883 179.286772075687 0.00407027868178827 179.286772075687 0.972362070853348 -165.43323420447 
14.25                          0.969291031189401 -173.215573647861 0.00415922421698344 178.946874121051 0.0041592242169834 178.946874121051 0.971849415980395 -166.315124069471 
14.3                           0.968679674506268 -174.141841228487 0.00425282559648081 178.62697887458  0.00425282559648076 178.62697887458  0.971320184079724 -167.203132121869 
14.35                          0.968047248263615 -175.075675536862 0.0043514638086177 178.327255260561 0.00435146380861767 178.327255260561 0.970773527130372 -168.097454991881 
14.4                           0.967392639189915 -176.017346222146 0.00445555769995762 178.047804171497 0.0044555576999576 178.047804171496 0.970208538488706 -168.998300049222 
14.45                          0.9667146555167  -176.967137745016 0.00456556814973339 177.788648761343 0.00456556814973337 177.788648761344 0.969624247798227 -169.905886134357 
14.5                           0.966012020053238 -177.925350399377 0.00468200273662388 177.549724025473 0.00468200273662383 177.549724025474 0.969019615364791 -170.820444350462 
14.55                          0.965283362524074 -178.892301420492 0.00480542095963004 177.330865702695 0.00480542095962998 177.330865702695 0.968393525931102 -171.742218922132 
14.6                           0.964527211077152 -179.868326188269 0.00493644008336378 177.131798556163 0.00493644008336374 177.131798556164 0.967744781774871 -172.671468127562 
14.65                          0.963741982856971 179.146220464516 0.00507574168800742 176.952124114276 0.00507574168800738 176.952124114276 0.967072095044065 -173.60846531174 
14.7                           0.962925973521663 178.150962828149 0.0052240790158152 176.791307979273 0.00522407901581516 176.791307979273 0.966374079229882 -174.553499989058 
14.75                          0.962077345564893 177.145502763801 0.00538228521964593 176.648666839568 0.00538228521964587 176.648666839569 0.965649239663138 -175.506879044769 
14.8                           0.961194115282283 176.129418009506 0.00555128263503915 176.523355350836 0.00555128263503911 176.523355350836 0.964895962902274 -176.468928045883 
14.85                          0.960274138197356 175.102260328853 0.0057320932162708 176.414353079293 0.00573209321627073 176.414353079293 0.964112504860677 -177.439992673373 
14.9                           0.959315092732857 174.063553484981 0.00592585029923696 176.320451726734 0.00592585029923691 176.320451726735 0.963296977496857 -178.420440289082 
14.95                          0.958314461879054 173.012791020304 0.00613381188063746 176.240242878792 0.00613381188063743 176.240242878793 0.962447333862548 -179.410661652379 
15                             0.957269512570111 171.949433819809 0.0063573756346254 176.172106533266 0.00635737563462538 176.172106533267 0.961561351270132 179.588927196415 
15.05                          0.956177272431673 170.872907432924 0.00659809592589942 176.114200671831 0.00659809592589938 176.114200671832 0.960636612300779 178.577882866631 
15.1                           0.955034503505824 169.782599125633 0.00685770312339303 176.064452133461 0.00685770312339303 176.064452133461 0.959670483327233 177.555732340169 
15.15                          0.953837672491716 168.677854630712 0.00713812557277038 176.020549029137 0.0071381255727704 176.020549029137 0.958660090168404 176.521970462105 
15.2                           0.952582916959107 167.557974559661 0.00744151465068642 175.979934902916 0.00744151465068644 175.979934902917 0.957602290425128 175.476057171105 
15.25                          0.951266006894895 166.422210434896 0.00777027340140261 175.939804792639 0.0077702734014026 175.939804792639 0.956493641965002 174.417414437963 
15.3                           0.949882300826025 165.269760295095 0.0081270893495175 175.897103274003 0.0081270893495175 175.897103274003 0.955330366926176 173.345422876332 
15.35                          0.948426695621422 164.099763820045 0.0085149721944821 175.8485244846   0.00851497219448211 175.8485244846   0.954108310491617 172.259417984737 
15.4                           0.946893568905435 162.911296913878 0.00893729722713299 175.790514021371 0.00893729722713302 175.790514021372 0.95282289354194 171.158685973442 
15.45                          0.945276712808932 161.703365677034 0.0093978554704505 175.719272488289 0.00939785547045054 175.719272488289 0.951469058120589 170.042459123316 
15.5                           0.943569257533017 160.474899687553 0.00990091174196997 175.630760344563 0.00990091174197002 175.630760344564 0.950041204432675 168.909910616704 
15.55                          0.941763582893862 159.224744501264 0.0104512720708926 175.520703571609 0.0104512720708926 175.520703571609 0.948533117838784 167.760148772158 
15.6                           0.939851215641766 157.951653267934 0.0110543621877532 175.38459954417  0.0110543621877532 175.38459954417  0.946937883986092 166.592210605862 
15.65                          0.937822709886656 156.654277346499 0.0117163191493219 175.21772236209  0.011716319149322 175.21772236209  0.945247789826392 165.405054632572 
15.7                           0.935667507394338 155.331155787007 0.0124440985795319 175.015126778178 0.0124440985795319 175.015126778178 0.943454207785677 164.197552808015 
15.75                          0.933373773816269 153.980703530084 0.0132456005149426 174.771649747385 0.0132456005149427 174.771649747385 0.941547459749232 162.968481503185 
15.8                           0.930928206046597 152.601198156856 0.0141298174604673 174.481908524118 0.0141298174604674 174.481908524119 0.939516656780055 161.716511389169 
15.85                          0.928315804821059 151.190765004068 0.0151070090119556 174.140294147049 0.0151070090119557 174.14029414705  0.937349509559274 160.440196099879 
15.9                           0.925519605329495 149.747360441834 0.0161889083157223 173.740959070946 0.0161889083157224 173.740959070946 0.935032103377501 159.137959530553 
15.95                          0.922520356940214 148.26875309719  0.0173889667455513 173.27779762724  0.0173889667455513 173.27779762724  0.93254863005602 157.808081624206 
16                             0.919296141046783 146.752502798895 0.0187226445247514 172.744417911543 0.0187226445247514 172.744417911543 0.929881067361566 156.448682499712 
16.05                          0.915821913443774 145.195937023493 0.0202077566488238 172.134103597697 0.0202077566488238 172.134103597697 0.927008794205716 155.057704789171 
16.1                           0.912068954393933 143.596124648526 0.0218648854198552 171.439764053812 0.0218648854198552 171.439764053812 0.923908127076881 153.632894086823 
16.15                          0.908004205520689 141.949846880508 0.0237178732306632 170.653870975762 0.0237178732306631 170.653870975762 0.920551759605934 152.171777480151 
16.2                           0.903589467685333 140.253565345476 0.0257944119656581 169.768379548776 0.0257944119656581 169.768379548776 0.916908082763556 150.671640255846 
16.25                          0.898780427924097 138.503387544537 0.0281267485147002 168.77463189302  0.0281267485147002 168.77463189302  0.912940357769007 149.129501080442 
16.3                           0.893525476192787 136.695030241792 0.0307525293577083 167.663240246174 0.0307525293577083 167.663240246174 0.908605707214798 147.542086296076 
16.35                          0.887764264059746 134.823781955821 0.0337158107764549 166.423946999737 0.0337158107764549 166.423946999737 0.903853882112438 145.905804521432 
16.4                           0.881425947794875 132.884466707042 0.0370682645613616 165.045458372859 0.0370682645613615 165.045458372859 0.898625753657854 144.216723623557 
16.45                          0.87442704819352 130.871412749879 0.0408706112770705 163.515248252224 0.0408706112770706 163.515248252224 0.892851469012643 142.470553509698 
16.5                           0.86666885055076 128.778432534199 0.0451943127106262 161.819328686292 0.0451943127106262 161.819328686292 0.886448201593948 140.662640361594 
16.55                          0.858034263813382 126.598824134668 0.0501235493653875 159.94198393948  0.0501235493653876 159.94198393948  0.879317421045009 138.787981333717 
16.6                           0.848384064622172 124.32541070726  0.0557574931799492 157.86546630089  0.0557574931799491 157.86546630089  0.871341611743123 136.841274031762 
16.65                          0.83755248193424 121.950644502521 0.0622128523610374 155.569654693972 0.0622128523610375 155.569654693972 0.862380391824004 134.817023296378 
16.7                           0.825342153273104 119.466817631805 0.0696266018511528 153.031682673155 0.0696266018511528 153.031682673155 0.852266046262684 132.709740457612 
16.75                          0.811518643134885 116.866446255374 0.0781586999593472 150.22555240137  0.0781586999593473 150.22555240137  0.84079862104074 130.514289486992 
16.8                           0.795805023383161 114.142932723048 0.0879943999251081 147.121768389002 0.0879943999251082 147.121768389002 0.827740987771825 128.226463330287 
16.85                          0.777877581201899 111.291667841459 0.0993454545892603 143.687053028916 0.0993454545892604 143.687053028916 0.812814771610103 125.843915734697 
16.9                           0.757364704210002 108.311820858941 0.112449035737841 139.884250317164 0.112449035737841 139.884250317164 0.795698878882661 123.367632209722 
16.95                          0.733852613592151 105.209185509023 0.127562511004723 135.672589827082 0.127562511004723 135.672589827082 0.776033748704071 120.804197706045 
17                             0.706904103805287 102.000606683742 0.144951366258565 131.008572183493 0.144951366258565 131.008572183493 0.753436563605788 118.169195176187 
17.05                          0.676099864631874 98.7206777336592 0.164866729009655 125.847841221962 0.164866729009655 125.847841221962 0.727535484047573 115.492103989939 
17.1                           0.641115751912797 95.4314742145786 0.187508704410995 120.148491685016 0.187508704410995 120.148491685016 0.698033890317724 112.822946637044 
17.15                          0.601851453730531 92.2358025131849 0.21297324177455 113.876240676341 0.21297324177455 113.876240676341 0.664816503901017 110.240411614792 
17.2                           0.558621401282521 89.2931367391202 0.241185258705999 107.011616384241 0.241185258705999 107.011616384241 0.628103340524623 107.859819206747 
17.25                          0.512398569312281 86.8337172902457 0.271830701836782 99.5586055580164 0.271830701836782 99.5586055580163 0.588636911478828 105.836511938528 
17.3                           0.465054427801932 85.1578665178631 0.304313657128652 91.5529903083979 0.304313657128652 91.5529903083979 0.547845688301838 104.355874547604 
17.35                          0.419457062092166 84.5928787475459 0.337773645261947 83.0672566013838 0.337773645261947 83.0672566013839 0.507868202848561 103.597304746392 
17.4                           0.37919468928767 85.36810251869   0.371188957712427 74.2084721657566 0.371188957712428 74.2084721657566 0.471287040673712 103.663731812285 
17.45                          0.347688157006007 87.4036394084141 0.403555870049286 65.1071159333318 0.403555870049286 65.1071159333319 0.440493872115776 104.493431257118 
17.5                           0.326787759772646 90.1478929121037 0.434085843310325 55.8985784035853 0.434085843310326 55.8985784035853 0.416851025719681 105.814217007644 
17.55                          0.315678509230124 92.7159887663347 0.462340975034257 46.7029029919489 0.462340975034258 46.7029029919489 0.400106681806428 107.20883886557  
17.6                           0.311136997615924 94.3232417173905 0.488256726378999 37.6093969530847 0.488256726379   37.6093969530847 0.388490848694928 108.276598914705 
17.65                          0.308996270104633 94.6073462993728 0.512059927448117 28.6701273136969 0.512059927448118 28.670127313697  0.379429495578382 108.776750004681 
17.7                           0.305570843323446 93.6050950491049 0.534133341188665 19.9021518731244 0.534133341188666 19.9021518731244 0.370376708873817 108.666861504596 
17.75                          0.298283490359934 91.5634438513283 0.554882090585764 11.2954493402663 0.554882090585765 11.2954493402662 0.359350290786137 108.05820202078  
17.8                           0.285656966745141 88.7940367711037 0.574634825103752 2.82296225241043 0.574634825103753 2.8229622524104  0.345114410783318 107.155824509075 
17.85                          0.267078713657874 85.6206872855227 0.593587925626134 -5.54984040590202 0.593587925626135 -5.54984040590207 0.327161320592594 106.223337841342 
17.9                           0.242582532369247 82.3967668191146 0.611787232182678 -13.8571688540594 0.611787232182679 -13.8571688540595 0.305646869592843 105.57781304758  
17.95                          0.212732643254629 79.5804330541854 0.629138323506186 -22.1272597434317 0.629138323506187 -22.1272597434318 0.281365868146629 105.604752777566 
18                             0.178644884868453 77.902133235205  0.645437725204567 -30.3788199941198 0.645437725204567 -30.3788199941198 0.255795110809998 106.774345044075 
18.05                          0.142246246758035 78.7552788480707 0.660418942959944 -38.6194181928254 0.660418942959945 -38.6194181928254 0.231182597599535 109.617605689041 
18.1                           0.107178643553001 85.1163381410382 0.673806969417451 -46.8456665068665 0.673806969417452 -46.8456665068665 0.210565554502348 114.57154651381  
18.15                          0.0814225663080864 102.444229950942 0.685373273268011 -55.0449818335038 0.685373273268011 -55.0449818335038 0.197400185903428 121.590513233168 
18.2                           0.0785491351006057 129.915559049834 0.694981955514981 -63.1985755271119 0.694981955514981 -63.1985755271119 0.19441148034692 129.708066920805 
18.25                          0.100563075002555 149.664450190871 0.702618566189344 -71.285147501973 0.702618566189344 -71.285147501973 0.20207858533737 137.259678968757 
18.3                           0.13411543628663 157.212883310104 0.708396705882615 -79.2846489644961 0.708396705882615 -79.2846489644961 0.21832484742207 142.901044701791 
18.35                          0.170135803314402 158.093286171139 0.712542967327587 -87.1815060473958 0.712542967327587 -87.1815060473957 0.239839030175577 146.227756320861 
18.4                           0.204736307269484 155.702871616096 0.715365829446199 -94.9668729038505 0.715365829446199 -94.9668729038505 0.263502103906999 147.507378908881 
18.45                          0.236119038296065 151.575452350037 0.71721684495334 -102.639743148478 0.71721684495334 -102.639743148478 0.28697384830886 147.214839261666 
18.5                           0.263371173990242 146.428638209751 0.718452241607906 -110.206997731476 0.718452241607906 -110.206997731476 0.308694463242834 145.788347683499 
18.55                          0.286042646125281 140.619030340506 0.719400685084828 -117.682632601283 0.719400685084828 -117.682632601283 0.327709848026438 143.564682741849 
18.6                           0.303967779703007 134.327841818149 0.720339873047134 -125.086468509347 0.720339873047133 -125.086468509347 0.343498833904097 140.785287085585 
18.65                          0.317173898667012 127.64227457023  0.721482058168855 -132.442619725882 0.721482058168854 -132.442619725882 0.355843005193413 137.618536072907 
18.7                           0.325830089206272 120.594363878932 0.722967089869997 -139.777929194077 0.722967089869996 -139.777929194077 0.364737204255856 134.180328671401 
18.75                          0.330220458082017 113.180995376337 0.72486108760435 -147.120502255911 0.724861087604349 -147.120502255911 0.370331081199206 130.549186297029 
18.8                           0.330735269519051 105.375032314192 0.727159073035278 -154.498412761675 0.727159073035277 -154.498412761675 0.372892534837486 126.77603138944  
18.85                          0.327875778497161 97.1323065512206 0.729790399786605 -161.93862256442 0.729790399786605 -161.93862256442 0.372785267189615 122.889508971086 
18.9                           0.322268711138508 88.3973423474717 0.732626307428991 -169.466145876109 0.732626307428991 -169.466145876109 0.370453623638086 118.89757278024  
18.95                          0.314685228645303 79.1102503811988 0.735489177137089 -177.103495159888 0.735489177137088 -177.103495159888 0.366408599739405 114.785880637961 
19                             0.306056909124096 69.2174470023254 0.738162967756413 175.129546863696 0.738162967756412 175.129546863696 0.361209972819077 110.513604794726 
19.05                          0.297477810772049 58.6889276091858 0.740403853438395 167.215787482447 0.740403853438394 167.215787482447 0.355441764017064 106.007662379125 
19.1                           0.290178130831466 47.5433076479531 0.741949378978573 159.140101858624 0.741949378978572 159.140101858624 0.349682372432075 101.157068690356 
19.15                          0.285455230084136 35.8766796514148 0.742523746093767 150.888574569538 0.742523746093766 150.888574569538 0.344476762876446 95.809870698085  
19.2                           0.284559083512367 23.8821498468939 0.741836519282699 142.447448728917 0.741836519282698 142.447448728917 0.340324499960724 89.7755307848527 
19.25                          0.288555953090708 11.8399600807436 0.739572542880638 133.802155725223 0.739572542880635 133.802155725223 0.337700674481082 82.8354514365504 
19.3                           0.298222992536375 0.0662526953219017 0.73537263659183 124.936842867237 0.735372636591827 124.936842867237 0.337122036724819 74.7638465758009 
19.35                          0.314023710670765 -11.1648335525869 0.728808051724842 115.834946776067 0.728808051724839 115.834946776067 0.339253565505563 65.3609185346613 
19.4                           0.336162137890152 -21.6881820124216 0.719356891312366 106.481427368006 0.719356891312362 106.481427368006 0.345019517334882 54.499488281811  
19.45                          0.364650248617365 -31.4726880537425 0.706397303138551 96.8671924489146 0.706397303138548 96.8671924489146 0.355643274782951 42.1809705312231 
19.5                           0.399308945750434 -40.6007454611623 0.689238261226805 86.9958657148034 0.689238261226803 86.9958657148034 0.372516581819145 28.5827153486315 
19.55                          0.439672075169154 -49.2196612019609 0.667209187208588 76.8922248384571 0.667209187208587 76.8922248384572 0.396841280754714 14.0633853933912 
19.6                           0.484839516566523 -57.4863653832304 0.639816490576124 66.6103507887689 0.639816490576124 66.6103507887689 0.429127418893875 -0.898418176399676 
19.65                          0.533382519006978 -65.5220803720103 0.606942441766271 56.2382157656216 0.606942441766271 56.2382157656216 0.468790341463202 -15.812006067324 
19.7                           0.583404951620214 -73.3873030243674 0.569018197651672 45.8951328153453 0.569018197651674 45.8951328153451 0.514095810092555 -30.2696140572043 
19.75                          0.632793433447918 -81.0802092249973 0.527079728322494 35.7203130714801 0.527079728322495 35.7203130714798 0.56251049458081 -43.9866200820949 
19.8                           0.679579720933637 -88.5537645480494 0.482648716275585 25.8545885749902 0.482648716275585 25.8545885749898 0.611288755050211 -56.7937161579964 
19.85                          0.722266960531125 -95.7412819032959 0.437466013051171 16.4209674536702 0.43746601305117 16.4209674536695 0.658035280907299 -68.6105405817251 
19.9                           0.759995626706802 -102.579707582797 0.393183014017906 7.51034275917746 0.393183014017904 7.51034275917674 0.701050429460023 -79.4205192471834 
19.95                          0.792521521305665 -109.024148687689 0.351125445844849 -0.824154197196684 0.351125445844847 -0.824154197197445 0.739408876677015 -89.2515585095494 
20                             0.820066862228202 -115.052730760756 0.312186947278355 -8.5647063672036 0.312186947278353 -8.56470636720432 0.77284180021589 -98.1610236635573 
20.05                          0.843133021972671 -120.664554249796 0.276840752227078 -15.7214075036384 0.276840752227074 -15.7214075036391 0.801534659644006 -106.223542240528 
20.1                           0.862339061738296 -125.874402326937 0.245221110823075 -22.3233541633812 0.245221110823071 -22.3233541633817 0.825929199344784 -113.521358587543 
20.15                          0.878311416346246 -130.706958245302 0.21722604579576 -28.4105915465233 0.217226045795757 -28.4105915465237 0.846572777814164 -120.137316477025 
20.2                           0.891622604007647 -135.191964300371 0.192610738749731 -34.0279448726215 0.192610738749728 -34.0279448726219 0.864022292474106 -126.150305387831 
20.25                          0.902765554212562 -139.360748443928 0.171058988348849 -39.2208386420513 0.171058988348847 -39.2208386420515 0.878792368135113 -131.632720351785 
20.3                           0.912149454801228 -143.244010022797 0.152231754510501 -44.0327611525993 0.152231754510499 -44.0327611525994 0.891333308623751 -136.64937595743 
20.35                          0.920106523127701 -146.870566875685 0.135796935193038 -48.5039186650599 0.135796935193036 -48.5039186650598 0.902026482961776 -141.257361142376 
20.4                           0.926903063683666 -150.266758284796 0.121445665800786 -52.6706724554677 0.121445665800784 -52.6706724554676 0.911188619681997 -145.506437952429 
20.45                          0.932751196645582 -153.456259054168 0.108899770061415 -56.5654516036119 0.108899770061414 -56.5654516036118 0.919079826327188 -149.439710957099 
20.5                           0.937819565291452 -156.460131491722 0.0979138177517692 -60.2169312248902 0.0979138177517684 -60.2169312248902 0.925912497643622 -153.094395279836 
20.55                          0.942242412699285 -159.297001985487 0.0882741407125249 -63.6503417325726 0.0882741407125245 -63.6503417325725 0.931859728595958 -156.502583744023 
20.6                           0.946126962848927 -161.983292395982 0.0797963069728559 -66.8878280178655 0.0797963069728554 -66.8878280178654 0.937062670072791 -159.691961213159 
20.65                          0.949559278497664 -164.533465652168 0.0723219592512224 -69.9488124172007 0.0723219592512222 -69.9488124172006 0.941636693031702 -162.68644335195 
20.7                           0.952608844913373 -166.96026343874 0.065715535883337 -72.85033719595  0.065715535883337 -72.85033719595  0.945676427984725 -165.506733789113 
20.75                          0.955332129322094 -169.274925101872 0.0598611497926893 -75.6073753803255 0.0598611497926893 -75.6073753803255 0.949259825768225 -168.170802593235 
20.8                           0.95777533584637 -171.487383455102 0.0546597555910643 -78.233106293848 0.0546597555910643 -78.233106293848 0.952451403255741 -170.694293208378 
20.85                          0.959976537071854 -173.606436812041 0.0500266510326279 -80.7391562484606 0.0500266510326279 -80.7391562484608 0.955304827427497 -173.090866547199 
20.9                           0.96196732618618 -175.639898465945 0.0458893131408614 -83.1358068870132 0.0458893131408614 -83.1358068870135 0.957864970380317 -175.372491041582 
20.95                          0.96377410164902 -177.594725706504 0.0421855461182293 -85.432174537202 0.0421855461182295 -85.4321745372023 0.960169544938778 -177.549686835252 
21                             0.965419070382235 -179.477130757642 0.0388619080984547 -87.6363641429353 0.0388619080984548 -87.6363641429357 0.962250409279705 -179.631731386162 
21.05                          0.966921035060849 178.7073239962   0.0358723810946907 -89.755601200454 0.0358723810946908 -89.7556012004544 0.964134610772718 178.37316724448  
21.1                           0.968296015356313 176.953644297548 0.0331772496630053 -91.7963448252964 0.0331772496630054 -91.7963448252968 0.965845224286639 176.457724089062 
21.15                          0.969557740998976 175.257333853526 0.0307421568160852 -93.7643847149215 0.0307421568160853 -93.7643847149221 0.967402028235907 174.615453484351 
21.2                           0.970718045454104 173.614334009541 0.028537309441374 -95.6649244059645 0.0285373094413741 -95.6649244059651 0.968822052193266 172.840564068235 
21.25                          0.971787182158663 172.020971784576 0.0265368092792  -97.5026528825579 0.0265368092792  -97.5026528825585 0.970120022507644 171.127869467433 
21.3                           0.972774080102357 170.473915011532 0.0247180890848482 -99.2818062851037 0.0247180890848483 -99.2818062851042 0.971308726618439 169.472712112142 
21.35                          0.973686551638535 168.970133517908 0.0230614367947887 -101.006221200782 0.0230614367947887 -101.006221200782 0.972399312295476 167.870898055053 
21.4                           0.974531462462087 167.506865447699 0.0215495932996052 -102.679380786884 0.0215495932996051 -102.679380786884 0.973401534571467 166.318641037143 
21.45                          0.975314871454364 166.081587966504 0.0201674118041676 -104.304454782478 0.0201674118041675 -104.304454782479 0.974323960444255 164.812514343398 
21.5                           0.976042146391745 164.691991711099 0.0189015687635121 -105.884334298902 0.0189015687635121 -105.884334298903 0.975174139333116 163.349409239015 
21.55                          0.976718060212059 163.335958444969 0.0177403180647183 -107.4216621409  0.0177403180647183 -107.4216621409  0.975958745640192 161.926498980085 
21.6                           0.977346871532897 162.011541465403 0.0166732815262578 -108.918859293937 0.0166732815262578 -108.918859293937 0.976683698489871 160.54120756009  
21.65                          0.977932392344233 160.716948378041 0.0156912699497241 -110.378148115837 0.0156912699497241 -110.378148115837 0.977354262714981 159.191182491351 
21.7                           0.978478045199507 159.450525913676 0.0147861299229477 -111.801572689224 0.0147861299229477 -111.801572689224 0.977975134367238 157.874271034218 
21.75                          0.97898691176336 158.210746511327 0.0139506123716247 -113.191016722814 0.0139506123716247 -113.191016722814 0.978550513403072 156.588499380684 
21.8                           0.979461774209301 156.996196432903 0.0131782595171867 -114.548219332118 0.0131782595171867 -114.548219332118 0.979084165698367 155.332054376881 
21.85                          0.97990515067356 155.805565209372 0.0124633074455926 -115.874788981708 0.0124633074455926 -115.874788981708 0.979579476148693 154.103267433406 
21.9                           0.980319325744372 154.637636247456 0.0118006019449615 -117.172215830431 0.0118006019449616 -117.172215830431 0.980039494293695 152.900600326163 
21.95                          0.980706376785585 153.491278450359 0.0111855256459534 -118.441882686492 0.0111855256459535 -118.441882686492 0.980466973648626 151.722632635162 
22                             0.981068196749448 152.365438726727 0.0106139348111504 -119.685074750124 0.0106139348111505 -119.685074750123 0.980864405719592 150.568050606166 
22.05                          0.981406514017904 151.259135279502 0.0100821043795717 -120.902988296794 0.0100821043795718 -120.902988296794 0.981234049511759 149.435637251502 
22.1                           0.981722909718572 150.171451581151 0.00958668008905247 -122.096738432824 0.00958668008905253 -122.096738432823 0.981577957203599 148.324263532727 
22.15                          0.982018832886133 149.101530954385 0.00912463668007231 -123.267366037302 0.00912463668007237 -123.267366037301 0.981897996549038 147.232880490128 
22.2                           0.982295613778522 148.048571688143 0.00869324133591443 -124.415843988857 0.00869324133591454 -124.415843988856 0.982195870478174 146.160512202801 
22.25                          0.982554475607136 147.011822627847 0.00829002164085246 -125.543082762665 0.00829002164085257 -125.543082762664 0.982473134292172 145.106249479037 
22.3                           0.982796544899154 145.990579186726 0.00791273744457048 -126.649935471837 0.00791273744457059 -126.649935471836 0.982731210785992 144.069244190264 
22.35                          0.983022860676131 144.984179731752 0.00755935611065563 -127.73720241763 0.00755935611065572 -127.73720241763 0.982971403581201 143.048704173312 
22.4                           0.983234382604977 143.992002303524 0.00722803070258772 -128.805635204588 0.00722803070258785 -128.805635204587 0.98319490890845 142.043888635651 
22.45                          0.983431998254124 143.013461634407 0.00691708072451687 -129.855940469561 0.00691708072451701 -129.85594046956 0.983402826043519 141.054104006647 
22.5                           0.983616529568245 142.048006433566 0.00662497508819765 -130.888783267348 0.00662497508819775 -130.888783267348 0.983596166571036 140.078700185137 
22.55                          0.983788738658586 141.095116911228 0.00635031702332438 -131.904790150354 0.0063503170233245 -131.904790150353 0.983775862624904 139.117067139827 
22.6                           0.983949332992367 140.154302517801 0.00609183068751348 -132.904551975028 0.00609183068751358 -132.904551975027 0.983942774233399 138.168631824384 
22.65                          0.984098970053098 139.225099876236 0.00584834926539666 -133.88862646385 0.00584834926539675 -133.88862646385 0.984097695879085 137.232855373736 
22.7                           0.984238261533992 138.307070888527 0.00561880437464005 -134.857540548151 0.00561880437464012 -134.85754054815 0.984241362368564 136.30923055207  
22.75                          0.984367777118309 137.399800999338 0.00540221662094588 -135.811792514017 0.00540221662094595 -135.811792514017 0.984374454094331 135.397279426552 
22.8                           0.98448804789347 136.502897601679 0.00519768716486189 -136.751853970957 0.00519768716486195 -136.751853970956 0.984497601759996 134.496551243753 
22.85                          0.984599569439754 135.615988571147 0.00500439018105023 -137.678171660668 0.00500439018105027 -137.678171660668 0.984611390630895 133.606620488461 
22.9                           0.98470280462922 134.738720916728 0.00482156610599609 -138.591169121301 0.00482156610599613 -138.5911691213  0.98471636436406 132.727085106817 
22.95                          0.984798186166086 133.870759537414 0.00464851558334248 -139.491248220853 0.00464851558334247 -139.491248220852 0.984813028464721 131.857564877758 
23                             0.984886118895999 133.011786075028 0.00448459402743384 -140.378790571846 0.00448459402743382 -140.378790571846 0.984901853410568 130.997699918476 
