! Touchstone file exported from HFSS 3D Layout Design 2026.1.0
!        File:           D:/Work/SIM/ADS_AUTO_SIM/projects/RFSOC_RF/TX_Fillter.aedt
!        Generated:      02:13:59 AM Aug 31, 2026
!        Design:         TX_BAND1_MCFIL_R27_CNN017
!        Project:        TX_Fillter
!
# GHz S MA R 50.000000
! Terminal data exported
! Port[1] = Port1
! Port[2] = Port2
14                             0.97352876999685 -163.460347100182 0.0036323001275304 -176.217093986231 0.0036323001275304 -176.217093986231 0.974396635104404 -160.421157529612 
14.05                          0.973047345082317 -164.349243381977 0.00370546580542348 -176.586718356711 0.00370546580542345 -176.58671835671 0.973923343997971 -161.278628817965 
14.1                           0.972550951768464 -165.24400738416 0.00378220373167396 -176.935173298035 0.00378220373167395 -176.935173298034 0.973435053860616 -162.141796273889 
14.15                          0.972038848446328 -166.144815135619 0.00386280085108985 -177.262049398364 0.0038628008510898 -177.262049398363 0.972931012697037 -163.010835811843 
14.2                           0.971510243598708 -167.051852155964 0.0039475726555014 -177.566983771954 0.00394757265550133 -177.566983771953 0.972410417343719 -163.885932814454 
14.25                          0.970964291579035 -167.965314090049 0.00403686634909426 -177.849668856048 0.00403686634909418 -177.849668856048 0.971872409088865 -164.767282770826 
14.3                           0.970400087958222 -168.885407393852 0.00413106438836417 -178.109862088373 0.00413106438836411 -178.109862088373 0.971316068838636 -165.655091967317 
14.35                          0.969816664387332 -169.812350076724 0.00423058844318837 -178.347396479553 0.00423058844318831 -178.347396479552 0.970740411774326 -166.549578235983 
14.4                           0.969212982916647 -170.746372505534 0.00433590383169137 -178.562192077661 0.00433590383169128 -178.562192077661 0.970144381437255 -167.450971766456 
14.45                          0.968587929703262 -171.687718276928 0.00444752448871685 -178.754268301064 0.00444752448871676 -178.754268301064 0.969526843169174 -168.359515987704 
14.5                           0.967940308029545 -172.636645164585 0.00456601853598306 -178.923757090452 0.00456601853598296 -178.923757090452 0.968886576825361 -169.275468526903 
14.55                          0.967268830543413 -173.593426149223 0.00469201453162208 -179.070916801636 0.00469201453162202 -179.070916801635 0.968222268665388 -170.199102253487 
14.6                           0.966572110618051 -174.558350539996 0.00482620848805741 -179.196146727481 0.00482620848805735 -179.196146727481 0.967532502312138 -171.130706417461 
14.65                          0.965848652713143 -175.531725196988 0.00496937176039729 -179.300002100946 0.0049693717603972 -179.300002100946 0.96681574865289 -172.070587892142 
14.7                           0.965096841601436 -176.513875865696 0.00512235992312591 -179.383209392589 0.00512235992312584 -179.383209392589 0.966070354536537 -173.019072532819 
14.75                          0.964314930302981 -177.505148635771 0.00528612277136622 -179.446681676619 0.00528612277136615 -179.446681676619 0.965294530097783 -173.976506664234 
14.8                           0.963501026544105 -178.5059115378  0.00546171560498582 -179.491533801498 0.00546171560498576 -179.491533801499 0.96448633451174 -174.943258711471 
14.85                          0.96265307752821 -179.516556293718 0.00565031198006925 -179.519097066874 0.00565031198006918 -179.519097066874 0.963643659949866 -175.919720990748 
14.9                           0.961768852770052 179.46249976158  0.00585321814370185 -179.530933081084 0.00585321814370181 -179.530933081085 0.962764213469649 -176.906311678775 
14.95                          0.960845924702943 178.430811567513 0.00607188940570452 -179.528846456066 0.00607188940570448 -179.528846456066 0.961845496524528 -177.903476981842 
15                             0.959881646717991 177.387904011474 0.00630794874626662 -179.514895992653 0.00630794874626658 -179.514895992654 0.960884781725721 -178.911693528686 
15.05                          0.958873128234293 176.333269363284 0.00656320801296325 -179.491404022615 0.00656320801296318 -179.491404022615 0.959879086421945 -179.931471014448 
15.1                           0.957817206326769 175.266364441461 0.0068396921263702 -179.460963607375 0.00683969212637019 -179.460963607375 0.95882514258408 179.036644873132 
15.15                          0.956710413351292 174.186607478302 0.00713966679278086 -179.426443349833 0.00713966679278084 -179.426443349833 0.957719362386666 177.992069209831 
15.2                           0.95554893990173 173.093374646282 0.00746567031826213 -179.390989656414 0.00746567031826211 -179.390989656414 0.956557798762986 176.934174232867 
15.25                          0.954328592306176 171.985996203051 0.00782055023397678 -179.358026391603 0.00782055023397681 -179.358026391603 0.955336100070775 175.862285334417 
15.3                           0.95304474371474 170.863752206419 0.00820750558264147 -179.331251995248 0.00820750558264146 -179.331251995249 0.954049457835425 174.775676597867 
15.35                          0.951692277642364 169.725867743933 0.00863013588546702 -179.314634280714 0.00863013588546703 -179.314634280714 0.952692546329584 173.673565816416 
15.4                           0.950265522598645 168.571507614034 0.00909249801446497 -179.312403294691 0.00909249801446497 -179.312403294692 0.951259452493   172.555108924994 
15.45                          0.948758176152345 167.399770387131 0.00959917244467913 -179.329042791153 0.00959917244467915 -179.329042791153 0.9497435943825  171.419393766649 
15.5                           0.947163216427482 166.209681765267 0.0101553406647809 -179.369281045603 0.0101553406647809 -179.369281045603 0.948137625954249 170.265433103491 
15.55                          0.945472798593927 165.000187148409 0.0107668758950715 -179.438081904667 0.0107668758950714 -179.438081904667 0.946433325499668 169.092156769886 
15.6                           0.943678133376321 163.770143303748 0.0114404497149219 -179.540637123894 0.011440449714922 -179.540637123894 0.94462146445833 167.898402851932 
15.65                          0.941769343933395 162.518309022172 0.0121836577565494 -179.682361189128 0.0121836577565495 -179.682361189128 0.942691652584482 166.682907762513 
15.7                           0.93973529661983 161.243334633556 0.0130051683030794 -179.868889941775 0.0130051683030794 -179.868889941776 0.940632154508488 165.444295065783 
15.75                          0.937563400089396 159.943750240775 0.0139148984662052 179.893915562925 0.0139148984662052 179.893915562925 0.938429671559017 164.181062889658 
15.8                           0.935239365873185 158.617952522744 0.0149242236495717 179.599958438382 0.0149242236495717 179.599958438382 0.936069081230159 162.891569751137 
15.85                          0.932746921896345 157.264189951922 0.0160462272736446 179.242886969677 0.0160462272736446 179.242886969677 0.933533124805264 161.574018609574 
15.9                           0.930067468286783 155.880546275527 0.0172959993009143 178.816065514361 0.0172959993009142 178.81606551436  0.93080203127808 160.226438961294 
15.95                          0.927179662161353 154.464922128742 0.0186909940212251 178.312533452186 0.0186909940212251 178.312533452186 0.927853062704792 158.846666801833 
16                             0.924058914701524 153.015014692577 0.0202514599092467 177.724950168288 0.0202514599092466 177.724950168288 0.924659962305752 157.432322320011 
16.05                          0.920676779571671 151.528295395072 0.0220009572286019 177.045523828752 0.0220009572286018 177.045523828752 0.921192281801196 155.980785267887 
16.1                           0.917000206376877 150.001985807586 0.023966982506048 176.265921404942 0.023966982506048 176.265921404942 0.917414558356934 154.48916809905  
16.15                          0.91299062616852 148.433032148304 0.0261817230895597 175.377157007966 0.0261817230895597 175.377157007966 0.91328530384463 152.954287227332 
16.2                           0.908602827754068 146.818079236169 0.0286829697353711 174.369455097661 0.0286829697353711 174.369455097661 0.908755759587115 151.372633196372 
16.25                          0.903783573590438 145.153445440396 0.031515220418457 173.232084534708 0.031515220418457 173.232084534708 0.903768358115845 149.740341275528 
16.3                           0.898469892382109 143.43510130205  0.0347310139651537 171.95315877616  0.0347310139651537 171.95315877616  0.898254819661623 148.053165181303 
16.35                          0.892586972691186 141.658656315948 0.0383925368492027 170.519396843351 0.0383925368492026 170.519396843351 0.892133795556368 146.306458541095 
16.4                           0.886045569436398 139.819361251377 0.042573548933778 168.915839163228 0.0425735489337779 168.915839163228 0.885307954909807 144.495171808372 
16.45                          0.878738826674607 137.912137988877 0.0473616709827592 167.125512282511 0.0473616709827593 167.125512282511 0.877660398425549 142.613877311774 
16.5                           0.870538422977082 135.931656150614 0.0528610627753503 165.129037298614 0.0528610627753503 165.129037298614 0.869050281756477 140.656843104685 
16.55                          0.861289974775367 133.872487354627 0.0591954857265627 162.904179566229 0.0591954857265627 162.90417956623  0.85930755592418 138.61818907385  
16.6                           0.850807716291414 131.729386107834 0.0665116710923063 160.425343422715 0.0665116710923063 160.425343422715 0.848226814051663 136.492179191827 
16.65                          0.838868663655439 129.497774702937 0.0749827761021031 157.663028015665 0.0749827761021032 157.663028015665 0.835560427906396 134.273736207882 
16.7                           0.825206857136699 127.174552933829 0.0848114614799515 154.583283167345 0.0848114614799515 154.583283167345 0.821011565166002 131.959315891543 
16.75                          0.809509014388835 124.759418034048 0.0962316998340099 151.147244269906 0.0962316998340098 151.147244269906 0.804228472353461 129.54835593933  
16.8                           0.791414264614754 122.256971009177 0.10950774192264 147.31089190441  0.10950774192264 147.31089190441  0.784802869453782 127.045629775029 
16.85                          0.770522909186154 119.679999344124 0.124927650316228 143.025286361848 0.124927650316228 143.025286361848 0.762277836036427 124.464993127893 
16.9                           0.746422713784799 117.054432034187 0.142787471976749 138.237677186002 0.142787471976748 138.237677186002 0.73617463515049 121.835194225533 
16.95                          0.718746058391155 114.42645560029  0.163360773249089 132.894072643159 0.163360773249088 132.894072643159 0.706053682199162 119.208538487227 
17                             0.687275946603323 111.87188240719  0.186847896085661 126.944012599397 0.18684789608566 126.944012599397 0.671631155714134 116.672982735362 
17.05                          0.652118496611602 109.506469545293 0.213302072095422 120.348257441805 0.213302072095421 120.348257441805 0.632974795807429 114.366993361626 
17.1                           0.613942755017171 107.492453625188 0.242538734672235 113.089578974703 0.242538734672234 113.089578974703 0.59078824471264 112.492787514528 
17.15                          0.574237499623852 106.030123543766 0.274052236936139 105.185447755065 0.274052236936138 105.185447755066 0.546741263781262 111.315149731188 
17.2                           0.53543814986322 105.315695583809 0.306985913649289 96.6991180451637 0.306985913649287 96.6991180451639 0.503691139215132 111.119308177265 
17.25                          0.500675362884337 105.449723134172 0.340208480759157 87.7434257547137 0.340208480759156 87.7434257547138 0.465488951830979 112.094019776434 
17.3                           0.472942597750102 106.317833509066 0.372516421222299 78.4718462372037 0.372516421222298 78.4718462372038 0.436033305284148 114.146562177075 
17.35                          0.453869053668107 107.537246799695 0.402907415364046 69.0559520317789 0.402907415364046 69.055952031779  0.417657450562457 116.781319898056 
17.4                           0.442851340011681 108.570706716525 0.430806402182988 59.6557423571322 0.430806402182988 59.6557423571322 0.409823296187997 119.244361091768 
17.45                          0.437270841501508 108.957021055674 0.45614067265267 50.3938409770086 0.456140672652669 50.3938409770085 0.409315494258747 120.892031117456 
17.5                           0.433610187723523 108.469031338812 0.479250197496891 41.3421625004236 0.479250197496891 41.3421625004235 0.411786177810429 121.444043810649 
17.55                          0.428587655270442 107.108279995301 0.500704176680293 32.5225744820895 0.500704176680292 32.5225744820894 0.413305471146804 120.953864926997 
17.6                           0.41973625985942 105.013191575253 0.521112702851728 23.9171841336558 0.521112702851728 23.9171841336556 0.411075235253961 119.649800742148 
17.65                          0.405474148015528 102.378387232952 0.540986558747921 15.4823206684039 0.54098655874792 15.4823206684037 0.403446875516913 117.813002671656 
17.7                           0.384952175869245 99.4196618287054 0.560655531769512 7.16195582208317 0.560655531769511 7.16195582208303 0.389681048127712 115.730708966327 
17.75                          0.357893880930896 96.3798620662049 0.580233284227216 -1.10130553516107 0.580233284227215 -1.1013055351612 0.369730604024125 113.701735125557 
17.8                           0.324524060205854 93.5683808141048 0.599614280072605 -9.35791944839044 0.599614280072604 -9.35791944839055 0.344150324491271 112.070694204048 
17.85                          0.285621308937455 91.4421513962127 0.618494766949559 -17.6454323814843 0.618494766949558 -17.6454323814844 0.314153511388227 111.278827093114 
17.9                           0.242738424321178 90.7623332802581 0.636416412387228 -25.9845579974477 0.636416412387228 -25.9845579974478 0.281813310415032 111.918098948538 
17.95                          0.198731777162208 92.8934893983206 0.652833201565213 -34.3773208099283 0.652833201565213 -34.3773208099284 0.250382486148561 114.736600593652 
18                             0.158955275090588 100.208138933736 0.667198256535848 -42.8075114666963 0.667198256535849 -42.8075114666964 0.224547414384441 120.424143637129 
18.05                          0.133105971788792 115.289440623625 0.679059006500255 -51.2436307206293 0.679059006500256 -51.2436307206294 0.209912696750669 128.902123213886 
18.1                           0.132572530110097 135.138838845211 0.688141305696367 -59.6440909480553 0.688141305696368 -59.6440909480554 0.210642534457545 138.482681948328 
18.15                          0.157175118124111 150.130363388601 0.694401528970381 -67.9638551189201 0.694401528970383 -67.9638551189202 0.226448159998635 146.57488928463  
18.2                           0.195335103045698 157.203807636255 0.698033453963942 -76.1612372230687 0.698033453963944 -76.1612372230689 0.25290003076558 151.678835698047 
18.25                          0.237459504508082 158.91133786728  0.699431013477494 -84.2035454372625 0.699431013477495 -84.2035454372627 0.284619944454306 153.838997252165 
18.3                           0.278476846597949 157.598857124565 0.699121393237317 -92.0706667556745 0.699121393237318 -92.0706667556747 0.317381505214975 153.746012108635 
18.35                          0.31587083713474 154.591142547528 0.697688934755825 -99.7563526918643 0.697688934755826 -99.7563526918645 0.348422415584448 152.089606600722 
18.4                           0.348407083994765 150.593285529215 0.695707583874472 -107.267556943288 0.695707583874472 -107.267556943288 0.37610538746061 149.380948031539 
18.45                          0.375538627533237 145.986587172493 0.693691795670877 -114.622492764373 0.693691795670877 -114.622492764373 0.399546116394365 145.963116807588 
18.5                           0.397108443775996 140.980095997648 0.692067716395486 -121.848101681552 0.692067716395485 -121.848101681552 0.418339403047797 142.057448585967 
18.55                          0.413182848352018 135.686511389322 0.691161133242689 -128.97746305995 0.69116113324269 -128.977463059949 0.43237568426698 137.803530267177 
18.6                           0.423953025273246 130.161746559487 0.691196648109291 -136.047455196932 0.691196648109292 -136.047455196932 0.441723239905767 133.287245028394 
18.65                          0.429678554030332 124.4265092699   0.692302847599199 -143.096790485534 0.6923028475992  -143.096790485534 0.446556674922307 128.559297942886 
18.7                           0.430659808232074 118.478431445346 0.694519672484018 -150.164424376738 0.69451967248402 -150.164424376738 0.447118201545111 123.647198347942 
18.75                          0.427231341796275 112.298851260394 0.697805838099987 -157.288279729535 0.69780583809999 -157.288279729534 0.443702288178566 118.562836196699 
18.8                           0.419770944978268 105.856288451592 0.702045562446856 -164.504219453323 0.702045562446859 -164.504219453323 0.436656798446093 113.306953560672 
18.85                          0.408720454309977 99.1076499977481 0.70705485170005 -171.845223980258 0.707054851700054 -171.845223980258 0.426395216456419 107.871180575895 
18.9                           0.39461509251537 91.9977386444901 0.712588122322068 -179.34077110512 0.712588122322072 -179.34077110512 0.413415196469304 102.237849884573 
18.95                          0.378118308310067 84.4575623292921 0.718345966991504 172.983539733552 0.718345966991508 172.983539733552 0.39831877507703 96.37750680148   
19                             0.360058951141913 76.4023383212029 0.723984356493873 165.106043975022 0.723984356493875 165.106043975022 0.381829614500506 90.243958440755  
19.05                          0.341467151961906 67.7312081562128 0.729124528416703 157.008672064024 0.729124528416703 157.008672064024 0.364803322002196 83.767048506411  
19.1                           0.323603871995451 58.3328009698193 0.733361432988479 148.676183340336 0.733361432988478 148.676183340336 0.348229022838902 76.8444532480231 
19.15                          0.307974914907972 48.1035124161048 0.736267347781433 140.095055913309 0.73626734778143 140.09505591331  0.333224253477051 69.3360624130256 
19.2                           0.296310792602291 36.9858682311168 0.737386893586702 131.252293453612 0.737386893586698 131.252293453613 0.321029327211969 61.067894956451  
19.25                          0.290480872297181 25.0253970649807 0.736221128222727 122.134635984227 0.736221128222721 122.134635984228 0.313006376190809 51.8553764704802 
19.3                           0.292309677599191 12.4195546029816 0.732202561574035 112.728888101556 0.732202561574029 112.728888101557 0.310633746292646 41.5534832939765 
19.35                          0.303302833787955 -0.492540308444847 0.724670307232376 103.024219208648 0.72467030723237 103.024219208649 0.315455219039461 30.1269115075633 
19.4                           0.324361910456014 -13.3270510003719 0.712864513583521 93.0172036302458 0.712864513583517 93.0172036302465 0.328917323364515 17.7074199736711 
19.45                          0.355589031351376 -25.7852364099667 0.695968407194613 82.7198405531499 0.695968407194612 82.7198405531507 0.352057162455297 4.59116422289669 
19.5                           0.396208615311507 -37.7205901731444 0.67322670704504 72.1696038134501 0.673226707045041 72.1696038134508 0.385109169398546 -8.83889474395861 
19.55                          0.444573284600882 -49.1110872223014 0.644148430909839 61.4387529263345 0.644148430909841 61.4387529263349 0.427203955088273 -22.2169678193285 
19.6                           0.498264496053583 -59.9850446940417 0.608752919340269 50.6384322938691 0.60875291934027 50.6384322938692 0.47632930150398 -35.2578129397575 
19.65                          0.554353722640797 -70.3602429437778 0.567758192211074 39.9131040775945 0.567758192211073 39.9131040775943 0.529616152693094 -47.761957866631 
19.7                           0.609837632647089 -80.2209593461335 0.522592299214841 29.4240244414913 0.522592299214838 29.4240244414908 0.583876478177085 -59.5933124584354 
19.75                          0.662130895438349 -89.5263691600961 0.475176722736144 19.3259096260562 0.475176722736137 19.3259096260556 0.636208274300626 -70.660476409788 
19.8                           0.709429005824766 -98.2320069995833 0.427556669628612 9.74493357522194 0.427556669628602 9.74493357522132 0.684451243099062 -80.9099497953557 
19.85                          0.75081953397424 -106.308565949397 0.381535617222748 0.765391970898535 0.381535617222737 0.765391970898112 0.727362813091679 -90.3246523870621 
19.9                           0.78616002239273 -113.750838265902 0.338445212300617 -7.57250389192319 0.338445212300605 -7.57250389192334 0.764531536168794 -98.9206168503362 
19.95                          0.815835259988569 -120.577264111559 0.299086002135609 -15.2662096191015 0.299086002135597 -15.2662096191013 0.796144991205698 -106.739909294757 
20                             0.840509250398971 -126.824111032179 0.2637940149164  -22.3404124885406 0.263794014916389 -22.34041248854  0.822735911756258 -113.841558059033 
20.05                          0.86093635582458 -132.538246467906 0.232563429885165 -28.8364885387706 0.232563429885155 -28.8364885387696 0.844979823755712 -120.292939577155 
20.1                           0.877845281303462 -137.770872132571 0.205171715771825 -34.8039614071865 0.205171715771816 -34.8039614071852 0.863564249060162 -126.163091371603 
20.15                          0.891882099643165 -142.573061291535 0.181280630029386 -40.2945253923919 0.181280630029378 -40.2945253923903 0.879119010672386 -131.518294123201 
20.2                           0.903591615108023 -146.993038402402 0.160506777820784 -45.3583405199048 0.160506777820778 -45.3583405199029 0.892187992949089 -136.419597255302 
20.25                          0.913419659210525 -151.074792124676 0.142465645084477 -50.0420179419487 0.142465645084473 -50.0420179419467 0.903224781932095 -140.921744024839 
20.3                           0.9217247530721  -154.857576906274 0.126796116348461 -54.3877295399079 0.126796116348457 -54.3877295399059 0.912599999233281 -145.072986240416 
20.35                          0.928792549821155 -158.375945653133 0.113172081608632 -58.4330018651074 0.113172081608629 -58.4330018651054 0.920613077932326 -148.915402644637 
20.4                           0.934849797665713 -161.660065092453 0.101306176467905 -62.210891282335 0.101306176467903 -62.2108912823331 0.927504671961246 -152.485462688289 
20.45                          0.940076492923147 -164.736156784256 0.0909491003915785 -65.7503473689064 0.0909491003915773 -65.7503473689047 0.93346796638811 -155.814677762493 
20.5                           0.94461589095186 -167.626971850151 0.0818866976104044 -69.0766493039665 0.0818866976104036 -69.076649303965 0.938658282367633 -158.930251056465 
20.55                          0.948582499420448 -170.352249828647 0.0739361063729239 -72.2118505930185 0.0739361063729235 -72.2118505930172 0.943200922534217 -161.855680991122 
20.6                           0.952068347598809 -172.929137877925 0.0669417125309196 -75.1751986821032 0.0669417125309193 -75.1751986821022 0.947197437946939 -164.611299193323 
20.65                          0.955147855866688 -175.372561432504 0.0607712925729598 -77.9835144075692 0.0607712925729597 -77.9835144075684 0.950730571807044 -167.214738507967 
20.7                           0.957881601018429 -177.695545501739 0.0553125241818536 -80.6515265783784 0.0553125241818535 -80.6515265783779 0.953868134414855 -169.681334065819 
20.75                          0.960319224855431 -179.909489828949 0.0504699254365172 -83.1921624836273 0.0504699254365172 -83.1921624836273 0.956666033135654 -172.024463857719 
20.8                           0.962501684115924 177.975597153854 0.0461622212592542 -85.616797776619 0.0461622212592543 -85.6167977766193 0.959170642341228 -174.255836424422 
20.85                          0.964462996180294 175.950900187389 0.0423201050683132 -87.9354702436671 0.0423201050683131 -87.9354702436677 0.961420661063759 -176.38573323704 
20.9                           0.966231599195151 174.008629667259 0.0388843510140652 -90.1570621569845 0.0388843510140652 -90.1570621569853 0.963448574043961 -178.423212739024 
20.95                          0.967831417010558 172.141880039373 0.0358042294025218 -92.2894556647802 0.0358042294025218 -92.2894556647812 0.965281805731488 179.623717806888 
21                             0.969282697531739 170.344509992041 0.0330361801277483 -94.3396652306923 0.0330361801277481 -94.3396652306936 0.966943636153476 177.747957390877 
21.05                          0.970602676494736 168.611040921632 0.0305427034076301 -96.3139506318939 0.0305427034076298 -96.3139506318953 0.968453931548549 175.943188788688 
21.1                           0.971806106135689 166.936570696771 0.0282914323399681 -98.2179135298261 0.0282914323399679 -98.2179135298277 0.96982973036239 174.203774824109 
21.15                          0.972905678779272 165.31670022979  0.0262543569804049 -100.056580172514 0.0262543569804046 -100.056580172516 0.971085715807266 172.524670258874 
21.2                           0.97391236826509 163.747470779502 0.0244071744123855 -101.834472385664 0.0244071744123852 -101.834472385666 0.972234599031771 170.901346738791 
21.25                          0.974835706778096 162.225310260046 0.0227287434822586 -103.555668663417 0.0227287434822582 -103.555668663419 0.973287431496608 169.329728668606 
21.3                           0.975684010608285 160.746987123525 0.0212006264814718 -105.223856875573 0.0212006264814714 -105.223856875575 0.974253860995382 167.80613825565  
21.35                          0.976464565304982 159.309570627199 0.0198067031052268 -106.842379860838 0.0198067031052264 -106.842379860839 0.975142342581385 166.327248265481 
21.4                           0.977183778364957 157.910396496886 0.018532844562326 -108.414274969014 0.0185328445623256 -108.414274969015 0.975960313223989 164.890041281991 
21.45                          0.977847305817837 156.547037163933 0.0173666378218152 -109.942308442972 0.0173666378218149 -109.942308442974 0.976714337141882 163.491774469254 
21.5                           0.978460157710438 155.217275889634 0.0162971517245827 -111.429005388269 0.0162971517245824 -111.429005388271 0.977410227309909 162.129949000636 
21.55                          0.979026786442144 153.919084203603 0.0153147381226111 -112.876675959515 0.0153147381226108 -112.876675959517 0.978053147510109 160.802283458984 
21.6                           0.979551161090737 152.6506021755   0.0144108623878261 -114.287438293982 0.0144108623878258 -114.287438293983 0.978647698419201 159.506690625607 
21.65                          0.98003683023549 151.410121116291 0.0135779586013834 -115.663238640923 0.0135779586013832 -115.663238640924 0.979197990536514 158.241257169653 
21.7                           0.980486975289534 150.196068368848 0.0128093055304881 -117.005869066826 0.012809305530488 -117.005869066826 0.979707706214523 157.004225827129 
21.75                          0.980904455964473 149.006993900441 0.012098920154686 -118.316983059837 0.0120989201546859 -118.316983059837 0.980180152625588 155.793979723104 
21.8                           0.981291849182867 147.841558453585 0.0114414660427441 -119.598109309035 0.0114414660427441 -119.598109309035 0.980618307157924 154.609028544028 
21.85                          0.981651482510156 146.698523048341 0.0108321743258184 -120.850663894286 0.0108321743258185 -120.850663894286 0.981024856461964 153.4479963116   
21.9                           0.98198546298287 145.576739659755 0.0102667753798062 -122.075961088907 0.0102667753798063 -122.075961088906 0.981402230150254 152.309610546705 
21.95                          0.982295702053912 144.475142919817 0.00974143963362019 -123.275222949113 0.00974143963362036 -123.275222949113 0.98175262997837 151.192692643057 
22                             0.98258393724996 143.39274271488  0.00925272617203761 -124.449587840316 0.00925272617203782 -124.449587840316 0.982078055192298 150.096149296248 
22.05                          0.982851751034361 142.328617567689 0.00879753801106925 -125.600118030102 0.00879753801106952 -125.600118030101 0.982380324612234 149.018964855885 
22.1                           0.983100587286218 141.281908708537 0.00837308309804312 -126.727806460481 0.00837308309804339 -126.727806460481 0.98266109592862 147.96019448703  
22.15                          0.983331765738956 140.251814753095 0.00797684023398463 -127.833582797301 0.00797684023398497 -127.833582797301 0.98292188260904 146.918958042829 
22.2                           0.983546494666355 139.237586915544 0.00760652923745012 -128.91831884211 0.0076065292374505 -128.918318842109 0.983164068751206 145.894434563567 
22.25                          0.983745882058566 138.238524695063 0.00726008477084844 -129.982833380959 0.00726008477084884 -129.982833380958 0.98338892216484 144.885857328666 
22.3                           0.983930945493055 137.253971981802 0.00693563333585537 -131.0278965353  0.0069356333358558 -131.027896535299 0.983597605921894 143.892509397845 
22.35                          0.984102620874272 136.283313535344 0.00663147301654343 -132.054233672096 0.00663147301654386 -132.054233672095 0.983791188578481 142.913719585887 
22.4                           0.984261770189872 135.325971794619 0.00634605560960276 -133.062528923264 0.00634605560960321 -133.062528923263 0.983970653241726 141.948858822578 
22.45                          0.984409188409709 134.38140398329  0.00607797083238204 -134.053428358521 0.00607797083238253 -134.05342835852 0.98413690562962 140.997336855417 
22.5                           0.984545609635622 133.449099479079 0.0058259323429826 -135.027542850418 0.00582593234298307 -135.027542850417 0.984290781250707 140.058599258003 
22.55                          0.984671712594776 132.528577419245 0.00558876534356736 -135.98545066572 0.00558876534356779 -135.985450665719 0.984433051812653 139.132124711462 
22.6                           0.984788125556449 131.619384517774 0.00536539556945945 -136.927699813273 0.00536539556945985 -136.927699813273 0.984564430953646 138.21742253024  
22.65                          0.984895430741227 130.721093072666 0.00515483949338043 -137.854810174952 0.00515483949338081 -137.854810174952 0.984685579377783 137.31403040697  
22.7                           0.984994168282333 129.833299144206 0.00495619559704429 -138.767275443169 0.00495619559704463 -138.767275443169 0.984797109464756 136.421512354053 
22.75                          0.985084839790914 128.955620887278 0.00476863658189103 -139.665564885714 0.00476863658189135 -139.665564885714 0.984899589414882 135.539456822197 
22.8                           0.985167911570403 128.087697022684 0.0045914024075198 -140.550124956273 0.00459140240752006 -140.550124956274 0.984993546982582 134.667474978361 
22.85                          0.985243817519267 127.229185434072 0.00442379406079084 -141.421380766875 0.00442379406079105 -141.421380766875 0.985079472844672 133.805199127541 
22.9                           0.985312961756569 126.379761878552 0.00426516797096702 -142.279737436628 0.00426516797096717 -142.279737436628 0.985157823643948 132.952281264547 
22.95                          0.985375721000434 125.539118800361 0.00411493099695529 -143.12558132949 0.00411493099695537 -143.125581329491 0.985229024743578 132.1083917434   
23                             0.985432446725917 124.706964238043 0.00397253592194152 -143.959281192343 0.00397253592194154 -143.959281192344 0.98529347272344 131.273218053349 
