! Touchstone file exported from HFSS 3D Layout Design 2026.1.0
!        File:           D:/Work/SIM/ADS_AUTO_SIM/projects/RFSOC_RF/TX_Fillter.aedt
!        Generated:      02:27:50 AM Aug 31, 2026
!        Design:         TX_BAND1_MCFIL_R30_CNN040
!        Project:        TX_Fillter
!
# GHz S MA R 50.000000
! Terminal data exported
! Port[1] = Port1
! Port[2] = Port2
14                             0.973085334406495 -163.142654524121 0.00368260487547461 -176.780362875436 0.00368260487547461 -176.780362875436 0.97438728655097 -161.806933629555 
14.05                          0.972593679592828 -164.043093910851 0.00375453778224166 -177.19280890732 0.00375453778224164 -177.19280890732 0.973930555997617 -162.673379305685 
14.1                           0.972086885058978 -164.949646624275 0.00382985577029905 -177.585413708775 0.00382985577029906 -177.585413708775 0.973459847741501 -163.545405179255 
14.15                          0.971564213018353 -165.862493048684 0.0039088226561847 -177.957767838306 0.00390882265618471 -177.957767838306 0.97297448293695 -164.423176399771 
14.2                           0.971024876908736 -166.781823136741 0.00399172786153692 -178.309499762698 0.00399172786153694 -178.309499762698 0.972473738119896 -165.306866780911 
14.25                          0.970468037346137 -167.707837040015 0.00407888919634621 -178.640283321486 0.00407888919634623 -178.640283321486 0.971956841526264 -166.196659365594 
14.3                           0.969892797673114 -168.640745789785 0.00417065596633534 -178.949845973177 0.00417065596633539 -178.949845973176 0.971422969043046 -167.092747035755 
14.35                          0.969298199053728 -169.580772032895 0.00426741244405212 -179.237977847507 0.00426741244405214 -179.237977847507 0.97087123974886 -167.995333171065 
14.4                           0.96868321506072 -170.528150828019 0.00436958174839938 -179.504541616004 0.0043695817483994 -179.504541616004 0.970300710994944 -168.90463236131 
14.45                          0.968046745692979 -171.483130508284 0.00447763018322532 -179.749483177866 0.00447763018322534 -179.749483177865 0.969710372970754 -169.820871177679 
14.5                           0.967387610752674 -172.445973616871 0.00459207209239138 -179.972843139559 0.00459207209239142 -179.972843139559 0.96909914269051 -170.744289008786 
14.55                          0.966704542501261 -173.416957923011 0.00471347529659612 179.825230955787 0.00471347529659617 179.825230955787 0.968465857327949 -171.675138967958 
14.6                           0.965996177501866 -174.396377526648 0.00484246718636516 179.644471718916 0.00484246718636521 179.644471718915 0.967809266815966 -172.613688879043 
14.65                          0.965261047541806 -175.384544061036 0.00497974155627377 179.484478423769 0.00497974155627381 179.484478423768 0.967128025615582 -173.560222348895 
14.7                           0.964497569513012 -176.381788003677 0.00512606627795864 179.344703066397 0.00512606627795868 179.344703066397 0.96642068354425 -174.515039935639 
14.75                          0.96370403410939 -177.388460107269 0.00528229192417335 179.224436138063 0.0052822919241734 179.224436138063 0.965685675536751 -175.478460422951 
14.8                           0.962878593178105 -178.404932963797 0.00544936147351143 179.122792311635 0.00544936147351146 179.122792311635 0.964921310192205 -176.450822211837 
14.85                          0.962019245535916 -179.431602716569 0.00562832124601643 179.038696273844 0.00562832124601645 179.038696273844 0.964125756937477 -177.43248484284 
14.9                           0.961123821031065 179.531109063098 0.00582033324440325 178.970868966273 0.00582033324440327 178.970868966273 0.96329703160992 -178.423830663236 
14.95                          0.960189962595059 178.482753315697 0.00602668910484598 178.917814522679 0.00602668910484599 178.917814522679 0.96243298022996 -179.425266655658 
15                             0.959215105985735 177.422851228479 0.00624882589624496 178.877808206427 0.00624882589624498 178.877808206427 0.961531260695644 179.562773553291 
15.05                          0.95819645687183 176.350891741347 0.00648834404876378 178.848885656593 0.00648834404876377 178.848885656592 0.960589322085479 178.539827483437 
15.1                           0.957130964848292 175.266328796222 0.00674702774267719 178.828833741493 0.00674702774267718 178.828833741493 0.959604381201377 177.50540136663  
15.15                          0.956015293898425 174.168578298684 0.00702686814894024 178.815183291376 0.00702686814894025 178.815183291376 0.958573395918172 176.458967460576 
15.2                           0.954845788731206 173.057014756359 0.00733008998548527 178.805203935406 0.00733008998548525 178.805203935406 0.957493034827733 175.399961080253 
15.25                          0.953618436316268 171.930967553609 0.00765918194063612 178.795901200557 0.00765918194063611 178.795901200558 0.956359642571257 174.327777312093 
15.3                           0.9523288218112  170.789716816399 0.00801693162029801 178.784015941131 0.008016931620298 178.784015941131 0.955169200139149 173.241767371352 
15.35                          0.95097207792066 169.632488814708 0.00840646580251589 178.766026058421 0.00840646580251587 178.766026058421 0.953917279279491 172.141234557608 
15.4                           0.949542826538053 168.458450842407 0.00883129693622477 178.738150342845 0.00883129693622474 178.738150342845 0.952598989987797 171.025429757154 
15.45                          0.948035111290044 167.266705505996 0.00929537700621724 178.696354129433 0.00929537700621724 178.696354129432 0.951208919845232 169.89354643396  
15.5                           0.946442319321791 166.056284343916 0.00980316011053698 178.63635630682  0.00980316011053698 178.63635630682  0.949741063720901 168.74471504296  
15.55                          0.944757090313655 164.826140687152 0.0103596753683299 178.553637065552 0.0103596753683299 178.553637065552 0.948188742044584 167.577996790464 
15.6                           0.942971210291881 163.575141659517 0.0109706121063896 178.443445619441 0.0109706121063896 178.443445619441 0.946544505475075 166.392376656568 
15.65                          0.941075487265724 162.302059202256 0.0116424196745269 178.300806989457 0.0116424196745269 178.300806989458 0.944800023317619 165.186755583605 
15.7                           0.939059605065235 161.005559992609 0.0123824247299958 178.120526807452 0.0123824247299958 178.120526807453 0.942945952458536 163.959941723018 
15.75                          0.93691195093385 159.684194109914 0.013198969429939 177.897192979329 0.013198969429939 177.897192979329 0.94097178285616 162.710640620997 
15.8                           0.934619411405119 158.336382286311 0.0141015747033613 177.625172944127 0.0141015747033612 177.625172944127 0.938865654716888 161.437444211377 
15.85                          0.932167129708685 156.960401563164 0.0151011336713339 177.298605173901 0.0151011336713339 177.298605173901 0.936614141345099 160.138818473823 
15.9                           0.929538216337385 155.554369160801 0.0162101413833971 176.911383473437 0.0162101413833971 176.911383473437 0.934201990224695 158.813089608105 
15.95                          0.926713402376767 154.116224361025 0.0174429683842128 176.457132549782 0.0174429683842127 176.457132549782 0.931611813090444 157.45842857429  
16                             0.923670622639236 152.643708204161 0.0188161872698473 175.929173217894 0.0188161872698473 175.929173217894 0.928823713481684 156.072833858946 
16.05                          0.920384512418638 151.134340823055 0.0203489633969543 175.320475476922 0.0203489633969543 175.320475476923 0.925814837418105 154.654112356572 
16.1                           0.916825797617337 149.585396288289 0.0220635233340709 174.623597517121 0.0220635233340709 174.623597517121 0.922558829249631 153.199858315756 
16.15                          0.912960552893772 147.99387494215  0.0239857175531185 173.830608485726 0.0239857175531184 173.830608485726 0.919025170234814 151.707430409998 
16.2                           0.908749296102745 146.35647338575  0.0261456972955088 172.932992538769 0.0261456972955088 172.932992538769 0.915178371798173 150.173927183784 
16.25                          0.904145879412017 144.669552605022 0.0285787295124212 171.921531326993 0.0285787295124213 171.921531326993 0.910976988505832 148.596161442262 
16.3                           0.899096127870011 142.929105257608 0.031326178182392 170.786161609642 0.031326178182392 170.786161609642 0.906372407420108 146.970634671236 
16.35                          0.893536164796145 141.130724021744 0.034436684881354 169.515804179184 0.034436684881354 169.515804179184 0.901307360618189 145.293513408826 
16.4                           0.887390350422424 139.26957433277  0.0379675856179213 168.098159764054 0.0379675856179213 168.098159764054 0.89571409657567 143.560610822277 
16.45                          0.880568746700315 137.340377125504 0.0419866034498353 166.519467161309 0.0419866034498354 166.519467161309 0.889512134782247 141.767378858381 
16.5                           0.872964009505483 135.337410874277 0.0465738550201876 164.76421873925  0.0465738550201875 164.764218739249 0.882605518673654 139.908919681556 
16.55                          0.864447604802998 133.254548092696 0.0518241998563895 162.814829007945 0.0518241998563895 162.814829007945 0.874879479594888 137.980030390543 
16.6                           0.85486525805253 131.085350813887 0.0578499370195103 160.651253825997 0.0578499370195102 160.651253825997 0.866196438690014 135.975303302003 
16.65                          0.844031596097579 128.823264449515 0.0647838025359125 158.250562092233 0.0647838025359124 158.250562092233 0.856391322629829 133.88931707552  
16.7                           0.831724064717445 126.461972965373 0.0727821233515773 155.586470286634 0.0727821233515771 155.586470286634 0.845266286488144 131.716974124839 
16.75                          0.817676468635035 123.996015246759 0.0820278083009701 152.628865915412 0.0820278083009699 152.628865915412 0.832585182391825 129.45407068095  
16.8                           0.801572997260718 121.421819635472 0.092732557622862 149.343373307609 0.0927325576228618 149.343373307609 0.818068587283013 127.098232215195 
16.85                          0.783044553815117 118.739399665281 0.105137187976278 145.691060793472 0.105137187976278 145.691060793472 0.801391070597562 124.650413680834 
16.9                           0.761670875601378 115.955077773798 0.119508233289044 141.628460216831 0.119508233289044 141.628460216831 0.782183881824658 122.117253311192 
16.95                          0.736994674026519 113.08576643841  0.136127965212782 137.10817537544  0.136127965212781 137.10817537544  0.760048656141133 119.514670573808 
17                             0.708558121867551 110.165509593294 0.155273803293666 132.080494393669 0.155273803293666 132.080494393669 0.734591250153305 116.873168447553 
17.05                          0.675977216188292 107.255058849092 0.177182258462253 126.4965653478   0.177182258462252 126.4965653478   0.705489009465552 114.245207607373 
17.1                           0.63907390091655 104.454908715137 0.201993313281135 120.313760099493 0.201993313281135 120.313760099493 0.672607503800097 111.71445726437  
17.15                          0.598083583417846 101.92067477545  0.229675711953836 113.503657748321 0.229675711953836 113.50365774832  0.63617828993496 109.405083081372 
17.2                           0.553934691089842 99.8754162171999 0.259944570038076 106.062352213832 0.259944570038076 106.062352213832 0.597026473607927 107.485593919432 
17.25                          0.50853892200786 98.6042193271087 0.292199963447764 98.0213149851017 0.292199963447764 98.0213149851017 0.556782080136595 106.155672780799 
17.3                           0.464923295588908 98.4020596078067 0.325530585422288 89.455089174194  0.325530585422288 89.455089174194  0.517923195251925 105.598813350027 
17.35                          0.426911946922238 99.4409661899219 0.358821513869525 80.4808823188923 0.358821513869524 80.4808823188922 0.483435405350627 105.890634542153 
17.4                           0.398090232520087 101.573552558618 0.390963113817736 71.2465632096305 0.390963113817736 71.2465632096304 0.455969788786996 106.892238455331 
17.45                          0.380251593168467 104.227803676078 0.421092929212883 61.9083707905413 0.421092929212883 61.9083707905412 0.436760174970335 108.218689292066 
17.5                           0.372340856361692 106.597746198603 0.448765992462069 52.6053132400639 0.448765992462068 52.6053132400638 0.424984946136691 109.361413789198 
17.55                          0.370907909750069 108.039383523211 0.4739830140516  43.439309517666  0.473983014051599 43.439309517666  0.418099809854933 109.899780196763 
17.6                           0.371688227495541 108.303186804495 0.497086004880415 34.4667663164772 0.497086004880414 34.4667663164772 0.412867643472569 109.635147629356 
17.65                          0.37099732759191 107.473443023369 0.518589793231426 25.7014369758326 0.518589793231426 25.7014369758327 0.406331651881548 108.581133601003 
17.7                           0.366291139673777 105.799049269385 0.539020701785224 17.1243986094088 0.539020701785223 17.1243986094089 0.396299356558558 106.88212779108  
17.75                          0.356121154947871 103.576041182883 0.558800750302017 8.69639384760395 0.558800750302017 8.69639384760402 0.381404299068889 104.743414934538 
17.8                           0.339894804629167 101.108749230526 0.578182994132225 0.369332170704131 0.578182994132225 0.369332170704207 0.360987263672451 102.402377427029 
17.85                          0.317677305665866 98.7242709524133 0.597227827718474 -7.90441682939375 0.597227827718474 -7.9044168293937 0.334975384311225 100.137473042968 
17.9                           0.290116304946848 96.8208063296024 0.615808775803422 -16.1651382692338 0.615808775803422 -16.1651382692338 0.30384187017662 98.3090205471117 
17.95                          0.258511248137125 95.9462487817668 0.633640874597757 -24.4410749791279 0.633640874597757 -24.4410749791279 0.268682564029049 97.435636742821  
18                             0.225054118904929 96.9049767371665 0.650328633399504 -32.7457325328268 0.650328633399504 -32.7457325328269 0.231453114790391 98.3173258417383 
18.05                          0.193281299551298 100.827657118822 0.665430736478298 -41.0771645604839 0.665430736478298 -41.0771645604839 0.195452599634816 102.17839026161  
18.1                           0.16857955279052 108.853086060438 0.678534990292366 -49.4192794744053 0.678534990292366 -49.4192794744054 0.166054962643804 110.532032649711 
18.15                          0.157542603122653 120.659821791382 0.689331774209136 -57.7450610587201 0.689331774209135 -57.7450610587201 0.150670279125437 123.720609223906 
18.2                           0.1640638141048  132.884567366691 0.697671080981741 -66.0212650273492 0.69767108098174 -66.0212650273492 0.154802421196919 138.297944148498 
18.25                          0.185485123833517 141.646370028656 0.703590282519604 -74.2137978828583 0.703590282519603 -74.2137978828583 0.176258159484157 149.229865400189 
18.3                           0.215409481614066 145.974230993401 0.707307337642252 -82.2928041301303 0.707307337642251 -82.2928041301303 0.207671048627983 155.06002710224  
18.35                          0.24825218717059 146.82703425851  0.709184065220621 -90.236602750549 0.70918406522062 -90.236602750549 0.242593985116913 156.982700381443 
18.4                           0.280415452639029 145.348552218672 0.709671636684313 -98.0339821235205 0.709671636684313 -98.0339821235205 0.277053623796166 156.404015816457 
18.45                          0.309802776246542 142.353708914311 0.709252582571652 -105.684815255141 0.709252582571652 -105.684815255141 0.308837220696947 154.285199110046 
18.5                           0.335256566909238 138.353557430875 0.708390643857508 -113.199313500941 0.708390643857508 -113.199313500941 0.336770508624779 151.212292043855 
18.55                          0.356194507624494 133.656418521635 0.707494347482457 -120.596403334043 0.707494347482457 -120.596403334043 0.360289898046369 147.536711497194 
18.6                           0.372391263742754 128.443725895514 0.70689505729351 -127.901699390752 0.70689505729351 -127.901699390752 0.379200805570842 143.470573189277 
18.65                          0.383846352623386 122.81716980238  0.706837008318402 -135.145430896925 0.706837008318402 -135.145430896925 0.393536191640378 139.142651687654 
18.7                           0.390705013188448 116.826908417756 0.70747564696146 -142.360535125161 0.70747564696146 -142.360535125161 0.403472194145538 134.630648974639 
18.75                          0.393214471598783 110.488445470784 0.708880865620809 -149.581011566063 0.708880865620809 -149.581011566063 0.409279440693482 129.979959576921 
18.8                           0.391705421878866 103.792794652895 0.711042683817649 -156.840554248844 0.711042683817648 -156.840554248844 0.411298011252429 125.21451730896  
18.85                          0.386592052197066 96.712664246048  0.713878018033864 -164.171446583132 0.713878018033864 -164.171446583132 0.409928077303099 120.342634490042 
18.9                           0.378385604391543 89.2064223467912 0.71723806604688 -171.603702890581 0.71723806604688 -171.603702890582 0.405630041886327 115.359281379467 
18.95                          0.367717003814076 81.2212665134119 0.72091634450807 -179.164460022702 0.720916344508069 -179.164460022702 0.398928814679193 110.245469231522 
19                             0.355363702945799 72.69718203725   0.724657489034835 173.122353092114 0.724657489034834 173.122353092114 0.390417372918866 104.965052598162 
19.05                          0.342274434907997 63.5738329909566 0.72816654506146 165.236025364112 0.72816654506146 165.236025364112 0.380755646531662 99.459309838625  
19.1                           0.329582866373591 53.8031711467916 0.731117722745814 157.158720605355 0.731117722745814 157.158720605355 0.370662790648874 93.6401594492846 
19.15                          0.318597376944961 43.3702531796011 0.733160678693684 148.874798694589 0.733160678693684 148.87479869459  0.360904697373586 87.3838925303557 
19.2                           0.310751390316731 32.3214243212721 0.7339217215723  140.369914471178 0.733921721572301 140.369914471178 0.352283913294205 80.5287667554045 
19.25                          0.30750257762936 20.7906519744689 0.732997486059007 131.630149857691 0.73299748605901 131.630149857691 0.345643709307484 72.8813082051235 
19.3                           0.310187484335264 9.00434299608438 0.729940226193942 122.641603991193 0.729940226193945 122.641603991193 0.341896694027834 64.2368552572897 
19.35                          0.319867914961605 -2.75469879078141 0.724237506598957 113.391024240417 0.72423750659896 113.391024240417 0.342073967671161 54.4183500160753 
19.4                           0.337219775189337 -14.2199981770048 0.715294918956645 103.868139636891 0.715294918956649 103.868139636891 0.347359935223783 43.331480289873  
19.45                          0.362484137761691 -25.2140745222108 0.70243778798645 94.070245470058  0.702437787986454 94.0702454700579 0.359042266890806 31.0220371830621 
19.5                           0.395445055503269 -35.6791232737854 0.684953872578919 84.0091244246587 0.684953872578921 84.0091244246586 0.378303148184196 17.7065695906611 
19.55                          0.43538545985956 -45.6544820648372 0.662197693877793 73.719429197329  0.662197693877795 73.7194291973289 0.405850809924248 3.74684194749072 
19.6                           0.481027097021031 -55.2230541891541 0.633759710912062 63.26625792941   0.633759710912062 63.26625792941   0.441523871145604 -10.4309239762337 
19.65                          0.530530124021478 -64.4581607005975 0.599666113942859 52.7484075091136 0.599666113942859 52.7484075091137 0.484083635251492 -24.4291983518336 
19.7                           0.581639777388818 -73.3916908081505 0.560531484055435 42.2938530342269 0.560531484055436 42.2938530342272 0.531341049251211 -37.9368491082963 
19.75                          0.631996103536359 -82.0088198975401 0.517573385715922 32.0463698395983 0.517573385715923 32.0463698395986 0.580589436478425 -50.7404186525986 
19.8                           0.679514730226091 -90.2626380856085 0.472446856048934 22.146296123199  0.472446856048937 22.1462961231995 0.629163791987952 -62.709730712465 
19.85                          0.722689804117387 -98.0966174358089 0.426949253416584 12.7116433568758 0.426949253416587 12.7116433568764 0.674909632440985 -73.7793698899282 
19.9                           0.760713650307691 -105.46400164022 0.382713043260241 3.8255694477695  0.382713043260245 3.8255694477701  0.71642192865963 -83.9338523792178 
19.95                          0.793410519238202 -112.338508690394 0.340994330626539 -4.46718671699686 0.340994330626544 -4.46718671699638 0.753043344715412 -93.1955848365546 
20                             0.821060485438188 -118.716316750071 0.302597590252994 -12.1562697926429 0.302597590252999 -12.1562697926426 0.784706202062513 -101.613755928296 
20.05                          0.844202905734916 -124.612407926472 0.267911343000366 -19.2575220401888 0.267911343000372 -19.2575220401885 0.811723900585388 -109.254012209118 
20.1                           0.863476737723193 -130.054713989469 0.237001975101838 -25.8039704622483 0.237001975101843 -25.8039704622482 0.834605491020553 -116.189712607635 
20.15                          0.879515978033192 -135.078419320418 0.209719468185495 -31.83804955344  0.209719468185499 -31.83804955344  0.853923321157885 -122.495372938871 
20.2                           0.892893927410797 -139.721498579778 0.185788501937606 -37.4058347625086 0.18578850193761 -37.4058347625088 0.870233518688771 -128.242348837787 
20.25                          0.904101415338985 -144.021691639163 0.164875752304129 -42.5532398417295 0.164875752304132 -42.5532398417299 0.884036349358589 -133.496392412072 
20.3                           0.913544883022178 -148.014699044171 0.14663430746923 -47.3237771161177 0.146634307469233 -47.3237771161181 0.895762010956326 -138.316570377224 
20.35                          0.921554208966504 -151.733263768649 0.13073011230267 -51.7574189295481 0.130730112302672 -51.7574189295485 0.905770566507776 -142.755065327066 
20.4                           0.92839412474053 -155.20683249597 0.116855860907064 -55.8901689842975 0.116855860907065 -55.890168984298 0.914358598431365 -146.857490276612 
20.45                          0.934275951293443 -158.461563662275 0.104736831035011 -59.754056497914 0.104736831035012 -59.7540564979143 0.92176826634389 -150.66346223513 
20.5                           0.939368170486374 -161.520523517074 0.0941319148681592 -63.3773603956731 0.0941319148681597 -63.3773603956735 0.928196516244958 -154.207274824179 
20.55                          0.943805330390299 -164.403969686504 0.084832014882511 -66.7849421848063 0.0848320148825113 -66.7849421848065 0.933803417758345 -157.518577122062 
20.6                           0.947695268398432 -167.129662490312 0.0766571643737351 -69.9986153281244 0.0766571643737352 -69.9986153281245 0.938719275506383 -160.623009840091 
20.65                          0.951124841742446 -169.713170824987 0.0694531802583502 -73.0375107566574 0.0694531802583502 -73.0375107566574 0.943050493480809 -163.542776842456 
20.7                           0.95416441652912 -172.168155848454 0.0630883003996166 -75.9184178233923 0.0630883003996167 -75.9184178233921 0.946884316490976 -166.297145536349 
20.75                          0.956871360969448 -174.50662540257 0.0574500387445111 -78.6560916610325 0.057450038744511 -78.6560916610322 0.950292620461405 -168.902877995902 
20.8                           0.959292756623561 -176.739157565609 0.0524423618784765 -81.2635245224375 0.0524423618784764 -81.2635245224371 0.953334924321988 -171.374598709125 
20.85                          0.961467503054927 -178.875094600405 0.0479832170614428 -83.75218222074  0.0479832170614427 -83.7521822207393 0.956060777579706 -173.725106388766 
20.9                           0.963427955025411 179.077290081848 0.0440024024578508 -86.1322085029384 0.0440024024578507 -86.1322085029376 0.958511653004829 -175.965637494182 
20.95                          0.965201200445676 177.11064882934  0.0404397511444959 -88.4126008640689 0.0404397511444958 -88.412600864068 0.960722449538003 -178.106088640837 
21                             0.96681006228834 175.21843738901  0.0372435929263853 -90.6013614095491 0.0372435929263851 -90.6013614095482 0.962722689084851 179.844795690308 
21.05                          0.96827388804569 173.394810343619 0.0343694567835302 -92.7056261794312 0.0343694567835302 -92.7056261794301 0.964537473019617 177.879264579321 
21.1                           0.969609175184723 171.634531719168 0.0317789788180176 -94.7317760208339 0.0317789788180177 -94.7317760208329 0.966188249840383 175.990426488863 
21.15                          0.97083006951163 169.93289846928  0.0294389840869454 -96.6855317235928 0.0294389840869455 -96.6855317235914 0.967693434053825 174.172135487914 
21.2                           0.971948764604942 168.28567486659  0.0273207146971893 -98.5720357670834 0.0273207146971894 -98.5720357670822 0.969068907488108 172.41889453916  
21.25                          0.972975823855217 166.689036126149 0.0253991804735822 -100.395922686742 0.0253991804735823 -100.395922686741 0.970328427340498 170.725773070743 
21.3                           0.973920441641838 165.139519845668 0.0236526121350785 -102.161379766712 0.0236526121350785 -102.161379766711 0.971483959934325 169.088336524104 
21.35                          0.974790656386442 163.633984071422 0.0220620001193498 -103.872199502459 0.0220620001193499 -103.872199502458 0.972545955039279 167.502585962431 
21.4                           0.975593525345305 162.169570989113 0.0206107049641881 -105.531825052311 0.0206107049641882 -105.531825052311 0.973523572422661 165.964906150016 
21.45                          0.97633526881265 160.743675399532 0.0192841275060285 -107.143389706163 0.0192841275060286 -107.143389706162 0.974424869831247 164.472020781934 
21.5                           0.977021389733015 159.353917273476 0.0180694291333191 -108.709751238811 0.0180694291333192 -108.70975123881 0.975256959687048 163.020953765451 
21.55                          0.977656773436347 157.998117792781 0.0169552939833206 -110.233521880393 0.0169552939833207 -110.233521880393 0.976026140287644 161.608995637486 
21.6                           0.978245771219471 156.674278378172 0.0159317263428345 -111.717094523227 0.0159317263428346 -111.717094523226 0.976738006135137 160.23367435328  
21.65                          0.978792270730816 155.38056228278  0.0149898776501837 -113.162665689593 0.0149898776501837 -113.162665689593 0.977397541102452 158.892729805903 
21.7                           0.979299755518661 154.115278395388 0.0141218984362992 -114.572255705596 0.0141218984362992 -114.572255705596 0.978009197424766 157.584091539049 
21.75                          0.979771355636614 152.87686695191  0.0133208113203464 -115.947726459684 0.0133208113203464 -115.947726459683 0.978576962933571 156.30585920075  
21.8                           0.980209890833377 151.663886899053 0.0125804018182149 -117.290797068508 0.0125804018182149 -117.290797068508 0.979104418497964 155.056285356256 
21.85                          0.980617907564348 150.475004692231 0.0118951242540011 -118.603057725802 0.011895124254001 -118.603057725802 0.979594787276534 153.833760337085 
21.9                           0.980997710832815 149.308984341733 0.0112600205049583 -119.88598197031 0.0112600205049582 -119.88598197031 0.980050977093832 152.63679885217  
21.95                          0.981351391685306 148.164678548009 0.0106706496754352 -121.140937575358 0.0106706496754351 -121.140937575358 0.980475617022751 151.464028127975 
22                             0.981680851038821 147.041020789569 0.0101230270984178 -122.369196234287 0.0101230270984177 -122.369196234287 0.980871089066132 150.314177378673 
22.05                          0.981987820399554 145.937018246125 0.00961357131533935 -123.571942191929 0.00961357131533925 -123.57194219193 0.981239555678555 149.186068436286 
22.1                           0.982273879937087 144.851745455757 0.00913905789481318 -124.75027995183 0.00913905789481306 -124.750279951831 0.981582983745157 148.078607394927 
22.15                          0.982540474300478 143.784338618673 0.00869657912620865 -125.905241171478 0.00869657912620853 -125.905241171478 0.981903165532903 146.990777143694 
22.2                           0.982788926499264 142.733990471763 0.00828350877056762 -127.03779084286 0.00828350877056747 -127.03779084286 0.98220173704653 145.921630680158 
22.25                          0.983020450120566 141.699945668177 0.00789747117418074 -128.148832842903 0.00789747117418058 -128.148832842903 0.982480194152856 144.870285111007 
22.3                           0.983236160110754 140.681496604634 0.00753631415327111 -129.239214927359 0.00753631415327093 -129.239214927359 0.982739906780491 143.835916258972 
22.35                          0.983437082314861 139.677979646505 0.00719808514500191 -130.309733232264 0.00719808514500174 -130.309733232265 0.982982131455025 142.817753805793 
22.4                           0.983624161937714 138.688771706975 0.00688101019317759 -131.361136338954 0.00688101019317743 -131.361136338955 0.983208022390653 141.815076910098 
22.45                          0.983798271066359 137.713287142009 0.00658347539880805 -132.394128951585 0.00658347539880787 -132.394128951586 0.983418641326536 140.827210246915 
22.5                           0.983960215373047 136.750974927492 0.00630401051802355 -133.409375230037 0.00630401051802338 -133.409375230037 0.983614966268865 139.853520422202 
22.55                          0.984110740100982 135.801316088973 0.00604127443420311 -134.407501815777 0.00604127443420295 -134.407501815777 0.983797899276561 138.893412721619 
22.6                           0.984250535420658 134.863821357926 0.00579404226889843 -135.389100583738 0.00579404226889829 -135.389100583738 0.983968273409199 137.946328157699 
22.65                          0.984380241232532 133.938029031482 0.00556119392825734 -136.35473114923 0.00556119392825718 -136.35473114923 0.984126858939323 137.011740783927 
22.7                           0.984500451481482 133.023503015241 0.00534170390905961 -137.304923155489 0.00534170390905948 -137.304923155489 0.984274368917438 136.089155247974 
22.75                          0.984611718039807 132.119831031091 0.00513463221191348 -138.240178364436 0.00513463221191338 -138.240178364437 0.984411464166142 135.17810455956  
22.8                           0.984714554208087 131.226622973938 0.00493911622923222 -139.160972570588 0.00493911622923211 -139.160972570588 0.984538757769772 134.278148051282 
22.85                          0.984809437876869 130.343509403084 0.00475436349283799 -140.067757355768 0.00475436349283791 -140.067757355768 0.984656819117351 133.388869513176 
22.9                           0.984896814386716 129.470140155488 0.00457964518085064 -140.960961700252 0.00457964518085057 -140.960961700253 0.984766177549195 132.509875483971 
22.95                          0.984977099119467 128.606183069528 0.00441429029627513 -141.840993464241 0.0044142902962751 -141.840993464241 0.984867325651257 131.640793683856 
23                             0.985050679849543 127.751322809107 0.00425768044071027 -142.708240751972 0.00425768044071027 -142.708240751972 0.984960722235741 130.781271575252 
