! Touchstone file exported from HFSS 3D Layout Design 2026.1.0
!        File:           D:/Work/SIM/ADS_AUTO_SIM/projects/RFSOC_RF/TX_Fillter.aedt
!        Generated:      09:36:28 PM Aug 30, 2026
!        Design:         TX_BAND1_MCFIL_R1_CNN002
!        Project:        TX_Fillter
!
# GHz S MA R 50.000000
! Terminal data exported
! Port[1] = Port1
! Port[2] = Port2
14                             0.961699743943107 165.274145396374 0.00700323490500482 138.992623485835 0.00700323490500483 138.992623485835 0.964176948783941 76.399308315933  
14.05                          0.960974125025086 164.216891067353 0.00714863468081843 138.463201533703 0.00714863468081845 138.463201533703 0.963832995328305 75.4470964012861 
14.1                           0.960226774254847 163.150573480922 0.00730090611889349 137.940000068279 0.00730090611889351 137.940000068279 0.963485731089065 74.4938548413543 
14.15                          0.959456742122273 162.074907968305 0.00746048477856078 137.422644969732 0.00746048477856081 137.422644969732 0.963134713562365 73.5395455848359 
14.2                           0.958663024225133 160.989597163755 0.00762783815124329 136.910724886112 0.00762783815124331 136.910724886112 0.96277949288576 72.5841285139226 
14.25                          0.957844557281163 159.894330289679 0.00780346828842371 136.403789816274 0.00780346828842376 136.403789816274 0.962419610839046 71.62756131273   
14.3                           0.95700021478807 158.788782391862 0.00798791467440475 135.901349742965 0.00798791467440481 135.901349742965 0.962054599739926 70.6697993253832 
14.35                          0.95612880229463 157.672613520564 0.00818175737010715 135.402873325172 0.0081817573701072 135.402873325172 0.961683981222519 69.7107954027825 
14.4                           0.95522905224154 156.545467852836 0.00838562045738337 134.907786658214 0.00838562045738341 134.907786658214 0.961307264885145 68.7504997369626 
14.45                          0.95429961832558 155.406972750943 0.00860017581700057 134.415472109144 0.00860017581700062 134.415472109144 0.960923946791994 67.7888596818471 
14.5                           0.953339069334855 154.256737751231 0.00882614727763091 133.925267233744 0.00882614727763097 133.925267233744 0.960533507811179 66.8258195590614 
14.55                          0.952345882396185 153.094353477209 0.00906431517795767 133.436463779851 0.00906431517795772 133.436463779851 0.960135411769227 65.8613204473216 
14.6                           0.951318435568121 151.91939046993  0.00931552138944794 132.948306779725 0.00931552138944798 132.948306779726 0.959729103399276 64.8952999537495 
14.65                          0.95025499970432 150.731397928039 0.0095806748535617 132.459993731859 0.00958067485356175 132.459993731859 0.959314006056953 63.9276919652743 
14.7                           0.949153729501923 149.529902348987 0.00986075769427995 131.97067386984  0.00986075769428 131.97067386984  0.958889519174136 62.9584263780699 
14.75                          0.948012653638057 148.314406061985 0.010156831974982 131.479447512751 0.0101568319749821 131.479447512751 0.958455015416385 61.9874288027407 
14.8                           0.946829663884129 147.084385642222 0.0104700471780468 130.985365488027 0.0104700471780469 130.985365488027 0.958009837504656 61.0146202426967 
14.85                          0.945602503072166 145.839290194645 0.0108016484962843 130.487428613737 0.0108016484962844 130.487428613737 0.957553294655916 60.0399167428588 
14.9                           0.944328751769468 144.578539494245 0.0111529860376468 129.984587222962 0.0111529860376469 129.984587222962 0.957084658590189 59.0632290054911 
14.95                          0.943005813496973 143.301521968276 0.0115255250588882 129.475740708207 0.0115255250588882 129.475740708207 0.956603159043282 58.0844619695741 
15                             0.941630898302454 142.007592504057 0.0119208573602399 128.959737058802 0.01192085736024 128.959737058802 0.956107978714673 57.1035143496945 
15.05                          0.940201004471251 140.696070064032 0.0123407139921285 128.435372358824 0.0123407139921285 128.435372358824 0.955598247568503 56.1202781299389 
15.1                           0.938712898124027 139.366235087503 0.0127869794468911 127.9013902074   0.0127869794468911 127.9013902074   0.95507303639198 55.1346380077217 
15.15                          0.937163090412038 138.017326655862 0.0132617075338811 127.35648101725  0.0132617075338811 127.35648101725  0.954531349499365 54.1464707818568 
15.2                           0.935547811974552 136.648539395198 0.013767139165883 126.799281140937 0.0137671391658831 126.799281140937 0.953972116450403 53.1556446784725 
15.25                          0.933862984268933 135.259020086796 0.0143057223191159 126.228371767635 0.0143057223191159 126.228371767635 0.953394182629246 52.1620186075839 
15.3                           0.932104187319936 133.847863952152 0.0148801344691351 125.642277526068 0.0148801344691351 125.642277526068 0.952796298502431 51.1654413422411 
15.35                          0.93026662335894 132.414110574723 0.0154933078516761 125.039464721711 0.015493307851676 125.039464721711 0.952177107341756 50.1657506111822 
15.4                           0.928345075733636 130.956739415527 0.0161484579521275 124.418339128107 0.0161484579521275 124.418339128107 0.951535131158401 49.1627720948034 
15.45                          0.926333862361259 129.474664873848 0.0168491156913217 123.777243243235 0.0168491156913217 123.777243243235 0.950868754547247 48.1563183130333 
15.5                           0.924226782869936 127.96673083759  0.0175991638504128 123.114452911911 0.0175991638504127 123.114452911912 0.950176206082947 47.1461873923336 
15.55                          0.922017058418759 126.431704660044 0.0184028783658279 122.428173204121 0.0184028783658278 122.428173204121 0.94945553683994 46.1321616975717 
15.6                           0.919697263002072 124.868270490938 0.0192649752290708 121.716533426433 0.0192649752290708 121.716533426433 0.948704595524252 45.1140063129112 
15.65                          0.917259244820355 123.275021879337 0.0201906638484381 120.977581129061 0.0201906638484381 120.977581129061 0.947920999602343 44.091467354175  
15.7                           0.914694036030354 121.650453554172 0.0211857078739277 120.209274953995 0.0211857078739277 120.209274953995 0.947102101686928 43.064270093397  
15.75                          0.911991748860214 119.992952274575 0.0222564946568647 119.409476149492 0.0222564946568647 119.409476149492 0.946244950286394 42.0321168745532 
15.8                           0.909141455677953 118.300786626654 0.023410114716851 118.575938552233 0.023410114716851 118.575938552233 0.945346243836259 40.9946847978803 
15.85                          0.906131050117324 116.572095625592 0.0246544528262031 117.706296809902 0.024654452826203 117.706296809902 0.944402276699674 39.9516231489137 
15.9                           0.902947085773292 114.804875961755 0.025998292602607 116.798052582592 0.0259982926026069 116.798052582593 0.943408875538633 38.9025505476934 
15.95                          0.899574588254435 112.996967706779 0.027451436831785 115.848558420296 0.027451436831785 115.848558420296 0.942361324105045 37.8470517939028 
16                             0.895996835489571 111.146038270278 0.0290248461319358 114.854998964142 0.0290248461319358 114.854998964142 0.941254274064521 36.7846743856376 
16.05                          0.892195100091029 109.249564370015 0.0307307990297635 113.814369059474 0.0307307990297635 113.814369059474 0.940081638924978 35.7149246939647 
16.1                           0.888148346227808 107.304811748703 0.0325830770536163 112.723448297273 0.0325830770536162 112.723448297273 0.938836467471261 34.6372637837632 
16.15                          0.883832871797335 105.308812340036 0.0345971790717814 111.578771414605 0.0345971790717813 111.578771414605 0.937510792274452 33.5511028855315 
16.2                           0.879221884629663 103.258338557231 0.0367905698207321 110.37659388232  0.036790569820732 110.376593882321 0.936095447811863 32.4557985457797 
16.25                          0.874284998921873 101.149874352745 0.0391829683821821 109.112851886319 0.039182968382182 109.11285188632  0.934579851455206 31.3506475195872 
16.3                           0.868987634974599 98.9795826839722 0.0417966832739421 107.783115764884 0.0417966832739419 107.783115764885 0.932951739006778 30.2348815241121 
16.35                          0.863290301461131 96.7432690264483 0.0446570017971766 106.382535796312 0.0446570017971765 106.382535796312 0.931196844527727 29.1076620554846 
16.4                           0.857147734762378 94.4363406192442 0.0477926422848046 104.905779037124 0.0477926422848046 104.905779037124 0.929298511848439 27.9680755970216 
16.45                          0.850507864204499 92.0537612325287 0.0512362788310406 103.346955692051 0.0512362788310406 103.346955692051 0.927237222327849 26.815129733836  
16.5                           0.843310565215921 89.5900014555504 0.0550251487859578 101.699533257308 0.0550251487859578 101.699533257308 0.924990020115061 25.6477509666504 
16.55                          0.835486154418225 87.0389848799437 0.0592017534884935 99.9562364299099 0.0592017534884934 99.95623642991   0.922529812410831 24.4647854284803 
16.6                           0.826953571576643 84.3940312026727 0.0638146619136736 98.1089305414617 0.0638146619136735 98.1089305414618 0.919824518216681 23.2650043140074 
16.65                          0.817618183570858 81.6477983622168 0.0689194243516358 96.1484860990764 0.0689194243516358 96.1484860990765 0.916836035250318 22.047116723518  
16.7                           0.807369136118364 78.7922276193149 0.0745795976729228 94.0646219765445 0.0745795976729228 94.0646219765445 0.913518992039926 20.8097939321987 
16.75                          0.796076172008021 75.8184984334725 0.0808678731943437 91.8457250287409 0.0808678731943437 91.845725028741  0.909819252491682 19.5517110083493 
16.8                           0.783585834167518 72.7170047734439 0.0878672795641945 89.4786446229123 0.0878672795641945 89.4786446229124 0.905672146752236 18.2716144822976 
16.85                          0.769716985512832 69.4773722888778 0.0956724017154032 86.9484621529931 0.0956724017154032 86.9484621529931 0.901000420777774 16.9684287653908 
16.9                           0.754255618579787 66.0885484707703 0.104390505722873 84.2382386033522 0.104390505722873 84.2382386033523 0.895711937627591 15.6414196868628 
16.95                          0.736949019544522 62.5390187347307 0.114142378112236 81.3287485532474 0.114142378112236 81.3287485532474 0.889697242628217 14.2904413692935 
17                             0.717499532354463 58.8172356956505 0.125062562734201 78.1982180162961 0.125062562734201 78.1982180162962 0.882827248542554 12.9163031368321 
17.05                          0.6955585030045  54.9124061458225 0.13729849107694 74.8220981432381 0.13729849107694 74.8220981432381 0.874951545552175 11.5213062259155 
17.1                           0.670721571859549 50.8158770451281 0.151007734470278 71.1729297027936 0.151007734470278 71.1729297027937 0.86589824945484 10.110014401722  
17.15                          0.642527473815456 46.5235287368892 0.166352249181498 67.2203874760363 0.166352249181498 67.2203874760364 0.855476934878775 8.69033368786898 
17.2                           0.610464112587311 42.0398793074196 0.183488058767758 62.9316418585352 0.183488058767758 62.9316418585353 0.843487105786338 7.27497323123427 
17.25                          0.57398816497141 37.3851479419255 0.202548418959925 58.2722366745728 0.202548418959925 58.2722366745728 0.82973578693164 5.88331854644593 
17.3                           0.532568155725603 32.6075775210027 0.223618388543692 53.2077487080126 0.223618388543693 53.2077487080127 0.814068872354296 4.54362716826735 
17.35                          0.485766233632802 27.8054875629728 0.246699387614787 47.7065391655426 0.246699387614787 47.7065391655426 0.796420991012739 3.29518901575719 
17.4                           0.433381839700767 23.1683479782455 0.271664567424655 41.7438734567511 0.271664567424655 41.7438734567512 0.776886119923871 2.1896074077235  
17.45                          0.375695604787989 19.0576458517955 0.298210547104629 35.3074799946611 0.298210547104629 35.3074799946612 0.755803415412203 1.28964937185199 
17.5                           0.313893136620396 16.1767140060384 0.325818482182626 28.4041349214411 0.325818482182627 28.4041349214412 0.733837683065994 0.663436343734426 
17.55                          0.25088570061986 15.9416182072657 0.353745387267273 21.0660686157699 0.353745387267273 21.0660686157699 0.712013957002835 0.371862628434761 
17.6                           0.193154222925443 21.1766297353971 0.381069190422849 13.3551034344749 0.381069190422849 13.355103434475  0.691653299870799 0.449315092221054 
17.65                          0.154341712246001 35.8423062353643 0.406799917801652 5.3620239759784  0.406799917801653 5.36202397597848 0.674174874110331 0.882756486279082 
17.7                           0.152688392640513 56.9281737985616 0.430041716839709 -2.80051495142175 0.430041716839709 -2.80051495142171 0.66079250301059 1.59980830982732 
17.75                          0.186836055814749 71.1844936520578 0.450157992641876 -11.0110099372631 0.450157992641876 -11.0110099372631 0.652215976283461 2.47646022329041 
17.8                           0.237000859287066 75.6692498732605 0.466879193493951 -19.154844831927 0.466879193493952 -19.1548448319269 0.648495603878372 3.36495414354235 
17.85                          0.289317649328807 74.3472826077573 0.480315320035857 -27.1381493070928 0.480315320035857 -27.1381493070928 0.6490728510657  4.12861548311574 
17.9                           0.337524685227833 70.0316978901851 0.490879893749424 -34.8961540334615 0.490879893749425 -34.8961540334614 0.652973388247735 4.66687551883371 
17.95                          0.379036016602461 64.127856107623  0.499167160755313 -42.3949895736619 0.499167160755313 -42.3949895736619 0.659019640692983 4.92416932588456 
18                             0.412990802177597 57.3265697901449 0.505830049894722 -49.6283013907778 0.505830049894723 -49.6283013907778 0.665996385164793 4.88818897181631 
18.05                          0.439387487878285 49.9727960112441 0.51148898395103 -56.6111388515143 0.51148898395103 -56.6111388515143 0.672791757344849 4.58382667220203 
18.1                           0.458641301063947 42.2342070536107 0.51667936147079 -63.3733432314904 0.51667936147079 -63.3733432314904 0.678536149670969 4.0628682588201  
18.15                          0.471337476855601 34.1810945522359 0.521830919558147 -69.9538074481792 0.521830919558147 -69.9538074481792 0.682688254338238 3.38901285590373 
18.2                           0.47809449502884 25.8263438320873 0.527267261732579 -76.3961423020398 0.527267261732578 -76.3961423020398 0.685013870977471 2.62359968731803 
18.25                          0.479495067534868 17.1459747520713 0.533214977522228 -82.7457360393378 0.533214977522228 -82.7457360393378 0.685487133552562 1.81812506108176 
18.3                           0.476059830038885 8.08931475395498 0.539815030432675 -89.0479378653458 0.539815030432675 -89.0479378653458 0.684188409478704 1.01393646380653 
18.35                          0.468248665857694 -1.41696323545114 0.54713217806875 -95.3470298020026 0.54713217806875 -95.3470298020026 0.681241829606916 0.245578700630848 
18.4                           0.456481823236262 -11.4689177038538 0.555160370988081 -101.685675304143 0.555160370988081 -101.685675304143 0.676793789596148 -0.45532934149747 
18.45                          0.441178711774006 -22.188571330951 0.563823416991942 -108.104583308384 0.563823416991942 -108.104583308384 0.671018612301363 -1.05705581975263 
18.5                           0.422817092281029 -33.7297113138271 0.572971027379469 -114.642171983658 0.572971027379469 -114.642171983658 0.664139961940586 -1.52588851543274 
18.55                          0.402019501922607 -46.2852119521011 0.582371038721409 -121.334048318138 0.582371038721408 -121.334048318138 0.65646194244922 -1.82558646772211 
18.6                           0.379676102823249 -60.0926909012849 0.591699432045537 -128.212141955333 0.591699432045537 -128.212141955333 0.648406166006932 -1.91854021389757 
18.65                          0.357108875319145 -75.429503227933 0.600530966902216 -135.303357661375 0.600530966902216 -135.303357661375 0.640549490811581 -1.76937210583183 
18.7                           0.336257377441796 -92.5760302805929 0.60833486333709 -142.627661449573 0.608334863337089 -142.627661449573 0.633651821774118 -1.35186050541863 
18.75                          0.319794501321507 -111.711449953962 0.614481730847202 -150.195616808568 0.614481730847202 -150.195616808568 0.628655427570222 -0.659592973425114 
18.8                           0.310951826948993 -132.720503851378 0.618269053335535 -158.005561946412 0.618269053335535 -158.005561946412 0.626630519436678 0.28093947823154 
18.85                          0.312783697802279 -155.001335081128 0.618971555467969 -166.040864858874 0.618971555467969 -166.040864858874 0.628644993882874 1.39916670029095 
18.9                           0.326977502029642 -177.523791507804 0.615918029207228 -174.26795587182 0.615918029207228 -174.26795587182 0.635560099173768 2.57853425869335 
18.95                          0.353033258575709 160.757659953731 0.608587040580894 177.364008838976 0.608587040580893 177.364008838976 0.647799161815724 3.67053761158883 
19                             0.388545771008747 140.490989947683 0.596702541415222 168.921121832179 0.596702541415221 168.921121832179 0.665178912737571 4.52416588555502 
19.05                          0.430227314775451 121.865181135527 0.580302503958971 160.480108716542 0.58030250395897 160.480108716542 0.686890425713641 5.0198837892282  
19.1                           0.474838765330709 104.793771611147 0.559756019501323 152.121679312859 0.559756019501323 152.121679312859 0.711652969754961 5.09298027209619 
19.15                          0.519691760685634 89.096754346604  0.535719082365943 143.923139023533 0.535719082365943 143.923139023534 0.737979588442218 4.73767501041078 
19.2                           0.562814094728942 74.5944469321675 0.509040419235496 135.951846126536 0.509040419235496 135.951846126536 0.764449995102481 3.99466489895283 
19.25                          0.602932179669416 61.1367632337269 0.480644898526868 128.260777696959 0.480644898526868 128.260777696959 0.789906098362117 2.9314126588806  
19.3                           0.639365856572007 48.6041087847242 0.451425145794336 120.886717684841 0.451425145794336 120.886717684841 0.813539093660209 1.62378846958092 
19.35                          0.671888663604296 36.9003904092251 0.42216273402465 113.850803846751 0.422162734024651 113.850803846751 0.834884157390119 0.143364272361549 
19.4                           0.700586721580327 25.9460712503914 0.393486110550321 107.160687801564 0.393486110550322 107.160687801564 0.853759987486961 -1.44921087738475 
19.45                          0.725736445767245 15.6732366798964 0.365860807058815 100.813458208976 0.365860807058816 100.813458208976 0.870188977776234 -3.10625838325909 
19.5                           0.747710228808339 6.02252090451723 0.339601817577521 94.7986401536639 0.339601817577522 94.7986401536638 0.884321781263471 -4.79240367559044 
19.55                          0.76691080566196 -3.05872363832228 0.314897616118944 89.100846607438  0.314897616118945 89.1008466074379 0.896377342582944 -6.48266972693682 
19.6                           0.783730099430908 -11.6175484636331 0.291837705198551 83.7018974123501 0.291837705198552 83.70189741235   0.906600646481835 -8.16025512745284 
19.65                          0.798526541458824 -19.6961658120472 0.27043868290592 78.5823856064322 0.27043868290592 78.582385606432  0.915235882262092 -9.81447360283161 
19.7                           0.81161504208254 -27.3325261409853 0.250666404694166 73.7227589568273 0.250666404694166 73.7227589568271 0.922511214559493 -11.4390430859333 
19.75                          0.823264884626866 -34.5608041509492 0.232453541707147 69.1040170213018 0.232453541707147 69.1040170213015 0.928631467785253 -13.030755078933 
19.8                           0.833702111398177 -41.4118289451348 0.21571279123962 64.7081241286408 0.21571279123962 64.7081241286406 0.933775781251195 -14.588483478246 
19.85                          0.843114111932064 -47.9134701590212 0.200346410762982 60.5182238635612 0.200346410762982 60.5182238635609 0.938098136104411 -16.1124685643941 
19.9                           0.851654994560597 -54.0909831625172 0.186252846381477 56.5187216053627 0.186252846381477 56.5187216053624 0.9417293689598  -17.6038117846693 
19.95                          0.85945092876862 -59.9673145218603 0.173331168382614 52.6952837575719 0.173331168382614 52.6952837575716 0.944779815037705 -19.0641262380024 
20                             0.866605040213605 -65.5633694706179 0.161483907333035 49.0347875913049 0.161483907333035 49.0347875913046 0.947342083301077 -20.4952993225067 
20.05                          0.873201681893799 -70.8982441834544 0.15061875526003 45.5252444493994 0.15061875526003 45.5252444493991 0.949493697018485 -21.899334716974 
20.1                           0.879310043909065 -75.9894264231551 0.140649481044637 42.1557110039517 0.140649481044637 42.1557110039514 0.951299474200556 -23.2782496789334 
20.15                          0.884987137862258 -80.8529684744579 0.131496314955346 38.9161976763952 0.131496314955346 38.916197676395  0.952813604256667 -24.6340104426709 
20.2                           0.890280225882646 -85.5036362507479 0.12308598445033 35.7975795801209 0.12308598445033 35.7975795801206 0.954081421960914 -25.9684935520996 
20.25                          0.895228775296571 -89.9550381858434 0.115351529066035 32.7915129004698 0.115351529066035 32.7915129004695 0.955140902104056 -27.2834646242994 
20.3                           0.899866018638739 -94.2197371185256 0.108231982672256 29.890358079407  0.108231982672256 29.8903580794068 0.956023907456479 -28.5805686494098 
20.35                          0.904220191333134 -98.3093479276305 0.10167198309781 27.0871102266846 0.10167198309781 27.0871102266844 0.956757224700643 -29.8613277721299 
20.4                           0.908315509648975 -102.234623235164 0.0956213491841282 24.3753366282177 0.095621349184128 24.3753366282175 0.957363421303317 -31.127143786245 
20.45                          0.912172941473548 -106.005529094272 0.0900346514116089 21.7491209237519 0.0900346514116089 21.7491209237517 0.957861552917031 -32.3793034673969 
20.5                           0.915810813064269 -109.631312231262 0.0848707926392478 19.2030133846712 0.0848707926392477 19.2030133846711 0.958267746959947 -33.6189854873724 
20.55                          0.919245286692595 -113.120560118903 0.0800926089363825 16.7319866765513 0.0800926089363824 16.7319866765511 0.958595684122754 -34.8472680786653 
20.6                           0.922490737095385 -116.481254918624 0.0756664960547313 14.3313964996042 0.0756664960547312 14.3313964996041 0.958856995978501 -36.0651369096051 
20.65                          0.925560048859001 -119.720822135692 0.0715620641402857 11.9969465380813 0.0715620641402857 11.9969465380813 0.959061593739976 -37.2734928290391 
20.7                           0.928464852153195 -122.846174676973 0.0677518213601548 9.72465720133934 0.0677518213601547 9.72465720133933 0.95921794053876 -38.4731592740526 
20.75                          0.931215710452784 -125.863752878383 0.0642108858980797 7.51083769530708 0.0642108858980797 7.51083769530712 0.95933327736252 -39.6648892244368 
20.8                           0.933822270881755 -128.779560972296 0.0609167250299686 5.3520610181836  0.0609167250299686 5.35206101818359 0.959413810934541 -40.8493716473838 
20.85                          0.93629338544566 -131.5992003888  0.0578489195717328 3.24514152554925 0.0578489195717328 3.24514152554927 0.95946487029752 -42.0272374147969 
20.9                           0.938637209561297 -134.327900224076 0.0549889517881475 1.18711475641446 0.0549889517881475 1.18711475641458 0.959491037619936 -43.1990647002603 
20.95                          0.94086128284392 -136.970545161028 0.052320014789003 -0.824780747325625 0.052320014789003 -0.824780747325486 0.959496257730213 -44.3653838777252 
21                             0.942972595986432 -139.531701088582 0.0498268414664673 -2.79311985985739 0.0498268414664674 -2.79311985985727 0.959483930060288 -45.5266819524826 
21.05                          0.944977646692744 -142.015638634793 0.047495551110488 -4.72030572981097 0.047495551110488 -4.72030572981082 0.959456986011101 -46.6834065591998 
21.1                           0.946882486953542 -144.42635480317 0.0453135119536508 -6.60858325248424 0.0453135119536509 -6.60858325248408 0.959417954209088 -47.8359695631898 
21.15                          0.948692763432831 -146.767592880374 0.0432692180274254 -8.4600513076758 0.0432692180274255 -8.46005130767565 0.959369015681118 -48.9847503006861 
21.2                           0.950413752333417 -149.04286076554 0.0413521788477554 -10.276673895441 0.0413521788477555 -10.2766738954409 0.959312050615964 -50.1300984924049 
21.25                          0.952050389801638 -151.255447856203 0.0395528205828264 -12.0602902854555 0.0395528205828265 -12.0602902854553 0.959248678087784 -51.2723368625653 
21.3                           0.953607298695119 -153.408440612722 0.0378623974854315 -13.8126242814186 0.0378623974854316 -13.8126242814184 0.959180289878252 -52.4117634931103 
21.35                          0.955088812355594 -155.5047369116  0.0362729124942208 -15.535292689712 0.0362729124942209 -15.5352926897118 0.959108079338851 -53.5486539403416 
21.4                           0.956498995889326 -157.547059288072 0.0347770460210428 -17.2298130710025 0.0347770460210428 -17.2298130710022 0.959033066074957 -54.6832631386735 
21.45                          0.957841665350407 -159.537967159338 0.0333680920450632 -18.8976108444081 0.0333680920450632 -18.8976108444078 0.958956117102225 -55.8158271138047 
21.5                           0.959120405139811 -161.479868111848 0.0320399007284014 -20.540025805993 0.0320399007284015 -20.5400258059928 0.958877965017871 -56.9465645253533 
21.55                          0.960338583869631 -163.375028328853 0.0307868268530018 -22.1583181165369 0.0307868268530019 -22.1583181165367 0.958799223640587 -58.0756780569162 
21.6                           0.961499368892976 -165.225582227892 0.029603683454854 -23.7536738075869 0.029603683454854 -23.7536738075867 0.958720401499319 -59.2033556696114 
21.65                          0.962605739662199 -167.033541372043 0.0284857001001228 -25.3272098496085 0.0284857001001229 -25.3272098496082 0.958641913490409 -60.3297717334395 
21.7                           0.963660500048814 -168.800802713338 0.0274284853089037 -26.879978821498 0.0274284853089038 -26.8799788214978 0.958564090972081 -61.4550880492468 
21.75                          0.964666289735592 -170.529156221903 0.0264279926868281 -28.4129732167175 0.0264279926868281 -28.4129732167173 0.958487190523307 -62.5794547726815 
21.8                           0.965625594773473 -172.220291949879 0.0254804903732699 -29.9271294177758 0.0254804903732699 -29.9271294177755 0.958411401559142 -63.7030112502935 
21.85                          0.966540757381874 -173.875806575113 0.0245825334580378 -31.4233313676579 0.0245825334580379 -31.4233313676577 0.958336852965334 -64.8258867768193 
21.9                           0.967413985059804 -175.497209465873 0.0237309390567516 -32.9024139640248 0.0237309390567517 -32.9024139640246 0.958263618890585 -65.9482012817083 
21.95                          0.968247359066275 -177.08592830443 0.0229227637691082 -34.3651661995416 0.0229227637691082 -34.3651661995415 0.958191723814298 -67.0700659520752 
22                             0.969042842321301 -178.643314304199 0.0221552832744257 -35.8123340694888 0.0221552832744258 -35.8123340694886 0.958121146990367 -68.1915837984825 
22.05                          0.969802286772907 179.82935294771  0.0214259738456222 -37.2446232658451 0.0214259738456222 -37.2446232658449 0.95805182635301 -69.3128501692741 
22.1                           0.97052744027071 178.330860993313 0.020732495586541 -38.6627016752695 0.0207324955865411 -38.6627016752693 0.957983661958362 -70.4339532185642 
22.15                          0.971219952982575 176.860060325128 0.0200726772186056 -40.0672016968253 0.0200726772186057 -40.0672016968252 0.957916519025128 -71.5549743324525 
22.2                           0.971881383387444 175.415860501502 0.0194445022614873 -41.458722393874 0.0194445022614874 -41.4587223938738 0.957850230628784 -72.6759885175473 
22.25                          0.972513203874472 173.997226533263 0.01884609646907 -42.837831493281 0.01884609646907 -42.8378314932809 0.957784600096286 -73.7970647554628 
22.3                           0.973116805976084 172.60317552097  0.0182757163967322 -44.2050672439266 0.0182757163967323 -44.2050672439266 0.957719403141882 -74.9182663265691 
22.35                          0.973693505260309 171.232773523671 0.0177317389890678 -45.5609401454698 0.0177317389890678 -45.5609401454698 0.957654389779163 -76.0396511059464 
22.4                           0.974244545905803 169.885132641661 0.0172126520887981 -46.9059345573706 0.0172126520887981 -46.9059345573706 0.9575892860398  -77.1612718341908 
22.45                          0.974771104981175 168.559408297138 0.0167170457779849 -48.2405101973277 0.0167170457779849 -48.2405101973278 0.957523795525458 -78.2831763654576 
22.5                           0.975274296448657 167.254796697941 0.0162436044718604 -49.5651035375076 0.0162436044718604 -49.5651035375077 0.957457600815903 -79.4054078948907 
22.55                          0.975755174910712 165.970532470776 0.0157910996937904 -50.8801291062467 0.0157910996937904 -50.8801291062467 0.957390364753383 -80.5280051673777 
22.6                           0.976214739116831 164.705886451374 0.0153583834671954 -52.1859807022655 0.0153583834671953 -52.1859807022656 0.957321731620818 -81.6510026693818 
22.65                          0.976653935246605 163.460163620076 0.0149443822667643 -53.4830325278582 0.0149443822667643 -53.4830325278583 0.957251328229101 -82.7744308054358 
22.7                           0.977073659983995 162.23270117222  0.0145480914771112 -54.7716402469908 0.0145480914771112 -54.771640246991 0.957178764926946 -83.8983160607346 
22.75                          0.977474763396722 161.022866713546 0.0141685703122087 -56.0521419737629 0.0141685703122087 -56.052141973763 0.957103636545007 -85.0226811511275 
22.8                           0.977858051633735 159.830056571621 0.0138049371535709 -57.3248591962486 0.0138049371535709 -57.3248591962489 0.957025523284593 -86.1475451616943 
22.85                          0.978224289452837 158.65369421497  0.0134563652693017 -58.5900976403365 0.0134563652693016 -58.5900976403367 0.956943991560002 -87.2729236749815 
22.9                           0.978574202589708 157.493228772258 0.0131220788798327 -59.8481480778177 0.0131220788798327 -59.848148077818 0.956858594802421 -88.398828889879 
22.95                          0.978908479978836 156.348133644449 0.0128013495394963 -61.0992870826472 0.0128013495394963 -61.0992870826475 0.956768874232349 -89.5252697320308 
23                             0.979227775836101 155.217905203431 0.0124934928060537 -62.343777738991 0.0124934928060537 -62.3437777389912 0.956674359606644 -90.6522519565978 
