! Touchstone file exported from HFSS 3D Layout Design 2026.1.0
!        File:           D:/Work/SIM/ADS_AUTO_SIM/projects/RFSOC_RF/TX_Fillter.aedt
!        Generated:      12:49:11 AM Aug 31, 2026
!        Design:         TX_BAND1_MCFIL_R15_CNN049
!        Project:        TX_Fillter
!
# GHz S MA R 50.000000
! Terminal data exported
! Port[1] = Port1
! Port[2] = Port2
14                             0.972601557698287 -165.824947866191 0.00379867143936659 -178.513139966413 0.00379867143936659 -178.513139966413 0.973567414791227 -163.918358465583 
14.05                          0.972101247678021 -166.705496292665 0.00387323441043051 -178.921784953089 0.00387323441043052 -178.921784953089 0.973088115485742 -164.787434908934 
14.1                           0.971585251316971 -167.592327262714 0.0039513106970157 -179.311624209378 0.00395131069701573 -179.311624209378 0.972593967498982 -165.662385099629 
14.15                          0.971052809566367 -168.485639198435 0.00403316975555347 -179.682313012235 0.00403316975555349 -179.682313012236 0.972084251794152 -166.543389970286 
14.2                           0.970503114273957 -169.385640639636 0.00411910673256494 179.966455069144 0.00411910673256498 179.966455069143 0.971558202469642 -167.430639776501 
14.25                          0.969935304209248 -170.292550891123 0.00420944521464991 179.634941187942 0.00420944521464994 179.634941187941 0.971015002928389 -168.324334698204 
14.3                           0.969348460700678 -171.206600720444 0.00430454029441795 179.323353536727 0.00430454029441799 179.323353536726 0.970453781669075 -169.224685488328 
14.35                          0.968741602840209 -172.128033110799 0.00440478199050767 179.031838948679 0.0044047819905077 179.031838948678 0.969873607655249 -170.131914173264 
14.4                           0.968113682204849 -173.057104074322 0.00451059906474603 178.760473775674 0.00451059906474605 178.760473775673 0.969273485212538 -171.046254810058 
14.45                          0.967463577037891 -173.994083531525 0.00462246328512198 178.509254049402 0.00462246328512201 178.509254049401 0.968652348397349 -171.967954305858 
14.5                           0.96679008582479 -174.939256263339 0.00474089418971463 178.278084948079 0.00474089418971466 178.278084948077 0.968009054772629 -172.897273305752 
14.55                          0.96609192018958 -175.892922942894 0.00486646441417939 178.066769610619 0.0048664644141794 178.066769610618 0.967342378517171 -173.834487155833 
14.6                           0.965367697027246 -176.855401255035 0.00499980565404706 177.874997362387 0.0049998056540471 177.874997362385 0.966651002784474 -174.779886949127 
14.65                          0.964615929775362 -177.827027112455 0.00514161534315758 177.702331441415 0.00514161534315758 177.702331441414 0.965933511214918 -175.733780662909 
14.7                           0.963835018714136 -178.808155978407 0.00529266414131048 177.548196341029 0.0052926641413105 177.548196341028 0.96518837849082 -176.696494396983 
14.75                          0.963023240167559 -179.799164307119 0.00545380433801 177.411864913152 0.00545380433801002 177.411864913151 0.96441395980728 -177.668373723618 
14.8                           0.962178734459146 179.199548885606 0.00562597929541808 177.292445405315 0.00562597929541807 177.292445405314 0.963608479112343 -178.649785161175 
14.85                          0.961299492453154 178.18756030761  0.00581023407280694 177.188868632057 0.00581023407280693 177.188868632056 0.962770015947089 -179.641117784962 
14.9                           0.960383340485772 177.164420515674 0.00600772739751973 177.099875506295 0.00600772739751972 177.099875506295 0.961896490689508 179.357215009463 
14.95                          0.959427923459548 176.129651863182 0.00621974517442761 177.024005176302 0.00621974517442758 177.024005176301 0.960985647974274 178.344773573363 
15                             0.958430685837583 175.082746250201 0.00644771575798793 176.959584026875 0.00644771575798792 176.959584026875 0.960035038023085 177.321089882842 
15.05                          0.957388850230422 174.023162653435 0.00669322724930548 176.904715806746 0.00669322724930544 176.904715806745 0.959041995575833 176.285665205902 
15.1                           0.95629939321693 172.950324410629 0.00695804712633602 176.857273135706 0.00695804712633595 176.857273135705 0.95800361605998 175.237967533649 
15.15                          0.955159017978823 171.863616230609 0.00724414457006133 176.814890622304 0.00724414457006129 176.814890622304 0.956916728572485 174.177428747488 
15.2                           0.953964123255131 170.762380896363 0.00755371591492435 176.774959784233 0.00755371591492432 176.774959784232 0.955777865173237 173.10344149028  
15.25                          0.952710768034808 169.64591562419  0.0078892137302291 176.734625907736 0.00788921373022904 176.734625907735 0.954583225898421 172.0153557051   
15.3                           0.951394631300087 168.513468036973 0.0082533801332311 176.690786908996 0.00825338013323106 176.690786908996 0.95332863879334 170.912474800194 
15.35                          0.950010966005834 167.364231703939 0.00864928504746306 176.64009417035  0.00864928504746301 176.640094170351 0.952009514132738 169.794051392996 
15.4                           0.948554546326371 166.197341192816 0.00908037025535226 176.578955218956 0.00908037025535218 176.578955218956 0.950620791837364 168.659282579513 
15.45                          0.947019607014696 165.011866572925 0.00955050025712727 176.503537998262 0.00955050025712721 176.503537998262 0.949156880902081 167.507304667863 
15.5                           0.945399773492359 163.806807299419 0.0100640211441786 176.409776356969 0.0100640211441785 176.409776356969 0.947611589414929 166.337187306246 
15.55                          0.94368798101162 162.581085399495 0.0106258289315318 176.293376250745 0.0106258289315318 176.293376250744 0.945978043458225 165.14792692593  
15.6                           0.941876380893152 161.333537870903 0.0112414490796398 176.149822023466 0.0112414490796398 176.149822023466 0.944248592829032 163.938439408955 
15.65                          0.939956231427236 160.062908191432 0.0119171292809991 175.974382011837 0.0119171292809991 175.974382011838 0.942414701081064 162.707551878111 
15.7                           0.937917770515197 158.767836825378 0.0126599480052972 175.762112603557 0.0126599480052972 175.762112603557 0.940466816852886 161.453993493326 
15.75                          0.935750066496846 157.44685059943  0.0134779418039582 175.507859777343 0.0134779418039582 175.507859777343 0.938394222782178 160.17638512416  
15.8                           0.933440842828768 156.098350806435 0.014380254990668 175.206257063746 0.014380254990668 175.206257063746 0.936184857480266 158.873227752851 
15.85                          0.930976271309549 154.72059988185  0.0153773160623667 174.851718787311 0.0153773160623667 174.851718787311 0.933825105013635 157.542889447152 
15.9                           0.928340727343982 153.311706485696 0.0164810461336232 174.438427379782 0.0164810461336232 174.438427379782 0.931299545057581 156.183590728074 
15.95                          0.925516499239501 151.869608814689 0.0177051057595291 173.960313484586 0.0177051057595291 173.960313484586 0.928590655285923 154.793388146875 
16                             0.922483441661219 150.392055968471 0.0190651878565443 173.41102749709  0.0190651878565443 173.41102749709  0.925678455557779 153.370155881324 
16.05                          0.919218561046968 148.876587206042 0.0205793660393774 172.783901093683 0.0205793660393774 172.783901093683 0.922540080956468 151.911565169063 
16.1                           0.91569551789308 147.320508962508 0.0222685096187796 172.0718971855   0.0222685096187796 172.0718971855   0.91914926760337 150.415061424195 
16.15                          0.911884027240163 145.720869565757 0.0241567787898644 171.267546579723 0.0241567787898644 171.267546579723 0.915475731264729 148.877838945632 
16.2                           0.907749134278292 144.074431719228 0.0262722162083493 170.362869434775 0.0262722162083493 170.362869434775 0.911484413925835 147.296813243483 
16.25                          0.903250336617121 142.377643033826 0.0286474541937138 169.349279350988 0.0286474541937137 169.349279350988 0.907134567550176 145.668591215988 
16.3                           0.898340518325207 140.626605251156 0.0313205601352428 168.217467648609 0.0313205601352427 168.217467648609 0.902378637015704 143.989439756174 
16.35                          0.89296465332785 138.817043382238 0.0343360461009259 166.957265066053 0.0343360461009258 166.957265066053 0.897160895650515 142.25525393574  
16.4                           0.887058227375889 136.944276916108 0.0377460717188534 165.557477800971 0.0377460717188533 165.557477800971 0.891415776997081 140.461526830597 
16.45                          0.880545319218409 135.003196726194 0.041611871268306 164.00569458988  0.0416118712683059 164.00569458988  0.88506583596141 138.603324516737 
16.5                           0.873336274351199 132.988253622254 0.04600543504269 162.288061515762 0.0460054350426898 162.288061515762 0.878019262731874 136.675272087496 
16.55                          0.865324901894475 130.893468131992 0.051011468730816 160.389021686784 0.0510114687308158 160.389021686784 0.87016686675117 134.671560209318 
16.6                           0.856385132803486 128.712476774816 0.0567296382137627 158.291018249978 0.0567296382137625 158.291018249978 0.861378451481582 132.585987498487 
16.65                          0.846367106886461 126.438638920057 0.063277073172943 155.974162066127 0.0632770731729429 155.974162066127 0.851498524829305 130.412063033878 
16.7                           0.835092726982939 124.065241973722 0.0707910389617295 153.415870868867 0.0707910389617293 153.415870868867 0.840341355110565 128.143207402777 
16.75                          0.822350865887252 121.585863557116 0.0794315731730714 150.590496581891 0.0794315731730711 150.590496581891 0.827685523982948 125.773112468807 
16.8                           0.807892693516833 118.994980937668 0.0893836929196236 147.468974275712 0.0893836929196233 147.468974275712 0.813268406452141 123.296353375874 
16.85                          0.791428101855579 116.288964574102 0.100858472448692 144.018553718654 0.100858472448692 144.018553718654 0.796781522474452 120.709396280515 
16.9                           0.772625082531553 113.467658637784 0.114091823573086 140.202717373124 0.114091823573086 140.202717373124 0.777868604650697 118.012217855892 
16.95                          0.751115338381627 110.536838210577 0.129339150694874 135.981451866153 0.129339150694874 135.981451866153 0.756129714711098 115.210852087817 
17                             0.726511559390043 107.511930824738 0.146863226533176 131.312125264837 0.146863226533176 131.312125264837 0.731137029627106 112.321302036075 
17.05                          0.698444654873839 104.423458812036 0.166911840999466 126.151321255177 0.166911840999466 126.151321255177 0.702471062241362 109.375368575338 
17.1                           0.666632182598968 101.324586574155 0.189681563582376 120.458059948832 0.189681563582376 120.458059948832 0.669789559938318 106.428958534027 
17.15                          0.630990175555616 98.3006836743169 0.215265445479633 114.198813833567 0.215265445479633 114.198813833567 0.632943200354169 103.573100467708 
17.2                           0.591794848349882 95.4794235347153 0.243587342553897 107.354465251913 0.243587342553897 107.354465251913 0.592147900716267 100.946696911369 
17.25                          0.549880408949452 93.0367983882148 0.274335129154364 99.9286766808345 0.274335129154363 99.9286766808345 0.548205069906448 98.7470151009261 
17.3                           0.506816156838613 91.188800022551  0.306918015520386 91.9559979764287 0.306918015520386 91.9559979764287 0.502718998023336 97.2277520646034 
17.35                          0.464942315083781 90.1517755165249 0.340482019050699 83.5067493185977 0.340482019050699 83.5067493185977 0.458192538368506 96.665080105089  
17.4                           0.42709426156149 90.0555170866275 0.374009163173158 74.6852262012489 0.374009163173158 74.6852262012488 0.417812829219234 97.266515571563  
17.45                          0.395899713619873 90.8227015885759 0.406491839076627 65.6192144073024 0.406491839076627 65.6192144073024 0.384751493216533 99.0211932811328 
17.5                           0.372801818011365 92.0945756963935 0.437127567768368 56.4423076771174 0.437127567768368 56.4423076771174 0.36104812666439 101.573378163003 
17.55                          0.357351356010423 93.3124712092544 0.465456717027136 47.2742344202971 0.465456717027136 47.2742344202972 0.346640924804457 104.279182399576 
17.6                           0.347334593724278 93.9435617142685 0.491391451872936 38.2055687848875 0.491391451872936 38.2055687848876 0.339327406743333 106.485305787513 
17.65                          0.33966764125397 93.674851025084  0.51514074569165 29.2908644703082 0.515140745691649 29.2908644703082 0.335754976036016 107.806070273976 
17.7                           0.331390274990937 92.4460694501408 0.537079854556774 20.550290262564  0.537079854556774 20.5502902625641 0.332647112197744 108.185712767189 
17.75                          0.32023927298957 90.3687802613236 0.557618747580057 11.9769700272169 0.557618747580056 11.976970027217  0.327538103489621 107.793792493641 
17.8                           0.304775881376647 87.6365316046338 0.577103183424474 3.54656325402808 0.577103183424475 3.54656325402816 0.318947486642131 106.904513003934 
17.85                          0.28428313061771 84.4769150960255 0.595757800884534 -4.77349768480797 0.595757800884534 -4.77349768480792 0.306270147121927 105.830852700048 
17.9                           0.258617222951626 81.1490240952408 0.613666159454916 -13.0164397125242 0.613666159454916 -13.0164397125241 0.289618118763818 104.909797941966 
17.95                          0.228101380073004 77.9829323911789 0.630778531652911 -21.2106522015796 0.630778531652912 -21.2106522015795 0.269720245841427 104.515160638768 
18                             0.193496106292927 75.4799764224904 0.646939327291341 -29.37621049559  0.646939327291342 -29.37621049559  0.2479013600417  105.074387053266 
18.05                          0.156092063037766 74.5540390082077 0.661927811664978 -37.5232364523026 0.661927811664979 -37.5232364523026 0.22611543749634 107.056146542068 
18.1                           0.11811413153451 77.1702576926988 0.675506215750408 -45.6518994612222 0.675506215750409 -45.6518994612222 0.20694521420369 110.865473247709 
18.15                          0.0842040357480742 87.9736404059658 0.687468494522564 -53.75383213978  0.687468494522564 -53.75383213978  0.193357424413949 116.568829484842 
18.2                           0.0655500858807012 114.111740324269 0.697682130954333 -61.8146435051985 0.697682130954334 -61.8146435051985 0.187924461147105 123.529864749195 
18.25                          0.0751514504812178 144.131841093994 0.706115946136985 -69.8170887187388 0.706115946136985 -69.8170887187388 0.191642450949322 130.419702962128 
18.3                           0.103898086706888 158.67297240625  0.712849530733151 -77.7443684973655 0.712849530733152 -77.7443684973656 0.20335333998996 135.911280078921 
18.35                          0.137985054910165 162.608800771153 0.718064073362873 -85.5830449717832 0.718064073362873 -85.5830449717833 0.22047119377357 139.363746896442 
18.4                           0.171620357985042 161.756706805232 0.722018495880419 -93.3251888184121 0.722018495880419 -93.3251888184121 0.240197651511577 140.819334780716 
18.45                          0.202503778096548 158.599877069414 0.725017372706395 -100.96957433476 0.725017372706395 -100.96957433476 0.260241035900034 140.636030104563 
18.5                           0.22955675646336 154.197810099176 0.727377433868845 -108.521945089723 0.727377433868845 -108.521945089723 0.278973278535824 139.213152935265 
18.55                          0.25224327597069 149.046018452182 0.729397926569804 -115.994522879119 0.729397926569804 -115.994522879119 0.295337225060362 136.884333639804 
18.6                           0.270330920997399 143.391143270327 0.731337756773798 -123.40500154563 0.731337756773798 -123.40500154563 0.308706877438134 133.900198060352 
18.65                          0.283784283985772 137.356177101067 0.733400142201328 -130.775264375132 0.733400142201328 -130.775264375132 0.318769259714221 130.441073007109 
18.7                           0.292709001615951 130.995482091523 0.735724045053809 -138.130018002202 0.735724045053808 -138.130018002202 0.325439417748063 126.634577904209 
18.75                          0.29732198647568 124.320916390057 0.738381011744247 -145.495477279078 0.738381011744246 -145.495477279078 0.32880420747478 122.570400694972 
18.8                           0.297939235260491 117.314705848257 0.741376025280857 -152.898185570804 0.741376025280855 -152.898185570804 0.329087957884492 118.31077348491  
18.85                          0.294977250005215 109.935623452762 0.74465127061864 -160.364023034971 0.744651270618639 -160.364023034971 0.32663346751868 113.89682562892  
18.9                           0.288965496480863 102.121696919234 0.748092046663108 -167.917441694171 0.748092046663106 -167.917441694171 0.321892339764933 109.35115889892  
18.95                          0.280567592550404 93.7916897011698 0.751534229812634 -175.58096422733 0.751534229812632 -175.58096422733 0.31541895303796 104.676813710153 
19                             0.270608414992062 84.8480051456275 0.75477259179395 176.625016632802 0.754772591793949 176.625016632803 0.307862678277624 99.8527542099642 
19.05                          0.260102440221405 75.185199229833  0.757568886179931 168.68211118964  0.757568886179931 168.68211118964  0.299953939083546 94.8264133363251 
19.1                           0.250273981949034 64.7103962252329 0.759658045104982 160.573482927324 0.759658045104982 160.573482927324 0.292482239855511 89.5049882515287 
19.15                          0.242551226486058 53.3820692094223 0.76075030164781 152.283142068884 0.76075030164781 152.283142068884 0.286269049621191 83.7491240174193 
19.2                           0.238505870755567 41.2656376423918 0.760526930456256 143.795144278377 0.760526930456256 143.795144278377 0.282144769165013 77.3747887532458 
19.25                          0.239713012036859 28.5820001851619 0.758628026491117 135.092980179402 0.758628026491117 135.092980179402 0.280943284388899 70.1699837938944 
19.3                           0.247544129823036 15.7006286286855 0.754632797564612 126.159577711514 0.754632797564611 126.159577711514 0.283522827062222 61.9303902340794 
19.35                          0.262970477717178 3.04496092249321 0.748036644378685 116.978455340006 0.748036644378685 116.978455340006 0.290801780797095 52.5109489938346 
19.4                           0.286469199384822 -9.04811203249724 0.738234958138431 107.536598788919 0.73823495813843 107.536598788919 0.303766688582807 41.8798364666151 
19.45                          0.31803756809038 -20.4204176630149 0.724530285939596 97.8294818557272 0.724530285939595 97.8294818557271 0.323389492569781 30.151978258736  
19.5                           0.357224613231265 -31.0869425872142 0.706184397659321 87.8681633923453 0.706184397659319 87.8681633923452 0.350414833770883 17.5803072079797 
19.55                          0.403105227564795 -41.1636159675571 0.682533634824345 77.6874447797138 0.682533634824343 77.6874447797137 0.385055713359801 4.50241251821124 
19.6                           0.454221876956224 -50.7857054048259 0.653166565235306 67.3527714036008 0.653166565235305 67.3527714036007 0.426721998673882 -8.73148105458615 
19.65                          0.508593602951292 -60.0517942475142 0.618124983583812 56.9625168863863 0.618124983583812 56.9625168863862 0.473929373848271 -21.8136111386944 
19.7                           0.563880921484501 -69.0015359031351 0.578048670150585 46.6425971843342 0.578048670150586 46.6425971843341 0.524469577405284 -34.5009119480259 
19.75                          0.617707484760007 -77.6209242011627 0.534177048353205 36.532819147929  0.534177048353205 36.5328191479289 0.575804436075164 -46.6137522158753 
19.8                           0.668034582263216 -85.8633607002358 0.488173955808542 26.7682004857804 0.488173955808543 26.7682004857802 0.625541517499691 -58.0277302001683 
19.85                          0.713441898797148 -93.6742693805394 0.441831790638835 17.4612242609194 0.441831790638837 17.4612242609191 0.671817758453237 -68.6669804290081 
19.9                           0.75322126327259 -101.010153596443 0.396771204433133 8.69047050205409 0.396771204433134 8.69047050205372 0.713479158390109 -78.4987990233786 
19.95                          0.787291469517731 -107.84826421471 0.354237971878271 0.497739807600954 0.354237971878272 0.497739807600467 0.750053348850515 -87.5270617153511 
20                             0.816013287120575 -114.187806015879 0.315032511495598 -7.10781579567569 0.315032511495598 -7.10781579567624 0.781592143688093 -95.7836832321272 
20.05                          0.839991358191148 -120.045974251274 0.279545906268213 -14.1418283141169 0.279545906268213 -14.1418283141175 0.808476938974083 -103.319279403728 
20.1                           0.859916347005524 -125.452128389691 0.247851437691326 -20.6361780908643 0.247851437691326 -20.636178090865 0.831250040548484 -110.194643761034 
20.15                          0.876462992395874 -130.442267043606 0.219807514561215 -26.6316603397295 0.219807514561214 -26.6316603397301 0.8504962747155  -116.474063419367 
20.2                           0.890236692253495 -135.054755908451 0.195146656609225 -32.1725470616889 0.195146656609224 -32.1725470616895 0.866773143040392 -122.220723837323 
20.25                          0.901753540863701 -139.327457615083 0.173541645598246 -37.3029904610426 0.173541645598245 -37.3029904610433 0.880577104793039 -127.493940631176 
20.3                           0.911439805035178 -143.29603634676 0.154649580051687 -42.0648928896089 0.154649580051686 -42.0648928896095 0.892332665026241 -132.347760291882 
20.35                          0.919640845173343 -146.993110328466 0.138138438381253 -46.4968135606976 0.138138438381252 -46.4968135606981 0.902393975328364 -136.830477835402 
20.4                           0.926633413818094 -150.447956604968 0.123701313915003 -50.6335470938323 0.123701313915002 -50.6335470938327 0.911052234909771 -140.984711319082 
20.45                          0.932638111577986 -153.686544919142 0.111062650970848 -54.5061049894503 0.111062650970847 -54.5061049894506 0.918545011519681 -144.847779353767 
20.5                           0.937830544788225 -156.731748728527 0.0999796496161806 -58.1419184679778 0.09997964961618 -58.1419184679782 0.92506547881289 -148.452217311261 
20.55                          0.942350704414141 -159.603637213934 0.0902409721546021 -61.5651476470979 0.0902409721546018 -61.5651476470981 0.930770680049612 -151.826333325195 
20.6                           0.946310567784253 -162.319791199483 0.0816641037765742 -64.7970281205224 0.0816641037765738 -64.7970281205225 0.935788531461923 -154.994748951213 
20.65                          0.949800128550884 -164.895611379732 0.0740921813816162 -67.8562160230235 0.074092181381616 -67.8562160230237 0.940223575809309 -157.978896869233 
20.7                           0.952892120279724 -167.344603017004 0.067390754120086 -70.7591113450533 0.0673907541200859 -70.7591113450534 0.944161623512349 -160.797464410738 
20.75                          0.955645691918253 -169.678630588755 0.0614447207754168 -73.5201504229238 0.0614447207754168 -73.5201504229238 0.947673457434283 -163.466780935653 
20.8                           0.958109259704846 -171.908141098874 0.056155558067154 -76.1520649217597 0.056155558067154 -76.1520649217596 0.950817774211409 -166.001151918398 
20.85                          0.96032271983024 -174.042357512374 0.0514388784583305 -78.6661080887555 0.0514388784583307 -78.6661080887554 0.953643514687366 -168.413144830757 
20.9                           0.962319168224236 -176.089445052735 0.0472223147688043 -81.072250766598 0.0472223147688045 -81.0722507665979 0.956191710837253 -170.713832658554 
20.95                          0.964126241458681 -178.056653549728 0.0434437081033383 -83.3793503592131 0.0434437081033386 -83.3793503592132 0.958496952258123 -172.913000844295 
21                             0.96576716652024 -179.950439025695 0.0400495667143336 -85.5952960837377 0.040049566714334 -85.5952960837377 0.960588554090089 -175.019323012166 
21.05                          0.967261586575728 178.22343251472  0.0369937611853544 -87.7271336917049 0.0369937611853547 -87.7271336917049 0.962491490673081 -177.040510234965 
21.1                           0.968626213919836 176.459796444041 0.0342364226010457 -89.7811725547716 0.0342364226010461 -89.7811725547715 0.96422714514304 -178.983437970339 
21.15                          0.96987534912088 174.754013714627 0.0317430133238298 -91.7630776739075 0.0317430133238302 -91.7630776739077 0.965813914050296 179.145745809267 
21.2                           0.971021296133885 173.101905927031 0.0294835435835997 -93.6779488333791 0.0294835435836  -93.6779488333792 0.967267697406927 177.341528313013 
21.25                          0.972074696147453 171.499699585034 0.0274319107346432 -95.5303888059319 0.0274319107346435 -95.5303888059323 0.968602297842856 175.598952950322 
21.3                           0.973044797630738 169.943978120603 0.0255653414551069 -97.3245622336166 0.0255653414551073 -97.3245622336168 0.969829747350434 173.913551575307 
21.35                          0.973939676031588 168.431640497672 0.0238639202302788 -99.0642465624771 0.0238639202302791 -99.0642465624773 0.97096057608098 172.281286205064 
21.4                           0.974766413528862 166.95986539533  0.0223101901333904 -100.752876197718 0.0223101901333906 -100.752876197718 0.972004034552714 170.698498748859 
21.45                          0.975531246921497 165.526080132244 0.020888814205598 -102.393580865929 0.0208888142055982 -102.393580865929 0.972968278226218 169.1618675261   
21.5                           0.976239689964129 164.127933629259 0.0195862876724097 -103.989219018756 0.0195862876724099 -103.989219018756 0.973860521538062 167.668369551335 
21.55                          0.976896635099541 162.763272819771 0.0183906928583625 -105.542406984261 0.0183906928583626 -105.542406984262 0.97468716703059 166.215247730654 
21.6                           0.977506438491075 161.43012201141  0.0172914900180109 -107.055544464476 0.017291490018011 -107.055544464477 0.975453914080714 164.799982251822 
21.65                          0.978072991448101 160.126664780731 0.0162793384297487 -108.530836887193 0.0162793384297488 -108.530836887193 0.976165850840073 163.420265564833 
21.7                           0.978599780708075 158.851228047756 0.0153459430360071 -109.970315044003 0.0153459430360072 -109.970315044003 0.976827532297597 162.073980444639 
21.75                          0.97908993954717 157.602268031504 0.0144839226906457 -111.375852382653 0.0144839226906457 -111.375852382653 0.977443046820745 160.759180706807 
21.8                           0.979546291305809 156.378357832989 0.0136866967189427 -112.749180267907 0.0136866967189427 -112.749180267907 0.978016073091151 159.474074212716 
21.85                          0.979971386611454 155.178176430077 0.0129483870303081 -114.091901479645 0.0129483870303081 -114.091901479645 0.978549928998945 158.21700785588  
21.9                           0.980367535340259 154.000498900369 0.0122637334677472 -115.40550217847 0.0122637334677472 -115.40550217847 0.979047613778479 156.986454266917 
21.95                          0.980736834167598 152.844187714964 0.0116280204470019 -116.691362536511 0.0116280204470019 -116.691362536511 0.979511844441743 155.781000013297 
22                             0.981081190404359 151.70818496842  0.0110370132452758 -117.950766203422 0.0110370132452758 -117.950766203422 0.979945087382735 154.599335102332 
22.05                          0.981402342692877 150.591505429191 0.010486902555276 -119.184908754012 0.010486902555276 -119.184908754012 0.980349585877706 153.440243623216 
22.1                           0.981701879037138 149.493230310828 0.00997425613386914 -120.394905243861 0.00997425613386915 -120.39490524386 0.980727384085248 152.302595386951 
22.15                          0.981981252561512 148.412501677868 0.00949597655322823 -121.581796982095 0.0094959765532282 -121.581796982095 0.981080348051394 151.185338442495 
22.2                           0.982241795326814 147.348517411841 0.00904926421196419 -122.746557615798 0.00904926421196414 -122.746557615798 0.981410184143738 150.08749236407  
22.25                          0.982484730478991 146.300526672723 0.00863158488931355 -123.890098607947 0.00863158488931353 -123.890098607946 0.981718455271714 149.008142218599 
22.3                           0.982711182961877 145.267825799539 0.00824064123106471 -125.013274179926 0.00824064123106464 -125.013274179925 0.98200659519488 147.94643313433  
22.35                          0.982922188989257 144.249754601045 0.00787434764489579 -126.116885780407 0.00787434764489576 -126.116885780406 0.982275921175154 146.901565401898 
22.4                           0.983118704441574 143.245692993609 0.00753080815793419 -127.201686134336 0.00753080815793418 -127.201686134335 0.982527645190713 145.872790047955 
22.45                          0.983301612327767 142.255057948696 0.0072082968529066 -128.268382918916 0.00720829685290657 -128.268382918914 0.982762883897301 144.859404828999 
22.5                           0.983471729431997 141.277300717022 0.00690524055313182 -129.317642107496 0.0069052405531318 -129.317642107495 0.982982667495931 143.860750599577 
22.55                          0.98362981224773 140.311904300328 0.00662020347236522 -130.350091017166 0.00662020347236521 -130.350091017165 0.983187947643374 142.876208014651 
22.6                           0.983776562287062 139.358381145243 0.00635187358444687 -131.366321091393 0.00635187358444684 -131.366321091392 0.98337960452286 141.905194530753 
22.65                          0.983912630840947 138.416271036628 0.00609905050090861 -132.366890445221 0.00609905050090857 -132.36689044522 0.983558453176292 140.947161674782 
22.7                           0.984038623255623 137.485139170434 0.00586063467305935 -133.352326197231 0.00586063467305935 -133.352326197229 0.983725249185606 140.001592552954 
22.75                          0.984155102781757 136.564574388353 0.00563561775934692 -134.323126609535 0.00563561775934693 -134.323126609534 0.983880693779292 139.067999575575 
22.8                           0.984262594045372 135.654187558525 0.0054230740196116 -135.279763054655 0.0054230740196116 -135.279763054654 0.98402543843015 138.14592237611  
22.85                          0.98436158618323 134.753610088309 0.00522215261573414 -136.222681825871 0.00522215261573412 -136.222681825871 0.984160089001881 137.234925905411 
22.9                           0.984452535679934 133.86249255662  0.00503207071357279 -137.152305805826 0.0050320707135728 -137.152305805826 0.984285209494771 136.334598684128 
22.95                          0.984535868939293 132.980503454707 0.0048521072943576 -138.069036006439 0.00485210729435761 -138.069036006439 0.984401325434529 135.444551198149 
23                             0.984611984618518 132.107328025405 0.00468159759517424 -138.973252991817 0.00468159759517424 -138.973252991817 0.984508926942853 134.564414423569 
