! Touchstone file exported from HFSS 3D Layout Design 2026.1.0
!        File:           D:/Work/SIM/ADS_AUTO_SIM/projects/RFSOC_RF/TX_Fillter.aedt
!        Generated:      08:59:17 PM Aug 30, 2026
!        Design:         TX_BAND1_MCFIL_ALUMINA_BB_14_23G
!        Project:        TX_Fillter
!
# GHz S MA R 50.000000
! Terminal data exported
! Port[1] = Port1
! Port[2] = Port2
14                             0.970775742097937 -171.155663120021 0.00488445814331307 137.702878956056 0.00488445814331305 137.702878956055 0.968293435088488 79.3787834254023 
14.05                          0.970254325914082 -172.055598674401 0.00495382815754858 137.096457609004 0.00495382815754856 137.096457609004 0.968055940313777 78.4706499631115 
14.1                           0.969718085527942 -172.962194515622 0.00502587750335866 136.500409742762 0.00502587750335864 136.500409742761 0.967815633057558 77.5631385698215 
14.15                          0.969166406491372 -173.875645093737 0.00510076262844085 135.914781462149 0.00510076262844084 135.914781462149 0.967572423167055 76.656214727161  
14.2                           0.968598641034406 -174.796153241214 0.00517865093956041 135.339603945327 0.00517865093956038 135.339603945327 0.967326214276754 75.7498429627068 
14.25                          0.968014105836393 -175.723930624144 0.00525972168386165 134.774891862841 0.00525972168386163 134.774891862841 0.967076903454522 74.8439868118397 
14.3                           0.967412079619236 -176.659198222901 0.00534416690809262 134.220641689389 0.00534416690809259 134.220641689389 0.966824380818014 73.9386087766428 
14.35                          0.966791800546196 -177.602186844575 0.00543219250324462 133.676829906468 0.0054321925032446 133.676829906467 0.966568529118455 73.0336702816114 
14.4                           0.966152463407937 -178.553137669642 0.00552401934290858 133.143411094796 0.00552401934290855 133.143411094796 0.966309223288593 72.1291316259187 
14.45                          0.965493216575527 -179.512302835615 0.00561988452454333 132.620315916302 0.00561988452454331 132.620315916302 0.966046329951243 71.2249519319602 
14.5                           0.964813158697905 179.520053939341 0.00572004272385786 132.107448986455 0.00572004272385784 132.107448986454 0.965779706884433 70.321089089873  
14.55                          0.964111335118791 178.543656689593 0.00582476767363682 131.60468663883  0.00582476767363681 131.604686638829 0.965509202438719 69.4174996976983 
14.6                           0.963386733985279 177.558216488435 0.00593435377961283 131.111874585062 0.00593435377961279 131.111874585062 0.965234654901708 68.5141389968214 
14.65                          0.962638282017137 176.563430683795 0.00604911788742265 130.62882547466  0.00604911788742264 130.628825474659 0.964955891804244 67.6109608022917 
14.7                           0.961864839902309 175.558982078968 0.00616940121630785 130.155316360612 0.00616940121630782 130.155316360612 0.964672729162042 66.7079174275827 
14.75                          0.961065197280094 174.544538053645 0.00629557147705545 129.691086078241 0.00629557147705545 129.691086078241 0.964384970645814 65.8049596033116 
14.8                           0.960238067268901 173.519749620079 0.00642802519375778 129.235832546309 0.00642802519375777 129.235832546309 0.964092406672047 64.9020363893882 
14.85                          0.959382080490342 172.484250408653 0.00656719025133491 128.789210000977 0.0065671902513349 128.789210000977 0.963794813405632 63.9990950800104 
14.9                           0.95849577853556 171.437655576587 0.00671352869345598 128.350826174743 0.00671352869345598 128.350826174743 0.963491951664404 63.0960811008646 
14.95                          0.957577606813005 170.37956063281  0.00686753979856091 127.920239433975 0.00686753979856088 127.920239433975 0.963183565714388 62.1929378978216 
15                             0.956625906709334 169.309540171342 0.00702976346518635 127.496955889938 0.00702976346518634 127.496955889938 0.962869381943047 61.2896068163487 
15.05                          0.955638906986391 168.227146504685 0.00720078394180058 127.08042649935  0.00720078394180057 127.08042649935  0.962549107396169 60.3860269707735 
15.1                           0.954614714327383 167.131908187806 0.00738123394093324 126.670044171256 0.00738123394093323 126.670044171256 0.962222428162062 59.4821351024452 
15.15                          0.953551302934   166.023328422277 0.00757179918263764 126.265140897487 0.00757179918263763 126.265140897487 0.961889007584489 58.5778654257406 
15.2                           0.952446503063254 164.900883328967 0.00777322341835261 125.864984923855 0.00777322341835263 125.864984923855 0.961548484283177 57.6731494607429 
15.25                          0.951297988377866 163.764020076374 0.00798631399316073 125.468777978637 0.00798631399316072 125.468777978637 0.961200469957753 56.767915851303  
15.3                           0.95010326196683 162.61215485022  0.00821194801241772 125.075652573594 0.00821194801241774 125.075652573595 0.960844546947446 55.8620901670464 
15.35                          0.948859640872961 161.444670648258 0.00845107918792153 124.684669390663 0.00845107918792156 124.684669390663 0.960480265514879 54.955594687736  
15.4                           0.94756423894128 160.260914882368 0.00870474544939878 124.294814764541 0.00870474544939877 124.294814764542 0.960107140817533 54.0483481682256 
15.45                          0.946213947775539 159.060196767859 0.00897407741934523 123.904998267476 0.00897407741934526 123.904998267476 0.959724649524981 53.1402655820459 
15.5                           0.944805415559364 157.841784477515 0.00926030786343917 123.514050397597 0.0092603078634392 123.514050397598 0.959332226033518 52.2312578414475 
15.55                          0.943335023462634 156.60490203511  0.00956478224517195 123.120720366156 0.00956478224517203 123.120720366156 0.9589292582223  51.321231491488  
15.6                           0.941798859311922 155.34872592005  0.00988897053239457 122.723673971783 0.00988897053239462 122.723673971783 0.958515082686165 50.4100883754847 
15.65                          0.94019268815501 154.072381351152 0.0102344804256017 122.321491541564 0.0102344804256017 122.321491541564 0.958088979369896 49.4977252688607 
15.7                           0.938511919292364 152.774938213568 0.010603072203503 121.912665909143 0.010603072203503 121.912665909143 0.957650165516278 48.5840334780908 
15.75                          0.93675156928138 151.455406588113 0.0109966754113822 121.495600389316 0.0109966754113822 121.495600389316 0.957197788825707 47.668898401101  
15.8                           0.934906220340446 150.112731836987 0.0114174076526646 121.068606696636 0.0114174076526646 121.068606696636 0.956730919707689 46.7521990450902 
15.85                          0.932969973486888 148.745789193713 0.0118675957848711 120.629902742463 0.0118675957848711 120.629902742463 0.956248542483961 45.8338074973304 
15.9                           0.930936395633217 147.353377798091 0.0123497998687776 120.177610230627 0.0123497998687776 120.177610230627 0.955749545378277 44.9135883440575 
15.95                          0.928798459736144 145.934214108888 0.0128668402753405 119.709751956515 0.0128668402753406 119.709751956515 0.955232709098484 43.9913980321039 
16                             0.926548476938718 144.486924617716 0.0134218284202594 119.224248697871 0.0134218284202595 119.224248697871 0.954696693781192 43.0670841674463 
16.05                          0.924178019462633 143.0100377768   0.0140182016726317 118.718915567869 0.0140182016726317 118.71891556787  0.954140024026974 42.1404847443728 
16.1                           0.921677832789319 141.50197504107  0.0146597630740602 118.191457682045 0.0146597630740602 118.191457682045 0.953561071702975 41.2114272985281 
16.15                          0.919037735407455 139.961040910803 0.0153507266101734 117.639464970186 0.0153507266101734 117.639464970186 0.952958036128232 40.2797279767207 
16.2                           0.916246504092291 138.385411844666 0.0160957689006295 117.06040594215  0.0160957689006295 117.06040594215  0.952328921182532 39.345190516118  
16.25                          0.913291742307606 136.773123894259 0.0169000883195496 116.451620192346 0.0169000883195496 116.451620192346 0.95167150878938 38.4076051254015 
16.3                           0.910159728871164 135.122058889577 0.0177694727297533 115.810309400901 0.0177694727297533 115.810309400901 0.950983328114058 37.4667472607119 
16.35                          0.906835243483038 133.429928980077 0.0187103772154469 115.133526559692 0.0187103772154469 115.133526559692 0.950261619684513 36.5223762899606 
16.4                           0.903301365063683 131.694259307656 0.0197300134340115 114.418163117756 0.0197300134340115 114.418163117756 0.949503293480499 35.5742340405399 
16.45                          0.89953923806149 129.912368555687 0.0208364524835679 113.660933702185 0.020836452483568 113.660933702185 0.948704879838537 34.6220432279827 
16.5                           0.895527800939554 128.081347081878 0.0220387435047038 112.858358026534 0.0220387435047038 112.858358026534 0.947862471778907 33.6655057671679 
16.55                          0.891243469904643 126.198032302138 0.0233470506077506 112.00673954783  0.0233470506077506 112.00673954783  0.946971657066542 32.7043009739208 
16.6                           0.886659769558307 124.258980947944 0.0247728111462754 111.102140374359 0.0247728111462754 111.102140374359 0.946027437958954 31.7380836742808 
16.65                          0.881746900484766 122.260437771696 0.0263289188463053 110.140351858374 0.0263289188463053 110.140351858374 0.945024136158157 30.7664822526521 
16.7                           0.87647123179141 120.19830022463  0.0280299358490926 109.116860229751 0.0280299358490925 109.116860229751 0.943955279954905 29.7890966904415 
16.75                          0.870794704230382 118.068078583101 0.0298923383265283 108.026806538    0.0298923383265282 108.026806538    0.942813469916591 28.8054966763451 
16.8                           0.864674126699817 115.86485095635  0.0319348009653784 106.864940071187 0.0319348009653783 106.864940071187 0.941590218709048 27.8152199120159 
16.85                          0.858060345606549 113.583212580978 0.0341785262540916 105.625564313346 0.0341785262540916 105.625564313346 0.940275759744666 26.8177707978872 
16.9                           0.85089726275056 111.217218808118 0.0366476250796026 104.302474391236 0.0366476250796026 104.302474391236 0.938858818310488 25.8126197711343 
16.95                          0.843120673101869 108.760321241352 0.0393695555404138 102.888884855839 0.0393695555404138 102.888884855839 0.937326337663873 24.7992036919884 
17                             0.834656889224837 106.205296622647 0.0423756269224586 101.377346559463 0.0423756269224585 101.377346559463 0.935663151337822 23.7769278511299 
17.05                          0.825421114491682 103.544168346685 0.0457015751688824 99.7596513523357 0.0457015751688823 99.7596513523358 0.933851591683163 22.7451704209428 
17.1                           0.81531552327078 100.76812100043  0.0493882144337411 98.026723376889  0.049388214433741 98.0267233768891 0.931871023709178 21.7032905264722 
17.15                          0.804227004177107 97.8674092151292 0.0534821657107069 96.1684959532396 0.0534821657107068 96.1684959532396 0.929697292971635 20.6506416080643 
17.2                           0.792024524337733 94.83126360313   0.0580366569496899 94.173773535362  0.0580366569496898 94.1737735353621 0.927302077308945 19.5865924403201 
17.25                          0.778556082022629 91.647798979951  0.0631123778279671 92.0300791432197 0.063112377827967 92.0300791432198 0.924652135856576 18.5105591297856 
17.3                           0.763645237807918 88.3039339923308 0.068778353937024 89.7234892979551 0.068778353937024 89.7234892979552 0.921708456988568 17.4220527195714 
17.35                          0.747087260148864 84.7853375581864 0.0751127760063188 87.238461185394  0.0751127760063187 87.2384611853941 0.918425322890124 16.3207487716106 
17.4                           0.72864500468416 81.0764275712773 0.0822036749748628 84.5576610963599 0.0822036749748627 84.55766109636   0.914749337439755 15.2065875463388 
17.45                          0.708044790273523 77.1604633973741 0.0901492668282582 81.6618099025623 0.0901492668282581 81.6618099025624 0.91061851362434 14.0799161475937 
17.5                           0.684972771328217 73.0197995375922 0.0990576946559698 78.5295714202888 0.0990576946559697 78.5295714202889 0.90596159770729 12.9416870393083 
17.55                          0.659072679755123 68.636409852117  0.109045762453562 75.1375241646354 0.109045762453562 75.1375241646355 0.900697933924805 11.7937300235941 
17.6                           0.629946374655085 63.9928613406729 0.120236083790225 71.4602773095179 0.120236083790225 71.4602773095179 0.894738360812506 10.6391155890281 
17.65                          0.597159445710555 59.0740353953333 0.132751870634575 67.4708180388259 0.132751870634575 67.4708180388259 0.887987887482988 9.48262344604484 
17.7                           0.56025518690117 53.8701075620592 0.146708406388069 63.1412082341356 0.146708406388069 63.1412082341356 0.880351210751515 8.33131556497838 
17.75                          0.51878152048195 48.3817060670798 0.162200182843692 58.4437774204644 0.162200182843692 58.4437774204643 0.871742428615263 7.19517937924151 
17.8                           0.472336668354401 42.6290302540897 0.179282922068441 53.352971746467  0.179282922068441 53.352971746467  0.862100392755369 6.08774254800696 
17.85                          0.420640127244667 36.6687320710288 0.197950541035103 47.8479891059421 0.197950541035103 47.8479891059421 0.851410650711081 5.02645624302336 
17.9                           0.363635688575049 30.6277407500827 0.218108878289144 41.916219328968  0.218108878289144 41.916219328968  0.839733293107787 4.03250511676578 
17.95                          0.301635523024253 24.7796492981089 0.239550828084065 35.5572748651335 0.239550828084065 35.5572748651334 0.827232688194566 3.12957588235541 
18                             0.235535858315458 19.7486929994233 0.261940917180987 28.7870312382696 0.261940917180987 28.7870312382695 0.814200139317732 2.34112098176558 
18.05                          0.167274433742105 17.1932542893611 0.284819666929448 21.6406729978924 0.284819666929448 21.6406729978923 0.801055721786983 1.68597315616836 
18.1                           0.101705128124617 22.8812975607291 0.307636597429623 14.173466413738  0.307636597429623 14.1734664137379 0.788315089670142 1.17293515074796 
18.15                          0.0595963258605029 59.3100417412129 0.329813219276529 6.45815129432509 0.329813219276529 6.45815129432502 0.7765157760517  0.796014776074144 
18.2                           0.0860556293554452 105.203642578337 0.350824943175273 -1.42134760350692 0.350824943175273 -1.42134760350694 0.766115954073457 0.532622561570585 
18.25                          0.143078582257568 114.21512700024  0.370279629138586 -9.37892518166374 0.370279629138586 -9.37892518166377 0.757397846893192 0.346422982514682 
18.3                           0.200845678170176 111.469834366307 0.387968506164634 -17.3359423303472 0.387968506164633 -17.3359423303472 0.750412852971026 0.194492421235733 
18.35                          0.25317697969919 104.982499776425 0.403875396041873 -25.229154777617 0.403875396041872 -25.229154777617 0.744988405831616 0.0362046379271417 
18.4                           0.298098277338764 96.8867465691271 0.418146754399042 -33.0152914624756 0.418146754399042 -33.0152914624756 0.740787896486619 -0.159466959292407 
18.45                          0.334919838190927 87.9339897051095 0.431037965803565 -40.6719231374456 0.431037965803565 -40.6719231374456 0.73739459368465 -0.410305460402382 
18.5                           0.363608456416231 78.4295557741307 0.442854639344431 -48.1953711956402 0.442854639344431 -48.1953711956402 0.734389318171213 -0.720903898514249 
18.55                          0.384522572976184 68.4947338412115 0.45390275263006 -55.5969191705819 0.453902752630061 -55.5969191705819 0.731404449678888 -1.08507316190709 
18.6                           0.398250337259508 58.1601165782757 0.464453717003694 -62.8985223547786 0.464453717003694 -62.8985223547786 0.728151607490752 -1.48902650235745 
18.65                          0.405504413194269 47.4051795294143 0.474724188790547 -70.1288375019197 0.474724188790547 -70.1288375019197 0.724429300739049 -1.91425807431153 
18.7                           0.407059524619368 36.1771371134973 0.484867259889839 -77.3199838749218 0.484867259889839 -77.3199838749219 0.720119199761974 -2.3396623874101 
18.75                          0.40372272498183 24.4005186143451 0.494970968923318 -84.5051420962462 0.494970968923318 -84.5051420962462 0.715178169776448 -2.74288123956613 
18.8                           0.396327151703262 11.9822067228428 0.505060690025785 -91.7169253147568 0.505060690025784 -91.7169253147568 0.709630595474246 -3.10107071223051 
18.85                          0.385741357622617 -1.18557245893356 0.515102928930833 -98.9863859377052 0.515102928930833 -98.9863859377052 0.703563306947554 -3.39133310747935 
18.9                           0.372887994740298 -15.222436652727 0.525008890428563 -106.342505330631 0.525008890428562 -106.342505330631 0.697124006766576 -3.59104668055611 
18.95                          0.358766893773823 -30.2551408228716 0.534636740088696 -113.812016868711 0.534636740088695 -113.812016868711 0.690523349124263 -3.67830912549226 
19                             0.344477595011969 -46.4081929067552 0.54379183741043 -121.419411768928 0.543791837410429 -121.419411768928 0.684040381812289 -3.63271823911274 
19.05                          0.331234151153508 -63.7862313880646 0.552224546087804 -129.186961912448 0.552224546087803 -129.186961912448 0.678030504109668 -3.43674981071596 
19.1                           0.320359824877388 -82.4450192220537 0.559625762980514 -137.134564454608 0.559625762980513 -137.134564454607 0.672933951555009 -3.07803506708808 
19.15                          0.31324265054742 -102.352052500581 0.565621296550089 -145.27917957014 0.565621296550089 -145.27917957014 0.669280663385952 -2.55281989959195 
19.2                           0.311231905692432 -123.347994717341 0.569767851591812 -153.633617070957 0.569767851591812 -153.633617070957 0.667684112742996 -1.87067593743428 
19.25                          0.315472931002992 -145.132644075569 0.571555602120041 -162.204465634869 0.571555602120041 -162.204465634869 0.668813110908467 -1.05995910388955 
19.3                           0.326716822412205 -167.298573453506 0.57042462075963 -170.989097875289 0.57042462075963 -170.989097875289 0.673329306438763 -0.17249552501507 
19.35                          0.34517475499204 170.591439947864 0.565803415450984 -179.971970408062 0.565803415450985 -179.971970408062 0.681783537201531 0.71518559465719 
19.4                           0.370472703828515 148.921991439898 0.557175265514831 170.879127429583 0.557175265514832 170.879127429583 0.694480368262606 1.50713123999528 
19.45                          0.4017077442719  127.979165506349 0.544169758303599 161.615743495    0.5441697583036  161.615743495    0.711344918142524 2.10119352639691 
19.5                           0.43756959737753 107.950047833874 0.526663150675403 152.30894894689  0.526663150675404 152.30894894689  0.731845977951908 2.40782932716575 
19.55                          0.476496767991054 88.9472010086678 0.504857374019479 143.045911672058 0.50485737401948 143.045911672058 0.75502446099078 2.36815427506176 
19.6                           0.516852787029836 71.0347640322567 0.479303846101614 133.922712425271 0.479303846101615 133.922712425271 0.779637923410021 1.964162266791   
19.65                          0.557104859853031 54.2452090073471 0.450852670030217 125.03466453984  0.450852670030217 125.03466453984  0.804378605476972 1.2176128426089  
19.7                           0.595973886509386 38.5868407380216 0.420536439360348 116.466489618464 0.420536439360347 116.466489618464 0.828089333169546 0.179512517330803 
19.75                          0.632524646532149 24.0464617425637 0.389424306205474 108.284790450918 0.389424306205474 108.284790450918 0.849910235012673 -1.0844218422402 
19.8                           0.666183872530364 10.5912087722388 0.358489859514512 100.534290898378 0.358489859514512 100.534290898378 0.8693291537151  -2.50699556748048 
19.85                          0.696698399683541 -1.82850636955197 0.328523327464184 93.2379051541862 0.328523327464184 93.2379051541861 0.886150388500128 -4.02849928593364 
19.9                           0.72406000356783 -13.274814238773 0.30009627352829 86.3996213476384 0.300096273528289 86.3996213476384 0.900417935231368 -5.6009887873361 
19.95                          0.748423486444103 -23.8176924097812 0.273569008574991 80.0088017045637 0.27356900857499 80.0088017045637 0.912328449492431 -7.18898709856818 
20                             0.770035598609631 -33.530570187666 0.249123499174948 74.0446976339677 0.249123499174947 74.0446976339677 0.922156313267709 -8.76810963420934 
20.05                          0.78918207364792 -42.4867535440525 0.226805818665765 68.4804270321477 0.226805818665765 68.4804270321477 0.930199494591138 -10.3228477430334 
20.1                           0.806152778056559 -50.7568482724009 0.206567384663603 63.2860931435819 0.206567384663603 63.2860931435819 0.93674579271792 -11.8442851030489 
20.15                          0.821221471886266 -58.4071192273349 0.188299574553762 58.4310191027862 0.188299574553762 58.4310191027862 0.942055007206403 -13.3281236607863 
20.2                           0.834635870581503 -65.498607352593 0.171860132065515 53.8852232895    0.171860132065515 53.8852232895    0.946351863289634 -14.7731375580766 
20.25                          0.846614251646596 -72.086799889225 0.157091899915439 49.6203096578522 0.157091899915438 49.6203096578521 0.949825377685192 -16.1800383915427 
20.3                           0.85734582828051 -78.2216709056306 0.14383528746198 45.6099402100933 0.14383528746198 45.6099402100932 0.952631604373028 -17.5506810171052 
20.35                          0.86699304206339 -83.947948685874 0.131936033128924 41.8300267643681 0.131936033128924 41.8300267643679 0.954897819590774 -18.8875287533622 
20.4                           0.875694642888829 -89.3055066389804 0.121249636719988 38.258744758399  0.121249636719988 38.2587447583988 0.956727028459375 -20.1933058523883 
20.45                          0.883568915391566 -94.3298080426798 0.111643545244094 34.8764414573962 0.111643545244094 34.8764414573961 0.958202215661828 -21.4707801196307 
20.5                           0.890716722183066 -99.0523603698219 0.102997889585782 31.6654871882725 0.102997889585782 31.6654871882723 0.959390088185214 -22.7226333526638 
20.55                          0.897224218959488 -103.50115291472 0.0952053314459376 28.6101009428353 0.0952053314459375 28.610100942835  0.960344239792612 -23.9513895397908 
20.6                           0.903165199539316 -107.701063505272 0.0881703988355006 25.6961697129633 0.0881703988355006 25.6961697129631 0.961107759383047 -25.1593801024126 
20.65                          0.908603081989532 -111.674227845773 0.0818085577694369 22.9110729117905 0.0818085577694368 22.9110729117903 0.961715346108826 -26.3487322242576 
20.7                           0.913592571155905 -115.440369806269 0.0760451770645979 20.2435180422274 0.0760451770645978 20.2435180422272 0.962195006622503 -27.5213710404241 
20.75                          0.918181041129727 -119.01709375217 0.0708144818840405 17.6833905058345 0.0708144818840404 17.6833905058342 0.962569408141167 -28.6790296929598 
20.8                           0.922409681181651 -122.420141498805 0.0660585512994774 15.2216184555896 0.0660585512994773 15.2216184555894 0.962856953068835 -29.8232634325518 
20.85                          0.926314444877853 -125.663617161816 0.0617263891477888 12.8500524371383 0.0617263891477887 12.850052437138  0.963072630950536 -30.9554653854333 
20.9                           0.929926836867767 -128.760183374889 0.0577730811380665 10.5613589320669 0.0577730811380664 10.5613589320666 0.963228693657747 -32.076882546275 
20.95                          0.933274566435547 -131.721232267739 0.0541590412417011 8.34892661358266 0.054159041241701 8.34892661358232 0.963335190856954 -33.1886311659211 
21                             0.936382091921429 -134.557034369837 0.0508493446304103 6.20678401986014 0.0508493446304101 6.2067840198598  0.963400395300651 -34.2917110897564 
21.05                          0.939271075771465 -137.276868309232 0.0478131413132791 4.12952736018446 0.047813141313279 4.12952736018416 0.963431141303767 -35.3870188441438 
21.1                           0.941960766307285 -139.889133858873 0.0450231431695505 2.11225724166671 0.0450231431695504 2.11225724166637 0.963433094793014 -36.4753594154501 
21.15                          0.944468319278278 -142.401450572327 0.042455176629249 0.150523207542944 0.0424551766292488 0.150523207542574 0.963410969361089 -37.5574567522977 
21.2                           0.94680906978734 -144.820743961206 0.0400877933994205 -1.75972490749531 0.0400877933994204 -1.75972490749561 0.963368699639574 -38.6339630689935 
21.25                          0.948996763181156 -147.153320904546 0.0379019321030809 -3.62217968508086 0.0379019321030808 -3.62217968508115 0.96330958085964 -39.7054670510742 
21.3                           0.95104375188419 -149.404935747916 0.0358806243242363 -5.44021366596312 0.0358806243242362 -5.44021366596342 0.963236381558813 -40.7725010719942 
21.35                          0.952961163859299 -151.580848346507 0.0340087392339226 -7.21691240067632 0.0340087392339225 -7.2169124006766 0.963151434900891 -41.8355475292424 
21.4                           0.95475904733586 -153.685875129875 0.0322727616493415 -8.95510359224681 0.0322727616493413 -8.95510359224711 0.963056712912668 -42.8950444024773 
21.45                          0.956446495607911 -155.724434113807 0.0306605990176377 -10.6573828367913 0.0306605990176376 -10.6573828367915 0.962953887033158 -43.9513901280565 
21.5                           0.958031755029043 -157.700584654114 0.0291614134010989 -12.326136399403 0.0291614134010988 -12.3261363994032 0.962844377661301 -45.0049478751149 
21.55                          0.959522318784807 -159.618062625261 0.0277654750651673 -13.9635614032773 0.0277654750651672 -13.9635614032774 0.962729394832739 -46.0560492990019 
21.6                           0.960925008580939 -161.480311611124 0.0264640347342603 -15.5716837586443 0.0264640347342602 -15.5716837586446 0.962609971720466 -47.1049978389536 
21.65                          0.962246046026128 -163.290510613519 0.0252492119859946 -17.1523741138001 0.0252492119859945 -17.1523741138003 0.962486992311597 -48.152071618607 
21.7                           0.963491115194533 -165.051598714387 0.0241138976067496 -18.7073620724317 0.0241138976067495 -18.7073620724319 0.962361214342471 -49.1975260004808 
21.75                          0.964665417613129 -166.766297067988 0.0230516680360007 -20.2382488887097 0.0230516680360006 -20.2382488887098 0.962233288360859 -50.2415958388889 
21.8                           0.965773720721454 -168.437128548536 0.0220567102890856 -21.7465188234973 0.0220567102890856 -21.7465188234974 0.962103773614873 -51.284497469872 
21.85                          0.966820400688477 -170.066435335178 0.0211237559733194 -23.2335493208784 0.0211237559733193 -23.2335493208784 0.9619731513337  -52.3264304715999 
21.9                           0.967809480336485 -171.656394678914 0.0202480232055614 -24.7006201434325 0.0202480232055614 -24.7006201434326 0.961841835858075 -53.3675792242193 
21.95                          0.968744662809702 -173.209033064091 0.0194251654048609 -26.1489215868303 0.0194251654048609 -26.1489215868304 0.961710183992659 -54.4081142942499 
22                             0.969629361531916 -174.726238949601 0.0186512260755617 -27.5795618789296 0.0186512260755617 -27.5795618789296 0.96157850288375 -55.4481936652775 
22.05                          0.970466726919053 -176.209774251342 0.0179225988176368 -28.9935738552921 0.0179225988176367 -28.993573855292 0.961447056670439 -56.4879638337991 
22.1                           0.97125967024681 -177.661284707076 0.0172359919050105 -30.3919209915781 0.0172359919050105 -30.391920991578 0.961316072112671 -57.5275607865834 
22.15                          0.972010885018068 -179.082309247315 0.0165883968617373 -31.7755028633773 0.0165883968617373 -31.7755028633773 0.961185743363608 -58.5671108737558 
22.2                           0.9727228661278  179.525711519364 0.0159770605423357 -33.1451600954465 0.0159770605423357 -33.1451600954463 0.961056236024339 -59.6067315899682 
22.25                          0.973397927083391 178.161427611313 0.0153994602881837 -34.5016788548847 0.0153994602881837 -34.5016788548845 0.960927690595166 -60.6465322744135 
22.3                           0.974038215504387 176.823572685251 0.0148532817882502 -35.8457949363112 0.0148532817882502 -35.8457949363111 0.960800225418201 -61.6866147390689 
22.35                          0.974645727096716 175.510957680227 0.0143363993209295 -37.1781974814755 0.0143363993209295 -37.1781974814752 0.960673939190089 -62.7270738333602 
22.4                           0.975222318271632 174.222465028778 0.0138468580955084 -38.4995323708245 0.0138468580955084 -38.4995323708243 0.960548913110604 -63.7679979524152 
22.45                          0.975769717558347 172.957043377525 0.0133828584478033 -39.8104053202681 0.0133828584478033 -39.8104053202678 0.960425212722068 -64.8094694951823 
22.5                           0.976289535940947 171.713702765981 0.0129427416756015 -41.1113847126257 0.0129427416756015 -41.1113847126254 0.960302889485719 -65.851565277921 
22.55                          0.976783276234395 170.491510218138 0.0125249773264183 -42.4030041899609 0.0125249773264183 -42.4030041899606 0.960181982133738 -66.8943569079051 
22.6                           0.977252341600666 169.289585706413 0.0121281517733593 -43.685765030119 0.0121281517733592 -43.6857650301186 0.960062517829623 -67.9379111215985 
22.65                          0.977698043294227 168.10709845198  0.0117509579350491 -44.9601383282499 0.0117509579350491 -44.9601383282496 0.959944513164482 -68.9822900910588 
22.7                           0.978121607715683 166.943263529395 0.011392186013108 -46.2265670018675 0.011392186013108 -46.2265670018672 0.95982797501262 -70.0275517018875 
22.75                          0.978524182843424 165.797338746863 0.0110507151358842 -47.4854676360212 0.0110507151358842 -47.4854676360209 0.959712901266248 -71.0737498056596 
22.8                           0.97890684410524 164.668621776509 0.0107255058104083 -48.7372321834215 0.0107255058104083 -48.7372321834211 0.959599281466228 -72.1209344494339 
22.85                          0.979270599744952 163.556447511699 0.0104155930960936 -49.9822295328193 0.0104155930960936 -49.982229532819 0.959487097343234 -73.1691520846529 
22.9                           0.979616395733101 162.46018563082  0.0101200804237985 -51.2208069575712 0.0101200804237985 -51.220806957571 0.959376323281671 -74.2184457574813 
22.95                          0.979945120265405 161.379238349018 0.00983813399268663 -52.4532914551187 0.00983813399268662 -52.4532914551186 0.959266926716918 -75.2688552824137 
23                             0.980257607888014 160.313038341261 0.00956897768504568 -53.6799909870257 0.00956897768504565 -53.6799909870256 0.95915886847496 -76.3204174007787 
