! Touchstone file exported from HFSS 3D Layout Design 2026.1.0
!        File:           D:/Work/SIM/ADS_AUTO_SIM/projects/RFSOC_RF/TX_Fillter.aedt
!        Generated:      11:01:02 PM Aug 30, 2026
!        Design:         TX_BAND1_MCFIL_R5_CNN027
!        Project:        TX_Fillter
!
# GHz S MA R 50.000000
! Terminal data exported
! Port[1] = Port1
! Port[2] = Port2
14                             0.965931773671522 178.74424348175  0.00519154635565061 175.314479991149 0.00519154635565059 175.314479991149 0.966377996450247 178.212516729017 
14.05                          0.965253670291169 177.737328787897 0.00531593732467819 174.891282880923 0.00531593732467823 174.891282880923 0.96570725942886 177.222617475311 
14.1                           0.9645534263304  176.721644436464 0.0054469441356462 174.481818217043 0.00544694413564624 174.481818217043 0.965014251666846 176.224145392014 
14.15                          0.963829961482385 175.696897417472 0.00558508261889188 174.085849822398 0.00558508261889191 174.085849822397 0.964297867743215 175.216806737238 
14.2                           0.963082125141973 174.662780038215 0.00573091652636092 173.703067413175 0.00573091652636098 173.703067413175 0.963556929175178 174.200292854248 
14.25                          0.962308690661179 173.618968994301 0.00588506245627538 173.333079567561 0.00588506245627543 173.33307956756  0.962790178360347 173.174279211433 
14.3                           0.961508349035758 172.565124368403 0.00604819532291956 172.975406476683 0.00604819532291959 172.975406476682 0.961996271911176 172.138424366068 
14.35                          0.960679701956281 171.500888549946 0.00622105443723011 172.629472536065 0.00622105443723016 172.629472536064 0.961173773309777 171.092368844598 
14.4                           0.959821254148135 170.425885068272 0.00640445027283593 172.294598846603 0.00640445027283596 172.294598846603 0.960321144801397 170.035733931399 
14.45                          0.958931404914453 169.339717330942 0.00659927200257661 171.969995704625 0.00659927200257665 171.969995704625 0.959436738433527 168.968120357023 
14.5                           0.958008438783956 168.241967257954 0.00680649590259161 171.654755170373 0.00680649590259165 171.654755170373 0.958518786134481 167.88910687594  
14.55                          0.957050515151741 167.132193801586 0.00702719473511623 171.347843812667 0.00702719473511626 171.347843812667 0.95756538871004 166.798248722628 
14.6                           0.956055656784832 166.009931340393 0.00726254823750507 171.048095733989 0.00726254823750507 171.048095733989 0.956574503619087 165.69507593355  
14.65                          0.955021737045476 164.874687934563 0.00751385486414961 170.754205983931 0.0075138548641496 170.754205983931 0.955543931368492 164.579091521093 
14.7                           0.953946465663113 163.725943428345 0.00778254495036719 170.464724469241 0.00778254495036718 170.464724469241 0.954471300343443 163.449769483855 
14.75                          0.952827372860222 162.563147383527 0.00807019549360353 170.178050464742 0.00807019549360354 170.178050464742 0.953354049861184 162.306552635781 
14.8                           0.951661791607029 161.385716826061 0.00837854677811096 169.892427820562 0.00837854677811095 169.892427820561 0.952189411203024 161.148850234482 
14.85                          0.950446837744543 160.193033785713 0.00870952110546911 169.605940946778 0.0087095211054691 169.605940946777 0.950974386340549 159.976035386632 
14.9                           0.949179387673557 158.984442606174 0.00906524393588189 169.316511636308 0.00906524393588188 169.316511636308 0.949705724025982 158.787442205541 
14.95                          0.947856053257774 157.759247000231 0.00944806779527882 169.021896760481 0.00944806779527879 169.021896760481 0.948379892862357 157.582362692835 
15                             0.946473153530652 156.516706821464 0.00986059936225373 168.719686839155 0.00986059936225372 168.719686839155 0.946993050904746 156.360043312551 
15.05                          0.945026682725946 155.256034520275 0.0103057302184269 168.407305448928 0.0103057302184269 168.407305448928 0.945541011267206 155.119681221854 
15.1                           0.943512274069068 153.976391248013 0.0107866718278837 168.082009389382 0.0107866718278837 168.082009389381 0.94401920311893 153.86042011788  
15.15                          0.941925158667391 152.676882568303 0.0113069954082548 167.740889479415 0.0113069954082548 167.740889479415 0.942422627343986 152.581345654867 
15.2                           0.940260118719133 151.356553729475 0.011870677470561 167.380871804594 0.011870677470561 167.380871804594 0.940745806008442 151.281480379684 
15.25                          0.938511434118144 150.014384446067 0.0124821519404826 166.998719183393 0.0124821519404825 166.998719183393 0.93898272462174 149.959778126953 
15.3                           0.936672821360694 148.649283130787 0.0131463699342331 166.591032566595 0.013146369934233 166.591032566595 0.937126765990099 148.615117807144 
15.35                          0.934737363453621 147.260080510879 0.0138688684524887 166.154252031192 0.0138688684524887 166.154252031192 0.935170634231457 147.24629651224  
15.4                           0.93269742927312 145.845522554627 0.0146558494815366 165.684656979119 0.0146558494815366 165.684656979119 0.933106267245027 145.852021853635 
15.45                          0.930544580520079 144.404262624738 0.0155142712587161 165.178365102751 0.0155142712587161 165.178365102751 0.930924735593028 144.430903435909 
15.5                           0.928269464049127 142.934852765503 0.0164519537773142 164.63132963375  0.0164519537773142 164.631329633749 0.928616125343953 142.981443357967 
15.55                          0.925861686899256 141.435734020327 0.0174777009836733 164.039334349351 0.0174777009836733 164.039334349351 0.926169401929145 141.502025619746 
15.6                           0.923309670805553 139.905225665494 0.0186014425671895 163.397985769815 0.0186014425671895 163.397985769814 0.923572251456498 139.990904298657 
15.65                          0.920600482301356 138.341513235655 0.0198343987744014 162.702701941036 0.0198343987744014 162.702701941036 0.920810895181465 138.446190345335 
15.7                           0.917719633699922 136.742635207205 0.0211892723051119 161.948697155377 0.0211892723051119 161.948697155377 0.917869871924559 136.865836834125 
15.75                          0.914650849240732 135.106468199    0.0226804720859296 161.130961919009 0.0226804720859296 161.130961919008 0.9147317821081  135.247622491093 
15.8                           0.911375789456773 133.430710547952 0.0243243745791663 160.244237422757 0.0243243745791663 160.244237422757 0.911376985716861 133.589133313478 
15.85                          0.90787372531754 131.71286412341  0.0261396292851488 159.282983712563 0.0261396292851488 159.282983712562 0.907783244812681 131.887742092552 
15.9                           0.904121151872691 129.950214264242 0.0281475162410405 158.241340682719 0.0281475162410405 158.241340682719 0.903925299188634 130.140585662107 
15.95                          0.900091328902306 128.139807764294 0.0303723646058764 157.113080928041 0.0303723646058764 157.113080928041 0.899774361263154 128.344539725154 
16                             0.895753733409617 126.278428907761 0.0328420428265874 155.891553389944 0.0328420428265874 155.891553389945 0.89529751331482 126.496191174176 
16.05                          0.891073405617274 124.362573684555 0.0355885323454842 154.569616618555 0.0355885323454843 154.569616618555 0.890456986577237 124.591807934303 
16.1                           0.886010166422068 122.388422525262 0.0386485982194599 153.13956035574  0.03864859821946 153.13956035574  0.88520929750891 122.627306552556 
16.15                          0.880517680060444 120.351812228025 0.0420645711617144 151.593014037185 0.0420645711617145 151.593014037185 0.879504211745097 120.598218073718 
16.2                           0.874542331195232 118.248208269827 0.0458852560180801 149.920840742178 0.0458852560180801 149.920840742178 0.873283500972134 118.499653250599 
16.25                          0.86802188113948 116.072679498283 0.0501669809322278 148.113015133762 0.0501669809322279 148.113015133762 0.866479452622015 116.326268934699 
16.3                           0.860883864283302 113.819878432086 0.0549747984253757 146.158484105031 0.0549747984253758 146.158484105031 0.859013087677892 114.072238735556 
16.35                          0.85304368449853 111.484032275377 0.0603838426985725 144.045009301781 0.0603838426985726 144.045009301781 0.850792039574866 111.731232956052 
16.4                           0.844402375097314 109.058952597305 0.0664808341220665 141.758991619583 0.0664808341220667 141.758991619582 0.841708050029718 109.296415757771 
16.45                          0.834843999581455 106.538075921929 0.07336569820912 139.285279472485 0.0733656982091201 139.285279472485 0.831634050650665 106.760472013653 
16.5                           0.824232702014804 103.914553916566 0.0811532265410896 136.606965552002 0.0811532265410899 136.606965552002 0.820420830904183 104.115683153592 
16.55                          0.81240947869213 101.181421465158 0.0899746426528412 133.705181605121 0.0899746426528414 133.705181605121 0.807893357598139 101.354081665595 
16.6                           0.799188858137886 98.3318850692081 0.0999788351208389 130.558908407797 0.0999788351208391 130.558908407797 0.793846931207308 98.4677294640507 
16.65                          0.784355877031565 95.3597945876265 0.111332868133741 127.144829874959 0.111332868133742 127.144829874959 0.778043575256829 95.4491884421481 
16.7                           0.767664072867552 92.2603905468681 0.124221160389615 123.437277700124 0.124221160389616 123.437277700124 0.760209408054522 92.2922853519822 
16.75                          0.748835742818781 89.0314593195642 0.138842424628025 119.408337649963 0.138842424628025 119.408337649963 0.740034310512958 88.9933215950322 
16.8                           0.727566511814216 85.6750802864522 0.155403090073577 115.028221488164 0.155403090073577 115.028221488164 0.717176058896107 85.5529455761097 
16.85                          0.703537355530469 82.2002092867501 0.174105544820866 110.266047805371 0.174105544820866 110.266047805372 0.691272296080289 81.9789933113636 
16.9                           0.676438576178312 78.6263972275073 0.195129289893099 105.091213332161 0.195129289893099 105.091213332162 0.661965231514111 78.2907083235478 
16.95                          0.64601151018815 74.9889547454145 0.218603312250018 99.4755552261343 0.218603312250019 99.4755552261344 0.62894550131165 74.524855646443  
17                             0.612114127014244 71.3457616195617 0.244569192976039 93.396469289223  0.244569192976039 93.3964692892231 0.592022410822204 70.7442942546494 
17.05                          0.5748145490497  67.7855216838715 0.272937330491544 86.8410061751363 0.272937330491544 86.8410061751363 0.551226314800486 67.0494421962827 
17.1                           0.534509485086975 64.4362906998762 0.303443561723676 79.8106618284726 0.303443561723676 79.8106618284727 0.506942942750683 63.5924751732307 
17.15                          0.492050203526265 61.471099748537  0.33561963432512 72.3260987296364 0.335619634325121 72.3260987296365 0.460066820441512 60.5923949691419 
17.2                           0.448836547995955 59.1039345830369 0.368795438669164 64.4304948092976 0.368795438669165 64.4304948092976 0.412140718166693 58.3448366788908 
17.25                          0.406814113756192 57.5643512042049 0.402148539588921 56.1899160171338 0.402148539588922 56.1899160171338 0.36542111122174 57.2108932209994 
17.3                           0.368293627424562 57.0360609735293 0.434803189392339 47.6894496617525 0.43480318939234 47.6894496617525 0.322775432327205 57.5521924881525 
17.35                          0.335530774157662 57.5556986148476 0.465959131093113 39.0250182818764 0.465959131093113 39.0250182818764 0.287277874138257 59.5677758116403 
17.4                           0.310103595747334 58.9098011547227 0.495011972550068 30.2924501048127 0.495011972550068 30.2924501048127 0.261389901200162 63.0431933158332 
17.45                          0.292322493504717 60.6236188227729 0.521625958891976 21.5766066322414 0.521625958891976 21.5766066322414 0.24589678730805 67.2101539678549 
17.5                           0.281054733406276 62.1097393342379 0.545739815109025 12.9433556931874 0.545739815109025 12.9433556931874 0.23933380267178 71.0086730721223 
17.55                          0.274147717842658 62.893610524548  0.567514322256123 4.4359369792243  0.567514322256123 4.43593697922426 0.238587141503691 73.6233894201683 
17.6                           0.269172382549632 62.7449859366325 0.587249000231653 -3.92439065484089 0.587249000231652 -3.92439065484085 0.240215907171446 74.7654064795329 
17.65                          0.264028856000704 61.6589849065864 0.605297117797609 -12.1347048601717 0.605297117797608 -12.1347048601716 0.241442667442255 74.5543169299621 
17.7                           0.257210943781783 59.7654749671284 0.621998240020024 -20.2053964037838 0.621998240020023 -20.2053964037838 0.240448338899476 73.2848670742027 
17.75                          0.24780749813795 57.2495370247493 0.637635115391432 -28.1550830290988 0.637635115391432 -28.1550830290988 0.236249962977866 71.2780802706114 
17.8                           0.235391147956554 54.3100461865607 0.652413053906686 -36.0062430268093 0.652413053906685 -36.0062430268093 0.228472125603782 68.8284938040917 
17.85                          0.219894015368453 51.150424928914  0.666456245796388 -43.7818796653236 0.666456245796388 -43.7818796653236 0.217152998816928 66.2042182116025 
17.9                           0.201511387344927 47.9912634350956 0.679815166119076 -51.5032282356665 0.679815166119076 -51.5032282356665 0.202616793720476 63.6699890638549 
17.95                          0.180643535621868 45.1017132533501 0.692480362725598 -59.1883757648067 0.692480362725598 -59.1883757648067 0.185407354478448 61.5224517349696 
18                             0.157878985418044 42.8574730389415 0.704399265041862 -66.8516219495508 0.704399265041862 -66.8516219495508 0.166274953369271 60.1380581392333 
18.05                          0.134033468800077 41.8490585130535 0.715493655881626 -74.5034151986003 0.715493655881625 -74.5034151986004 0.146218817641281 60.0369381491297 
18.1                           0.110292836339451 43.0855425805914 0.725676067774249 -82.1507161025321 0.725676067774249 -82.1507161025322 0.126601477909568 61.9504402507424 
18.15                          0.0885795344465225 48.3094974876166 0.734863749984631 -89.7976570193922 0.734863749984631 -89.7976570193923 0.10934105118641 66.7974828873063 
18.2                           0.0722632093112793 59.9025566916512 0.742989179482099 -97.4463779793725 0.742989179482099 -97.4463779793726 0.0970415033668106 75.2413473739241 
18.25                          0.0662461853206783 77.8349360551265 0.750006472073319 -105.097929057376 0.750006472073318 -105.097929057376 0.0924749250028241 86.46431572186   
18.3                           0.0730586035402393 95.0702189107929 0.755893510174335 -112.753142237652 0.755893510174335 -112.753142237652 0.0968977298747161 97.4998783879055 
18.35                          0.0892970574003478 105.345229552264 0.760650085257016 -120.413394273428 0.760650085257016 -120.413394273428 0.108941299127173 105.444159412435 
18.4                           0.110193315579225 109.260043617172 0.764292763731413 -128.081205769698 0.764292763731413 -128.081205769698 0.125938115785878 109.557464878964 
18.45                          0.132881754686043 109.160698674728 0.766847444191991 -135.760647699242 0.766847444191991 -135.760647699242 0.145599331023927 110.507243093797 
18.5                           0.155986712821621 106.647336904923 0.768340646153628 -143.457550574082 0.768340646153628 -143.457550574082 0.166458012018023 109.169314793974 
18.55                          0.178894745888408 102.616374287237 0.768790474938286 -151.179529669521 0.768790474938286 -151.179529669521 0.187691395194312 106.212402089457 
18.6                           0.201385999254108 97.5664719005948 0.768198005319385 -158.935849652594 0.768198005319386 -158.935849652594 0.208895226604687 102.080612597052 
18.65                          0.223467232031883 91.7848966359336 0.766539596883094 -166.737153181153 0.766539596883096 -166.737153181153 0.229933622502198 97.0577807320732 
18.7                           0.245289544774032 85.4442493745328 0.763760471522288 -174.595071625031 0.763760471522289 -174.595071625032 0.250849052452221 91.3246179990379 
18.75                          0.267100591553299 78.6529235124988 0.759769804848378 177.478275718314 0.75976980484838 177.478275718314 0.271806239660171 84.9976580269087 
18.8                           0.289210463193844 71.4826482371091 0.754437642124445 169.47090162641  0.754437642124446 169.470901626409 0.293053046469205 78.1544978335075 
18.85                          0.311962009174909 63.984363812495  0.747594153009548 161.371710475489 0.74759415300955 161.371710475489 0.314888669571744 70.8503483652484 
18.9                           0.335701170871205 56.197849501727  0.739032061788927 153.171423921524 0.739032061788929 153.171423921524 0.337633555277044 63.1291973338123 
18.95                          0.360745316842309 48.1578032792011 0.728513454260728 144.863693543893 0.728513454260729 144.863693543892 0.36159785600547 55.0314721860652 
19                             0.387349326761216 39.8977879240319 0.715782418189192 136.446396632142 0.715782418189193 136.446396632142 0.387047145733932 46.5992166782369 
19.05                          0.415670942090076 31.4528338936585 0.700584880584738 127.923062349906 0.700584880584738 127.923062349905 0.414166130551617 37.87932988249   
19.1                           0.445738835503863 22.8611562026722 0.682696258112172 119.304301740376 0.682696258112172 119.304301740376 0.443023399956186 28.9252121681249 
19.15                          0.477428671910695 14.1652208765673 0.661955883478338 110.609026749925 0.661955883478337 110.609026749925 0.473542556090655 19.7970928372655 
19.2                           0.51045346843413 5.41221535968233 0.638304632830942 101.86516689365  0.638304632830942 101.86516689365  0.505486559939999 10.5612828406416 
19.25                          0.544373903067672 -3.34615977294819 0.611819321140906 93.1095685852521 0.611819321140906 93.1095685852522 0.53846181845005 1.28855559605799 
19.3                           0.578631190502078 -12.054708329673 0.582735454207458 84.3868342240151 0.582735454207458 84.3868342240153 0.571945631476408 -7.9481805765557 
19.35                          0.612599949329034 -20.6566159113904 0.551450300018888 75.7470436152848 0.551450300018889 75.7470436152849 0.605335300249093 -17.0767496609049 
19.4                           0.645652661406011 -29.0960446605612 0.518501833181282 67.2425652507136 0.518501833181283 67.2425652507137 0.638011033604277 -26.0288708139307 
19.45                          0.677223334879126 -37.321078024159 0.484525246310581 58.9244207541475 0.484525246310582 58.9244207541475 0.669400324771082 -34.7432611709892 
19.5                           0.70685790136815 -45.286505419054 0.450195103128607 50.8388055092447 0.450195103128608 50.8388055092447 0.699030916232167 -43.1682554506504 
19.55                          0.734242974546025 -52.9559545268644 0.416165024593504 43.0243273411775 0.416165024593505 43.0243273411775 0.726563234746173 -51.2635664993018 
19.6                           0.759211025891025 -60.3030529003111 0.383016465459604 35.510321511599  0.383016465459604 35.5103215115989 0.751799510317734 -59.0009783313104 
19.65                          0.781725987399814 -67.3115504985594 0.351224211992427 28.3163239114945 0.351224211992426 28.3163239114944 0.774672883169225 -66.3639873260932 
19.7                           0.801856682876034 -73.9745588644467 0.321140843523079 21.452541423989  0.321140843523077 21.4525414239888 0.795223473332774 -73.3466007566124 
19.75                          0.819745862745324 -80.2931932620712 0.292997807801651 14.9210171255339 0.29299780780165 14.9210171255338 0.813569059560547 -79.9516058966874 
19.8                           0.835580867359997 -86.2749292740294 0.266918209136815 8.71715865194562 0.266918209136813 8.71715865194559 0.829876490468701 -86.188629063246 
19.85                          0.849569413881179 -91.9319344967429 0.242935930482527 2.8313490923801  0.242935930482524 2.83134909238018 0.844337539996162 -92.0722414293173 
19.9                           0.861921732671608 -97.2795515177237 0.221016606576797 -2.74955323991799 0.221016606576795 -2.74955323991785 0.857150675576759 -97.6202781346979 
19.95                          0.872838746119121 -102.335024467632 0.201077407477749 -8.04093247592663 0.201077407477746 -8.04093247592641 0.868508641675498 -102.852451364084 
20                             0.882505208046307 -107.116496362274 0.183003984601329 -13.0593880679613 0.183003984601326 -13.059388067961 0.878590930281107 -107.789273282297 
20.05                          0.89108650586332 -111.642262814085 0.166663989283793 -17.8219559720836 0.166663989283791 -17.8219559720832 0.887559937483853 -112.451264485322 
20.1                           0.89872793259839 -115.930246285533 0.151917243557262 -22.3455473843884 0.15191724355726 -22.3455473843879 0.895559664902278 -116.858404005348 
20.15                          0.905555475920551 -119.997647893958 0.138622990241041 -26.6465652733904 0.138622990241039 -26.6465652733899 0.902716033255862 -121.029771510875 
20.2                           0.911677432276334 -123.860735101553 0.126644775561858 -30.7406589502076 0.126644775561856 -30.740658950207 0.909138117177969 -124.983335221674 
20.25                          0.917186381036742 -127.53472910129 0.115853513606726 -34.6425814848952 0.115853513606725 -34.6425814848947 0.914919826989537 -128.735845814192 
20.3                           0.922161228150871 -131.033762558992 0.106129214327389 -38.3661210281712 0.106129214327388 -38.3661210281707 0.920141733551667 -132.302804447495 
20.35                          0.926669152682857 -134.370885049419 0.097361767178753 -41.9240834017141 0.0973617671787522 -41.9240834017136 0.924872855494642 -135.698480482069 
20.4                           0.930767371998748 -137.558099318739 0.0894510836005375 -45.3283088966649 0.089451083600537 -45.3283088966645 0.929172311627324 -138.935960824942 
20.45                          0.934504692995962 -140.60641619827 0.0823068239467999 -48.5897107985433 0.0823068239467996 -48.589710798543 0.93309079483929 -142.027217938219 
20.5                           0.937922847076146 -143.52591962266 0.0758478714745057 -51.7183267381528 0.0758478714745055 -51.7183267381525 0.936671856165145 -144.983187468874 
20.55                          0.941057622869211 -146.325835918375 0.070001667271543 -54.7233766749501 0.0700016672715429 -54.72337667495  0.939953005898118 -147.813849374471 
20.6                           0.943939818265942 -149.014603503941 0.0647034835952508 -57.6133233128985 0.0647034835952507 -57.6133233128985 0.94296664783357 -150.528308534626 
20.65                          0.946596035665651 -151.599940550854 0.0598956866173339 -60.395932186593 0.0598956866173339 -60.3959321865932 0.945740866418135 -153.134872338652 
20.7                           0.949049343802229 -154.08890913689 0.0555270207558066 -63.0783296736953 0.0555270207558066 -63.0783296736958 0.948300087103101 -155.641123782924 
20.75                          0.951319827515346 -156.487975096214 0.0515519336830989 -65.6670578985259 0.0515519336830989 -65.6670578985265 0.950665629028277 -158.053989321457 
20.8                           0.953425044243329 -158.803063220899 0.0479299521845537 -68.1681259762957 0.0479299521845537 -68.1681259762964 0.952856167198145 -160.379801184974 
20.85                          0.955380403318223 -161.039607761698 0.044625113116531 -70.5870573720608 0.0446251131165311 -70.5870573720618 0.954888119084327 -162.624354187852 
20.9                           0.957199481598566 -163.202598359935 0.0416054498933175 -72.9289333602686 0.0416054498933175 -72.9289333602698 0.956775968389567 -164.792957230261 
20.95                          0.958894286699866 -165.29662165149 0.0388425325708511 -75.1984327040431 0.0388425325708511 -75.1984327040445 0.958532536685942 -166.89047981131 
21                             0.960475477115214 -167.325898842512 0.0363110582288103 -77.3998677526525 0.0363110582288102 -77.3998677526541 0.960169211855574 -168.921393924366 
21.05                          0.961952546854455 -169.294319581702 0.0339884876519925 -79.5372171983319 0.0339884876519924 -79.5372171983336 0.961696140729113 -170.889811726036 
21.1                           0.963333980843846 -171.205472457732 0.0318547240469506 -81.6141557520425 0.0318547240469504 -81.6141557520443 0.963122392023441 -172.799519368387 
21.15                          0.964627386184738 -173.062672440668 0.029891829541356 -83.6340810003395 0.0298918295413558 -83.6340810003415 0.96445609460129 -174.654007368458 
21.2                           0.965839603433521 -174.868985568725 0.0280837753927622 -85.6001376981846 0.028083775392762 -85.6001376981867 0.96570455518338 -176.456497865774 
21.25                          0.966976801301833 -176.627251160023 0.0264162221071257 -87.5152397392924 0.0264162221071255 -87.5152397392945 0.966874358910131 -178.209969091453 
21.3                           0.968044557555771 -178.340101805558 0.0248763259871531 -89.3820900291351 0.0248763259871528 -89.3820900291371 0.967971455548833 -179.91717734395 
21.35                          0.969047928389483 179.990018623998 0.0234525689649581 -91.2031984678705 0.0234525689649578 -91.2031984678727 0.96900123365068 178.419323261724 
21.4                           0.969991508140268 178.360838747842 0.0221346089030433 -92.9808982323353 0.022134608903043 -92.9808982323375 0.969968584560363 176.797163031482 
21.45                          0.970879480881093 176.770245032665 0.0209131478606013 -94.717360528613 0.020913147860601 -94.717360528615 0.970877957852912 175.214140701741 
21.5                           0.971715665157493 175.216268569909 0.0197798161122048 -96.414607969979 0.0197798161122045 -96.4146079699811 0.971733409504157 173.668209029676 
21.55                          0.97250355291702 173.69707312241  0.0187270699702363 -98.0745267194551 0.0187270699702361 -98.0745267194569 0.97253864388165 172.15746179379  
21.6                           0.973246343501231 172.210944306561 0.0177481017002335 -99.6988775219118 0.0177481017002333 -99.6988775219133 0.973297050462819 170.680122053424 
21.65                          0.973946973424594 170.756279790918 0.0168367600303918 -101.289305737637 0.0168367600303917 -101.289305737638 0.974011736039226 169.234531532812 
21.7                           0.974608142545566 169.331580405332 0.0159874799442956 -102.847350477505 0.0159874799442954 -102.847350477506 0.97468555304396 167.819141010434 
21.75                          0.975232337137227 167.935442066456 0.0151952206114331 -104.374452929289 0.015195220611433 -104.37445292929 0.975321124538656 166.432501607895 
21.8                           0.975821850284374 166.56654843591  0.0144554104553088 -105.871963955164 0.0144554104553088 -105.871963955164 0.975920866313339 165.073256884434 
21.85                          0.976378799967398 165.223664236649 0.0137638984860863 -107.341151031933 0.0137638984860863 -107.341151031933 0.976487006483206 163.740135653787 
21.9                           0.976905145138237 163.905629161273 0.0131169111357069 -108.783204597962 0.013116911135707 -108.783204597962 0.977021602908899 162.431945449382 
21.95                          0.977402700047856 162.611352313295 0.0125110139302261 -110.199243864013 0.0125110139302263 -110.199243864012 0.977526558718786 161.14756657214  
22                             0.977873147046571 161.339807128772 0.0119430774184199 -111.590322139186 0.0119430774184201 -111.590322139185 0.978003636171472 159.885946662389 
22.05                          0.978318048046582 160.090026731438 0.0114102468490952 -112.957431717803 0.0114102468490955 -112.957431717802 0.97845446906303 158.646095743846 
22.1                           0.978738854809269 158.861099679455 0.0109099151533891 -114.30150836831 0.0109099151533894 -114.301508368308 0.978880573854841 157.427081693279 
22.15                          0.979136918197276 157.652166066394 0.0104396988438908 -115.623435461035 0.0104396988438912 -115.623435461033 0.979283359673952 156.228026094491 
22.2                           0.979513496512314 156.46241394297  0.00999741649074818 -116.924047767863 0.00999741649074864 -116.92404776786 0.979664137317352 155.04810043967  
22.25                          0.979869763023475 155.291076029583 0.00958106947698395 -118.204134963529 0.00958106947698444 -118.204134963525 0.980024127374273 153.886522645118 
22.3                           0.980206812777127 154.13742669278  0.009188824771868 -119.464444855228 0.00918882477186857 -119.464444855224 0.980364467565765 152.742553851784 
22.35                          0.980525668767733 153.000779161556 0.00881899949309374 -120.705686364589 0.00881899949309432 -120.705686364585 0.980686219388174 151.615495484165 
22.4                           0.980827287538922 151.880482961802 0.00847004705631401 -121.928532283649 0.00847004705631467 -121.928532283645 0.980990374136262 150.504686543808 
22.45                          0.981112564275571 150.775921549441 0.00814054473484842 -123.133621824365 0.00814054473484911 -123.13362182436 0.981277858372384 149.409501116132 
22.5                           0.981382337440227 149.686510124691 0.00782918247355063 -124.321562979266 0.00782918247355133 -124.32156297926 0.981549538900095 148.329346071379 
22.55                          0.981637393000856 148.611693611639 0.00753475281932287 -125.492934709184 0.00753475281932358 -125.492934709179 0.981806227293569 147.263658942478 
22.6                           0.981878468291338 147.550944788853 0.0072561418469466 -126.648288972447 0.00725614184694732 -126.648288972442 0.982048684028223 146.211905964266 
22.65                          0.982106255541399 146.503762558127 0.00699232097305686 -127.788152608556 0.00699232097305761 -127.788152608551 0.982277622252656 145.173580260072 
22.7                           0.982321405108448 145.469670339696 0.00674233956349658 -128.913029088159 0.00674233956349723 -128.913029088153 0.982493711237478 144.148200162989 
22.75                          0.98252452844019 144.448214583353 0.00650531825016579 -130.023400140011 0.00650531825016637 -130.023400140007 0.982697579532613 143.135307660421 
22.8                           0.982716200793695 143.438963385884 0.00628044288303491 -131.119727264643 0.00628044288303544 -131.119727264639 0.982889817861163 142.134466951521 
22.85                          0.982896963733835 142.441505206148 0.00606695905138117 -132.202453143531 0.00606695905138163 -132.202453143528 0.983070981774882 141.145263108172 
22.9                           0.983067327431535 141.455447669884 0.00586416711569294 -133.272002951805 0.00586416711569327 -133.272002951802 0.983241594093626 140.167300830978 
22.95                          0.98322777278016 140.480416457085 0.00567141769818661 -134.328785581761 0.00567141769818679 -134.328785581759 0.98340214714875 139.200203292561 
23                             0.983378753346454 139.516054265389 0.00548810758561105 -135.37319478383 0.00548810758561103 -135.373194783829 0.983553104848389 138.243611061129 
