! Touchstone file exported from HFSS 3D Layout Design 2026.1.0
!        File:           D:/Work/SIM/ADS_AUTO_SIM/projects/RFSOC_RF/TX_Fillter.aedt
!        Generated:      12:51:00 AM Aug 31, 2026
!        Design:         TX_BAND1_MCFIL_R16_CNN047
!        Project:        TX_Fillter
!
# GHz S MA R 50.000000
! Terminal data exported
! Port[1] = Port1
! Port[2] = Port2
14                             0.973045579562552 -165.737019978619 0.00369280995820815 -178.089888781672 0.00369280995820815 -178.089888781672 0.974540685724434 -162.48247427177 
14.05                          0.972549800486209 -166.614160914083 0.00376485320791978 -178.478170974406 0.00376485320791977 -178.478170974406 0.974089870672553 -163.329210765859 
14.1                           0.972038470662315 -167.497410679075 0.00384032450555535 -178.846779684624 0.00384032450555532 -178.846779684624 0.973625215295957 -164.18130908253 
14.15                          0.971510833550046 -168.386962140518 0.00391949029662712 -179.195338384568 0.00391949029662709 -179.195338384568 0.973146046715255 -165.038931723543 
14.2                           0.97096608315826 -169.283018079796 0.0040026427411966 -179.523509542462 0.00400264274119654 -179.523509542463 0.97265164778568 -165.902249618336 
14.25                          0.970403359988439 -170.185791830643 0.00409010249851856 -179.831001989278 0.00409010249851848 -179.831001989279 0.972141253431459 -166.771442671738 
14.3                           0.969821746575023 -171.095507967183 0.00418222183525198 179.882420964137 0.0041822218352519 179.882420964137 0.971614046612456 -167.646700355182 
14.35                          0.969220262576035 -172.012403046832 0.00427938809676932 179.616932639432 0.00427938809676926 179.616932639432 0.971069153879612 -168.528222345548 
14.4                           0.96859785936053 -172.936726413325 0.00438202758625354 179.372633324419 0.00438202758625347 179.372633324419 0.970505640469702 -169.41621921627 
14.45                          0.967953414032028 -173.868741065688 0.00449060990219507 179.149539834804 0.00449060990219499 179.149539834804 0.969922504883083 -170.310913185822 
14.5                           0.967285722818621 -174.808724599665 0.00460565279173057 178.947574328931 0.0046056527917305 178.947574328931 0.969318672880133 -171.212538929324 
14.55                          0.966593493750576 -175.756970228829 0.00472772758517161 178.766552421984 0.00472772758517154 178.766552421984 0.968692990822865 -172.121344459646 
14.6                           0.965875338534811 -176.713787893455 0.00485746528626128 178.606170670815 0.00485746528626119 178.606170670815 0.968044218277404 -173.037592085149 
14.65                          0.96512976352232 -177.6795054662  0.00499556340342714 178.465993528263 0.00499556340342708 178.465993528263 0.967371019780536 -173.961559452065 
14.7                           0.964355159649041 -178.654470064687 0.00514279361987557 178.345439895864 0.00514279361987553 178.345439895864 0.966671955658852 -174.893540680474 
14.75                          0.963549791212504 -179.639049482345 0.00530001041517641 178.243769435473 0.00530001041517633 178.243769435473 0.965945471771836 -175.833847603932 
14.8                           0.96271178332523 179.366366249777 0.00546816076847565 178.160068832165 0.00546816076847561 178.160068832165 0.965189888030105 -176.782811124077 
14.85                          0.961839107860754 178.361363155912 0.00564829509420896 178.093238231342 0.00564829509420891 178.093238231342 0.96440338551621 -177.740782692941 
14.9                           0.960929567678566 177.345501447064 0.00584157958584207 178.041978100157 0.00584157958584204 178.041978100158 0.963583992007344 -178.708135937339 
14.95                          0.959980778879238 176.318313472931 0.0060493101725643 178.004776784886 0.00604931017256428 178.004776784886 0.962729565666067 -179.685268441562 
15                             0.95899015079951 175.279301473728 0.00627292832899099 177.979899049016 0.00627292832899095 177.979899049016 0.961837776625634 179.327396293283 
15.05                          0.957954863407747 174.227935108723 0.00651403901999439 177.965375878921 0.00651403901999439 177.965375878921 0.960906086149464 178.329406692504 
15.1                           0.956871841701289 173.163648735203 0.00677443111322079 177.958995832131 0.00677443111322081 177.958995832131 0.959931722988045 177.320280730052 
15.15                          0.955737726636759 172.085838408115 0.00705610065241283 177.958298175082 0.00705610065241287 177.958298175082 0.958911656489163 176.299503303018 
15.2                           0.954548842039852 170.993858566578 0.00736127745745129 177.960568010691 0.00736127745745131 177.960568010691 0.957842565936299 175.266523327971 
15.25                          0.953301156839317 169.887018368907 0.00769245560461884 177.962833530048 0.00769245560461888 177.962833530048 0.956720805492231 174.220750524568 
15.3                           0.951990241846881 168.764577632524 0.00805242844608247 177.961865436663 0.00805242844608251 177.961865436663 0.955542364006604 173.161551847047 
15.35                          0.950611220155838 167.625742329149 0.00844432895478826 177.954178487095 0.00844432895478828 177.954178487095 0.954302818802488 172.088247518768 
15.4                           0.949158710049861 166.469659578865 0.00887167633451627 177.936034970661 0.00887167633451628 177.936034970661 0.952997282381934 171.000106618707 
15.45                          0.947626759092523 165.295412078886 0.00933843002047133 177.903449816751 0.00933843002047138 177.903449816751 0.951620340776487 169.896342161724 
15.5                           0.94600876779743 164.102011894146 0.00984905242055188 177.85219687556  0.00984905242055191 177.85219687556  0.950165982006072 168.776105606422 
15.55                          0.944297400946474 162.888393527009 0.0104085820200741 177.777815771952 0.0104085820200741 177.777815771952 0.94862751278643 167.638480715369 
15.6                           0.94248448421404 161.653406172511 0.0110227188040717 177.675618587935 0.0110227188040717 177.675618587934 0.946997461226003 166.482476682509 
15.65                          0.940560883248378 160.395805053638 0.0116979243547801 177.54069549165  0.0116979243547801 177.54069549165  0.945267462758175 165.307020431556 
15.7                           0.938516361732764 159.114241718348 0.0124415394742254 177.367918303563 0.0124415394742254 177.367918303563 0.943428125939158 164.110947977479 
15.75                          0.936339414166637 157.807253166838 0.0132619227836216 177.151940875438 0.0132619227836216 177.151940875437 0.94146887397355 162.892994730988 
15.8                           0.934017068130242 156.473249664509 0.0141686144879915 176.887195054408 0.0141686144879915 176.887195054408 0.939377756867919 161.651784614009 
15.85                          0.931534649573591 155.110501084617 0.0151725303972848 176.567880909715 0.0151725303972848 176.567880909715 0.937141227905549 160.38581784369  
15.9                           0.928875503136546 153.717121616629 0.0162861924021849 176.187949807596 0.0162861924021848 176.187949807596 0.934743876616089 159.093457235367 
15.95                          0.926020657578499 152.291052675294 0.0175240029591845 175.741078821545 0.0175240029591844 175.741078821545 0.932168108497749 157.772912874428 
16                             0.922948423969682 150.830043856768 0.0189025727986507 175.220634849348 0.0189025727986506 175.220634849347 0.929393759329916 156.422225018254 
16.05                          0.91963391124254 149.331631820408 0.0204411130919438 174.61962666173  0.0204411130919437 174.61962666173  0.926397628856784 155.039245120475 
16.1                           0.916048439864025 147.793117041554 0.0221619057641144 173.930642915485 0.0221619057641143 173.930642915485 0.923152914763186 153.621614933587 
16.15                          0.912158829582981 146.211538503186 0.0240908685799039 173.145773912016 0.0240908685799037 173.145773912016 0.9196285230049  152.166743762735 
16.2                           0.907926531224296 144.58364660616  0.0262582351091604 172.256514557386 0.0262582351091603 172.256514557386 0.915788224471008 150.671784144955 
16.25                          0.903306565135207 142.905874931597 0.0286993736966616 171.253645573541 0.0286993736966615 171.253645573541 0.911589620407213 149.133606564546 
16.3                           0.898246219978721 141.174312067831 0.0314557740312478 170.127089523017 0.0314557740312477 170.127089523018 0.906982869808211 147.548774365182 
16.35                          0.892683455105234 139.384675649052 0.0345762345585283 168.865737658805 0.0345762345585281 168.865737658805 0.901909121010698 145.913520907221 
16.4                           0.886544938063093 137.53229225011  0.038118288199631 167.457243046292 0.0381182881996309 167.457243046293 0.896298577217526 144.223732440612 
16.45                          0.87974363703274 135.612089169219 0.0421499064040207 165.887774930298 0.0421499064040206 165.887774930298 0.890068112578586 142.474942430271 
16.5                           0.872175878685086 133.618607925291 0.0467515201825012 164.141729139874 0.046751520182501 164.141729139874 0.883118344064605 140.662346672286 
16.55                          0.863717780639216 131.546055318062 0.0520183872959071 162.201389808317 0.052018387295907 162.201389808317 0.875330059734717 138.780854250181 
16.6                           0.854220985138331 129.388417434078 0.0580633099670657 160.046539492916 0.0580633099670655 160.046539492916 0.866559916278098 136.825198415376 
16.65                          0.843507677307341 127.139677033966 0.0650196549981853 157.654019040302 0.0650196549981852 157.654019040302 0.856635367466083 134.790145719849 
16.7                           0.831365005159382 124.794198385249 0.0730445276352101 154.997247156417 0.0730445276352101 154.997247156417 0.845348906738682 132.670864046192 
16.75                          0.817539296662241 122.347380318155 0.0823217695834465 152.045725686765 0.0823217695834464 152.045725686765 0.832451966917954 130.463544761366 
16.8                           0.801731007066222 119.796734284117 0.0930641418790192 148.764584880755 0.0930641418790191 148.764584880755 0.817649330977054 128.16642676563  
16.85                          0.783592314811922 117.143626853948 0.105513549588567 145.114270340939 0.105513549588567 145.114270340939 0.800595854910375 125.781447318474 
16.9                           0.762730994992487 114.39604084102  0.119937396927901 141.05054878836  0.119937396927901 141.050548788359 0.78089896427469 123.316850606545 
16.95                          0.738726980328251 111.572849526941 0.136618097754824 136.525121485926 0.136618097754823 136.525121485925 0.758133108532446 120.791212582638 
17                             0.711172111698605 108.71021869984  0.15583153661373 131.487281875109 0.15583153661373 131.487281875109 0.731876399090108 118.239444802171 
17.05                          0.679748576406614 105.870702269121 0.177809416795411 125.887209933803 0.17780941679541 125.887209933803 0.701784654760171 115.721279722004 
17.1                           0.64436507980634 103.15499181707  0.202681272820897 119.681569890282 0.202681272820896 119.681569890282 0.667721780431057 113.332159719939 
17.15                          0.605365236939266 100.714268421196 0.230396855861701 112.841875245796 0.2303968558617  112.841875245796 0.629961376701724 111.214598766029 
17.2                           0.563796442629571 98.7562038721602 0.260641353991368 105.365306643486 0.260641353991366 105.365306643486 0.589449670516343 109.563713274324 
17.25                          0.521660908042614 97.5285145587776 0.292774302883717 97.2860808743777 0.292774302883715 97.2860808743776 0.548056729850534 108.612749510488 
17.3                           0.481958506245471 97.2538666118386 0.325838995655589 88.683368903272  0.325838995655587 88.6833689032719 0.508637871870795 108.57617576359  
17.35                          0.448236029495941 97.998341220222  0.358682341365004 79.6805044890481 0.358682341365003 79.680504489048  0.474639585655082 109.535380201914 
17.4                           0.423478909940175 99.5203685752909 0.390178408533022 70.431882911579  0.390178408533021 70.4318829115789 0.44909134601842 111.304985332367 
17.45                          0.408731488092203 101.249897294009 0.419479520661202 61.0992141859511 0.419479520661202 61.099214185951  0.433307269076793 113.402801601111 
17.5                           0.402443461989504 102.507757185641 0.446184138488488 51.8247975779149 0.446184138488489 51.8247975779147 0.426179510079047 115.223915313862 
17.55                          0.401171295398631 102.810907769561 0.470352673428851 42.7113803139912 0.470352673428852 42.7113803139909 0.424695075290816 116.309614012953 
17.6                           0.401014763657918 101.999600201045 0.492388943692621 33.8142446273045 0.492388943692622 33.8142446273042 0.425227018324138 116.48540584295  
17.65                          0.398716449307887 100.157963940702 0.512863116417631 25.1448987782085 0.512863116417632 25.1448987782081 0.424630248568862 115.814578059354 
17.7                           0.392041020564815 97.4795388687799 0.532349276840549 16.681734128335  0.53234927684055 16.6817341283346 0.420698739915856 114.484286831899 
17.75                          0.379681642827931 94.1795027182908 0.551313407544791 8.38267411864193 0.551313407544791 8.38267411864159 0.41214893755846 112.722010943604 
17.8                           0.361023731923681 90.4644638405247 0.570053622873119 0.196628622127066 0.570053622873119 0.196628622126805 0.39843350026678 110.762130756146 
17.85                          0.335945338710353 86.5399959439094 0.588679540733553 -7.92748005929757 0.588679540733553 -7.92748005929775 0.379573196737913 108.847234028186 
17.9                           0.304708411647078 82.6428446534555 0.607117545743661 -16.0341612710854 0.607117545743661 -16.0341612710855 0.356074648363234 107.247771447317 
17.95                          0.267942908766987 79.101856413655  0.62513427683032 -24.1569012216251 0.625134276830321 -24.1569012216251 0.32894120241078 106.289697023997 
18                             0.226726825232941 76.4584224790491 0.642375620189083 -32.3154934931276 0.642375620189084 -32.3154934931275 0.299762302262639 106.379368397582 
18.05                          0.182824648625875 75.737819476609  0.658420045479301 -40.5150420590801 0.658420045479305 -40.51504205908  0.270848282700386 107.999426468744 
18.1                           0.139361083431015 79.1088198523342 0.6728429625032  -48.7466618383119 0.672842962503205 -48.7466618383118 0.245314951522818 111.609147135525 
18.15                          0.102847458463968 91.1184747179634 0.685284320942109 -56.9898618312748 0.685284320942114 -56.9898618312748 0.226856250476658 117.346539475223 
18.2                           0.0867184212529895 115.833131780081 0.695507671383077 -65.2163708697272 0.695507671383083 -65.2163708697272 0.218784288209716 124.581216257251 
18.25                          0.101191194956616 140.361097612631 0.703438335458947 -73.3948540566548 0.703438335458953 -73.3948540566548 0.222419917465051 131.854275972592 
18.3                           0.134621336265334 151.997187698212 0.709172630233127 -81.4957319473439 0.709172630233132 -81.4957319473441 0.236233892909308 137.66753075483  
18.35                          0.17345395684573 154.863997572533 0.712957883127292 -89.4952929568998 0.712957883127297 -89.4952929569   0.256838740662124 141.313820647395 
18.4                           0.211590813089599 153.447087833539 0.715150719830718 -97.3785102468328 0.71515071983072 -97.378510246833 0.280669115985068 142.868176874417 
18.45                          0.246463939319982 149.85247129358  0.71616541362861 -105.140339796568 0.716165413628611 -105.140339796568 0.304918411720669 142.744609183365 
18.5                           0.276898253352374 145.039888887507 0.716423774544139 -112.785632206032 0.716423774544139 -112.785632206032 0.327687544944887 141.383241449091 
18.55                          0.30237505208967 139.474093498976 0.716314409999914 -120.328019167722 0.716314409999913 -120.328019167722 0.347816803576746 139.139141770242 
18.6                           0.322742404436024 133.388930477562 0.716164567072951 -127.788203501847 0.71616456707295 -127.788203501847 0.364677162584123 136.270595534872 
18.65                          0.338076359423845 126.899593263751 0.716224069840284 -135.192027384766 0.716224069840282 -135.192027384766 0.378003612826169 132.957043419031 
18.7                           0.348606074382944 120.054624820202 0.71665885948192 -142.568582224473 0.71665885948192 -142.568582224473 0.387778588775205 129.319843384561 
18.75                          0.354674149821646 112.862071116894 0.717551159436494 -149.948510880007 0.717551159436495 -149.948510880006 0.394155662685001 125.438606675133 
18.8                           0.35672038124014 105.303698101603 0.718903740221144 -157.362569124523 0.718903740221146 -157.362569124523 0.397412159266276 121.362272629674 
18.85                          0.355282272870607 97.3435578465281 0.720646563125512 -164.840466490306 0.720646563125515 -164.840466490305 0.397921005945712 117.115634549989 
18.9                           0.351007037069027 88.9342881726855 0.722644824625739 -172.409991055418 0.722644824625743 -172.409991055417 0.396133829346724 112.702149395736 
18.95                          0.344669572252633 80.0235417158446 0.724707872368912 179.903574008671 0.724707872368916 179.903574008671 0.392568706748847 108.103736845603 
19                             0.337189526753788 70.5627536392077 0.726598527881514 172.077726809768 0.726598527881517 172.077726809768 0.387797481815239 103.278288464486 
19.05                          0.329638150134291 60.5203297587675 0.728042052382259 164.092703789541 0.728042052382259 164.092703789541 0.382429762109716 98.1558978980489 
19.1                           0.323222919937872 49.900272064955  0.728733467588224 155.931132296028 0.728733467588221 155.931132296028 0.377094130314841 92.6353891265865 
19.15                          0.319237322679091 38.7639372755437 0.728341462228111 147.577454122677 0.728341462228103 147.577454122677 0.372421609057805 86.5834167533634 
19.2                           0.318969346869666 27.2466270177041 0.726507074072284 139.017291806966 0.726507074072272 139.017291806966 0.369040627872535 79.8389468055314 
19.25                          0.323579137457788 15.5553454668949 0.722836211107372 130.237052505261 0.722836211107356 130.237052505261 0.367593581958605 72.2259605772911 
19.3                           0.333978268479459 3.93724203689644 0.716887307000212 121.224189634939 0.716887307000192 121.22418963494  0.368778420465465 63.5764980697525 
19.35                          0.350750016683619 -7.37546095097368 0.708159220881602 111.968625364511 0.708159220881582 111.968625364511 0.373401625769396 53.7643202071333 
19.4                           0.374124687279669 -18.21954260972  0.696089560798228 102.465804690806 0.696089560798209 102.465804690807 0.382403857559063 42.7456049738791 
19.45                          0.40398240752848 -28.5273449230755 0.68007843927092 92.7216000937052 0.680078439270905 92.7216000937064 0.396799755698916 30.5962559966776 
19.5                           0.439840113585756 -38.3169075307305 0.65955380830639 82.7587038343673 0.659553808306382 82.7587038343685 0.417485027988027 17.5280249136401 
19.55                          0.480810277762457 -47.6567114880659 0.634086552713992 72.623211856053  0.634086552713988 72.623211856054  0.444929421770754 3.86680679067856 
19.6                           0.525571249206932 -56.6241158348943 0.603542015449553 62.3890694957593 0.603542015449552 62.3890694957597 0.478872198535085 -10.0057818843629 
19.65                          0.572417527290704 -65.2733501750305 0.568223453022437 52.157573082864  0.568223453022436 52.1575730828636 0.518187300286836 -23.722465844874 
19.7                           0.619433299106294 -73.6210514311385 0.528940778989616 42.0500332998876 0.528940778989613 42.0500332998864 0.561021223079581 -36.9813899586934 
19.75                          0.664763110823224 -81.6492274860004 0.486950786718761 32.1942161954947 0.486950786718753 32.1942161954927 0.605162301573177 -49.5659133312861 
19.8                           0.706887740068749 -89.3195130149594 0.443769420652641 22.708136804516  0.443769420652626 22.7081368045134 0.648484383557072 -61.3410832539699 
19.85                          0.744803590327336 -96.5902934425997 0.400920709740191 13.6861875130326 0.400920709740171 13.6861875130298 0.689295281761758 -72.2400906374022 
19.9                           0.778057207437906 -103.429963669247 0.359713332350427 5.19136402037879 0.359713332350401 5.19136402037605 0.726498416973969 -82.2488523323405 
19.95                          0.806657746455833 -109.823475264335 0.321108667616809 -2.74553875792014 0.321108667616781 -2.74553875792244 0.759576343287066 -91.3915162494007 
20                             0.830930038302959 -115.77284908983 0.285691786174948 -10.1214568167257 0.285691786174919 -10.1214568167273 0.788465930648702 -99.7176155126115 
20.05                          0.851367628337145 -121.294021719758 0.253717199038721 -16.9540282796384 0.253717199038692 -16.9540282796392 0.81340146829898 -107.291316809011 
20.1                           0.868519137476641 -126.412383671022 0.225189535171027 -23.2743352637933 0.225189535171001 -23.2743352637933 0.834776005615707 -114.183099507061 
20.15                          0.882915896251978 -131.158553622696 0.199947740485032 -29.1207731994936 0.199947740485009 -29.1207731994928 0.853040917432925 -120.463886883695 
20.2                           0.895034300199607 -135.565078087624 0.177735821672333 -34.5345160048365 0.177735821672313 -34.5345160048349 0.868643543269216 -126.201323942817 
20.25                          0.905281896388872 -139.664175319139 0.15825481508783 -39.5564991308699 0.158254815087814 -39.5564991308677 0.8819941587055  -131.457720603102 
20.3                           0.913997293979435 -143.486367957655 0.141197232654647 -44.2256109861735 0.141197232654633 -44.2256109861709 0.893452310930585 -136.289162460761 
20.35                          0.921456859096272 -147.059769834637 0.126267776500305 -48.5777463332599 0.126267776500295 -48.5777463332571 0.903324471455632 -140.745368699788 
20.4                           0.927883888430873 -150.409809087601 0.113194378020546 -52.6454265010298 0.113194378020538 -52.6454265010268 0.911867511582676 -144.86998422706 
20.45                          0.933457943072564 -153.55921905298 0.101732932450305 -56.4577662820589 0.101732932450299 -56.4577662820559 0.919294645048367 -148.701093256977 
20.5                           0.938323269517857 -156.528179318823 0.0916682021323752 -60.0406364018469 0.0916682021323711 -60.0406364018442 0.925781972987267 -152.271819957749 
20.55                          0.942595935007922 -159.334530510707 0.0828125661432112 -63.4169239208626 0.0828125661432085 -63.4169239208602 0.931474698289514 -155.61093713451 
20.6                           0.946369658622742 -161.994016020912 0.0750036901712442 -66.6068306831171 0.0750036901712424 -66.6068306831154 0.936492613986378 -158.7434403404  
20.65                          0.949720474898903 -164.520523740057 0.0681017699580243 -69.6281750287715 0.0681017699580233 -69.6281750287702 0.940934758070174 -161.691067437282 
20.7                           0.952710416843971 -166.926313478921 0.0619867246647289 -72.4966779586553 0.0619867246647282 -72.4966779586547 0.944883267879441 -164.472756956005 
20.75                          0.955390404647711 -169.222223462451 0.0565555417546787 -75.2262247208862 0.0565555417546784 -75.2262247208863 0.948406526389196 -167.105045981826 
20.8                           0.957802504728153 -171.417853764561 0.0517198687529248 -77.8290985545084 0.0517198687529247 -77.8290985545092 0.951561709472371 -169.602412016953 
20.85                          0.95998169596239 -173.52172702925 0.0474038851830336 -80.316186563864 0.0474038851830336 -80.3161865638656 0.954396839517836 -171.977564850571 
20.9                           0.961957252950589 -175.541428080979 0.0435424535086819 -82.6971593915696 0.0435424535086819 -82.6971593915718 0.956952438610515 -174.241694838369 
20.95                          0.963753832668614 -177.483724568085 0.0400795301924409 -84.9806271338365 0.0400795301924409 -84.9806271338393 0.959262859887271 -176.404683729829 
21                             0.965392331555197 -179.354670919164 0.0369668101516859 -87.1742741899789 0.0369668101516856 -87.1742741899822 0.961357361560915 -178.475283618599 
21.05                          0.966890564719728 178.840302187541 0.0341625756776525 -89.2849756969038 0.0341625756776522 -89.2849756969075 0.963260975640022 179.538731080141 
21.1                           0.968263806976713 177.096310826084 0.0316307216980866 -91.3188980119158 0.0316307216980862 -91.3188980119201 0.96499521289553 177.630434397985 
21.15                          0.969525226179385 175.408951505352 0.0293399315681251 -93.2815854565939 0.0293399315681246 -93.2815854565982 0.966578637067655 175.793638730097 
21.2                           0.970686232256878 173.774243971678 0.0272629804787987 -95.1780352678135 0.0272629804787981 -95.1780352678181 0.968027334437644 174.022800865027 
21.25                          0.971756759967858 172.188581788427 0.025376146583441 -97.0127624443492 0.0253761465834402 -97.0127624443539 0.969355299433378 172.312941579394 
21.3                           0.972745499275458 170.648689545665 0.0236587128007826 -98.789855941151 0.0236587128007818 -98.7898559411555 0.97057475263208 170.659576664971 
21.35                          0.973660084116738 169.15158572551  0.0220925448390634 -100.513027453235 0.0220925448390626 -100.51302745324 0.97169640413609 169.058657606264 
21.4                           0.974507247948225 167.694550397582 0.0206617332560663 -102.185653847848 0.0206617332560656 -102.185653847853 0.972729672636403 167.506520420241 
21.45                          0.975292952617948 166.275097046177 0.0193522893261814 -103.810814145766 0.0193522893261806 -103.81081414577 0.973682868387182 165.999841414532 
21.5                           0.976022495707549 164.890947938469 0.0181518861496179 -105.391321817844 0.0181518861496171 -105.391321817848 0.974563346668795 164.53559882381  
21.55                          0.976700600403296 163.540012533991 0.0170496378422151 -106.929753048507 0.0170496378422143 -106.92975304851 0.975377637019338 163.111039452899 
21.6                           0.977331491114847 162.220368512109 0.0160359108209336 -108.428471520938 0.016035910820933 -108.428471520941 0.976131552488847 161.723649595294 
21.65                          0.977918957407358 160.930245058477 0.015102162182928 -109.889650196865 0.0151021621829275 -109.889650196867 0.976830282357093 160.371129612096 
21.7                           0.978466408302214 159.668008105423 0.0142408009950626 -111.315290494594 0.0142408009950622 -111.315290494595 0.977478471108864 159.051371653045 
21.75                          0.97897691860106 158.432147266553 0.0134450689922671 -112.707239210504 0.0134450689922668 -112.707239210505 0.978080285944187 157.762440081808 
21.8                           0.979453268571954 157.221264244023 0.0127089377499925 -114.067203479723 0.0127089377499923 -114.067203479723 0.978639474687182 156.502554234728 
21.85                          0.979897978086138 156.034062518995 0.0120270198675498 -115.39676402981 0.0120270198675497 -115.396764029809 0.979159415624506 155.270073198257 
21.9                           0.980313336094679 154.869338162906 0.0113944920915439 -116.697386945715 0.011394492091544 -116.697386945714 0.979643160535878 154.063482337209 
21.95                          0.980701426174827 153.72597163005  0.0108070286354974 -117.970434134065 0.0108070286354977 -117.970434134064 0.980093471961548 152.881381345246 
22                             0.981064148747846 152.602920411338 0.0102607432243682 -119.217172649076 0.0102607432243685 -119.217172649075 0.98051285557476 151.72247362214  
22.05                          0.981403240466687 151.499212445547 0.00975213862031023 -120.438783020416 0.00975213862031066 -120.438783020414 0.980903588382845 150.58555681015  
22.1                           0.981720291187988 150.413940198346 0.0092780625764254 -121.63636670455 0.00927806257642595 -121.636366704548 0.981267743362316 149.469514345461 
22.15                          0.982016758874585 149.346255331284 0.00883566932474802 -122.810952764987 0.00883566932474867 -122.810952764985 0.981607211036169 148.373307900511 
22.2                           0.982293982718841 148.295363893122 0.00842238583855271 -123.963503873007 0.00842238583855339 -123.963503873005 0.981923718421336 147.295970609981 
22.25                          0.982553194731181 147.260521974577 0.00803588222159692 -125.094921708572 0.00803588222159768 -125.094921708569 0.982218845707911 146.236600987628 
22.3                           0.982795530000343 146.241031775037 0.00767404567168039 -126.206051830816 0.0076740456716812 -126.206051830814 0.982494040976589 145.194357453383 
22.35                          0.98302203580049 145.236238036229 0.00733495754587012 -127.297688078738 0.00733495754587097 -127.297688078735 0.982750633214831 144.168453400687 
22.4                           0.98323367969425 144.245524803364 0.00701687312234595 -128.370576554972 0.0070168731223468 -128.370576554969 0.982989843853859 143.158152742985 
22.45                          0.983431356758966 143.268312479065 0.00671820371108486 -129.425419238978 0.00671820371108571 -129.425419238975 0.983212797016366 142.162765886057 
22.5                           0.983615896045214 142.304055139539 0.00643750081419866 -130.462877270189 0.00643750081419952 -130.462877270187 0.983420528637747 141.181646079501 
22.55                          0.983788066361301 141.352238086036 0.00617344207805763 -131.483573936711 0.00617344207805846 -131.483573936709 0.983613994600787 140.214186106425 
22.6                           0.983948581464548 140.41237560779  0.00592481881453212 -132.488097400822 0.00592481881453291 -132.488097400819 0.983794078004422 139.259815275368 
22.65                          0.984098104729185 139.484008935319 0.00569052489872386 -133.477003188763 0.00569052489872459 -133.477003188761 0.983961595670771 138.317996682756 
22.7                           0.984237253351406 138.566704365389 0.00546954687624547 -134.450816469061 0.00546954687624614 -134.45081646906 0.984117303980692 137.388224717948 
22.75                          0.984366602144228 137.660051540992 0.00526095513511075 -135.410034140719 0.00526095513511132 -135.410034140718 0.984261904116211 136.47002278617  
22.8                           0.984486686968005 136.763661871525 0.00506389601618234 -136.355126750184 0.00506389601618283 -136.355126750184 0.984396046777979 135.562941227436 
22.85                          0.984598007836684 135.87716707996  0.00487758475235841 -137.286540253794 0.00487758475235879 -137.286540253794 0.984520336437223 134.666555412081 
22.9                           0.98470103173489 135.000217865204 0.00470129914066351 -138.204697640513 0.00470129914066376 -138.204697640513 0.984635335174121 133.780463995634 
22.95                          0.984796195176645 134.132482669075 0.00453437386347327 -139.110000428116 0.00453437386347341 -139.110000428117 0.984741566148092 132.904287317705 
23                             0.984883906532832 133.273646538451 0.00437619538552878 -140.002830044531 0.00437619538552878 -140.002830044531 0.984839516739925 132.037665931192 
