! Touchstone file exported from HFSS 3D Layout Design 2026.1.0
!        File:           D:/Work/SIM/ADS_AUTO_SIM/projects/RFSOC_RF/TX_Fillter.aedt
!        Generated:      11:20:51 PM Aug 30, 2026
!        Design:         TX_BAND1_MCFIL_R6_CNN022
!        Project:        TX_Fillter
!
# GHz S MA R 50.000000
! Terminal data exported
! Port[1] = Port1
! Port[2] = Port2
14                             0.962986077818632 171.700292608965 0.00575200134282528 175.441533416996 0.00575200134282527 175.441533416996 0.965145841466111 176.662735044898 
14.05                          0.962237536243458 170.663185473611 0.00590006218403315 175.028609472437 0.00590006218403313 175.028609472437 0.964438577986258 175.64129555371  
14.1                           0.96146423935282 169.616558877345 0.00605631732625315 174.627097011279 0.00605631732625308 174.627097011279 0.963707565818902 174.610818846916 
14.15                          0.960664971331978 168.560087912173 0.00622141101358324 174.236530002551 0.00622141101358322 174.236530002551 0.962951610975738 173.570994753763 
14.2                           0.959838436549511 167.493431592812 0.00639604675457433 173.856356076457 0.00639604675457428 173.856356076458 0.962169439463709 172.521497127919 
14.25                          0.958983252930988 166.416231838529 0.00658099331792093 173.485930483252 0.00658099331792083 173.485930483253 0.961359690551123 171.461982807009 
14.3                           0.958097944662224 165.328112374725 0.00677709138788873 173.124510090112 0.00677709138788865 173.124510090113 0.960520909347307 170.392090488672 
14.35                          0.957180934141678 164.228677546618 0.00698526096011513 172.771247486139 0.00698526096011505 172.771247486141 0.95965153861329 169.311439515096 
14.4                           0.956230533090416 163.11751103655  0.00720650956974561 172.42518527076  0.00720650956974556 172.425185270761 0.958749909709484 168.2196285571   
14.45                          0.955244932715073 161.994174475444 0.00744194145701442 172.08525060434  0.0074419414570144 172.08525060434  0.957814232573096 167.116234187824 
14.5                           0.954222192804264 160.858205937903 0.00769276779066603 171.750250101214 0.00769276779066601 171.750250101215 0.956842584602586 166.000809334942 
14.55                          0.953160229621353 159.709118309192 0.00796031808741253 171.418865144131 0.00796031808741251 171.418865144131 0.955832898308604 164.872881599031 
14.6                           0.952056802436168 158.546397510975 0.00824605298637647 171.08964769476  0.00824605298637644 171.089647694761 0.954782947569962 163.731951424261 
14.65                          0.950909498514376 157.369500571123 0.00855157856168791 170.7610166671   0.00855157856168787 170.761016667101 0.953690332308836 162.577490105945 
14.7                           0.949715716355345 156.177853521127 0.00887866238470199 170.431254918872 0.00887866238470198 170.431254918872 0.952552461370871 161.408937617599 
14.75                          0.948472646936551 154.970849102672 0.00922925158039435 170.098506900162 0.00922925158039433 170.098506900163 0.951366533362368 160.225700238073 
14.8                           0.947177252683964 153.747844262629 0.00960549316122309 169.760776978508 0.0096054931612231 169.760776978509 0.950129515157358 159.027147956895 
14.85                          0.945826243842369 152.508157413157 0.0100097569671199 169.415928435386 0.0100097569671199 169.415928435387 0.9488381177409  157.812611633262 
14.9                           0.944416051865617 151.251065430671 0.010444661593475 169.061683100914 0.0104446615934751 169.061683100915 0.947488769000016 156.581379881033 
14.95                          0.942942799382931 149.975800364116 0.0109131037514235 168.695621561932 0.0109131037514236 168.695621561932 0.946077583008563 155.332695648529 
15                             0.94140226622134 148.681545819184 0.0114182915780937 168.315183844026 0.0114182915780936 168.315183844027 0.944600325274971 154.065752458028 
15.05                          0.939789850873626 147.367432980855 0.0119637825007414 167.917670431337 0.0119637825007414 167.917670431337 0.943052373329566 152.779690265266 
15.1                           0.938100526692786 146.032536231755 0.0125535263602458 167.500243449827 0.0125535263602459 167.500243449827 0.941428671918066 151.473590894166 
15.15                          0.936328791964038 144.675868318346 0.0131919146191032 167.059927801114 0.0131919146191032 167.059927801114 0.939723681935911 150.146472996227 
15.2                           0.934468612849186 143.296375010753 0.0138838366202223 166.593611995649 0.0138838366202223 166.593611995648 0.937931322079722 148.797286477446 
15.25                          0.932513358009965 141.892929195054 0.0146347440294941 166.098048396773 0.0146347440294942 166.098048396773 0.936044902001437 147.424906328316 
15.3                           0.930455723489563 140.46432432909  0.0154507247920576 165.569852551495 0.0154507247920576 165.569852551495 0.934057045520621 146.028125784239 
15.35                          0.928287646156194 139.009267184185 0.016338588165045 165.005501249857 0.0163385881650449 165.005501249857 0.931959602172004 144.605648734528 
15.4                           0.926000203678344 137.526369785705 0.0173059626649804 164.401328922503 0.0173059626649804 164.401328922503 0.929743545027818 143.156081288209 
15.45                          0.923583498594764 136.014140455142 0.0183614090936457 163.753521954944 0.0183614090936457 163.753521954944 0.927398852324363 141.677922393931 
15.5                           0.921026523546772 134.470973845566 0.0195145511909977 163.058110466098 0.0195145511909976 163.058110466098 0.924914369923063 140.169553399819 
15.55                          0.918317004135496 132.89513985128  0.0207762269176801 162.310957066738 0.0207762269176801 162.310957066737 0.922277651027539 138.629226427289 
15.6                           0.915441215127311 131.284771261836 0.022158663903937 161.507742078617 0.022158663903937 161.507742078617 0.919474768835252 137.055051421341 
15.65                          0.912383764826086 129.637850021367 0.0236756832280744 160.643944655462 0.0236756832280745 160.643944655462 0.916490096894565 135.444981729669 
15.7                           0.909127341324207 127.952191947982 0.0253429364177882 159.714819200198 0.0253429364177882 159.714819200198 0.913306050829302 133.796798055733 
15.75                          0.905652412991229 126.225429767471 0.0271781814118949 158.71536641676  0.0271781814118949 158.71536641676  0.909902783739539 132.108090629198 
15.8                           0.901936873907893 124.454994324529 0.0292016041846137 157.640298267289 0.0292016041846138 157.640298267289 0.906257825939061 130.376239444974 
15.85                          0.897955622945485 122.638093859436 0.0314361938177369 156.483996025106 0.031436193817737 156.483996025106 0.902345657689794 128.598392445414 
15.9                           0.893680062762925 120.771691287681 0.0339081799910822 155.240460520141 0.0339081799910822 155.240460520141 0.89813720118119 126.771441568419 
15.95                          0.889077502084674 118.852479508509 0.0366475431057469 153.903253568004 0.036647543105747 153.903253568004 0.893599215120174 124.891996671228 
16                             0.884110441183132 116.876854916933 0.0396886084714121 152.465429461543 0.0396886084714123 152.465429461543 0.888693571902212 122.956357486785 
16.05                          0.878735716506744 114.840889534405 0.0430707370200961 150.919455294461 0.0430707370200962 150.919455294461 0.883376393422561 120.960484008833 
16.1                           0.872903475934555 112.740302554322 0.046839125580947 149.257118799088 0.0468391255809472 149.257118799088 0.877597017236312 118.899966081519 
16.15                          0.866555951413474 110.570432692541 0.0510457294078217 147.469422346448 0.0510457294078219 147.469422346448 0.87129676021988 116.769993562155 
16.2                           0.859625991235095 108.326213649613 0.055750317652086 145.54646182915  0.0557503176520863 145.54646182915  0.864407442641475 114.565329341258 
16.25                          0.852035310908818 106.002156395229 0.0610216676360454 143.477289411394 0.0610216676360456 143.477289411394 0.856849632628547 112.280288906773 
16.3                           0.843692421296523 103.59234412343  0.0669388942601553 141.249759719925 0.0669388942601557 141.249759719926 0.848530571293207 109.908732275947 
16.35                          0.834490198606252 101.090448968628 0.0735928938331867 138.850360173784 0.0735928938331869 138.850360173784 0.839341745539522 107.444077356788 
16.4                           0.824303078526326 98.4897844654887 0.0810878527876398 136.264028127121 0.08108785278764 136.264028127121 0.829156094471651 104.879348686868 
16.45                          0.812983895461189 95.7834150847923 0.089542724906241 133.473960802101 0.0895427249062414 133.473960802101 0.817824875746965 102.207282829576 
16.5                           0.800360462535755 92.9643551454696 0.0990925070901323 130.461429303877 0.0990925070901327 130.461429303877 0.805174295399009 99.42052263844   
16.55                          0.78623212242023 90.0259056267796 0.109889031772701 127.205616288579 0.109889031772702 127.205616288579 0.791002142469628 96.511948742542  
16.6                           0.770366728761324 86.9622010949155 0.122100830049754 123.683509334089 0.122100830049755 123.683509334089 0.775074904106394 93.4752201246495 
16.65                          0.752498893597774 83.7690728947894 0.135911390438643 119.8699001658   0.135911390438644 119.8699001658   0.75712621814461 90.3056292441421 
16.7                           0.7323309219976  80.4453819777374 0.151514839606369 115.737564857717 0.151514839606369 115.737564857717 0.736858112562047 87.0014236466017 
16.75                          0.709538717505726 76.9950374921945 0.169107725216518 111.25773209094  0.169107725216519 111.25773209094  0.713947349201635 83.5658072691081 
16.8                           0.683786111284372 73.429994428523  0.1888752674134  106.400982590766 0.1888752674134  106.400982590766 0.688060359269192 80.0099087861738 
16.85                          0.654752452928487 69.77460501585   0.21097035303594 101.138753632006 0.21097035303594 101.138753632006 0.658881630629104 76.3570796035867 
16.9                           0.622179531107288 66.0717536353616 0.235484028872697 95.4456274171279 0.235484028872697 95.445627417128  0.626161594475748 72.6489267701691 
16.95                          0.585944092303198 62.3911607271372 0.262407837562802 89.3025250570879 0.262407837562802 89.302525057088  0.589790156807393 68.9534170866654 
17                             0.546159828943098 58.8399392598214 0.291591588789345 82.7007592914021 0.291591588789344 82.7007592914022 0.549899412653219 65.3750391794487 
17.05                          0.503305583677616 55.5745979277713 0.322705165204696 75.6465762654257 0.322705165204695 75.6465762654258 0.506991565611335 62.0660360304131 
17.1                           0.45836277232786 52.8115364757004 0.355218487096345 68.1653538651113 0.355218487096344 68.1653538651115 0.462073673114526 59.2354480930315 
17.15                          0.412924335338429 50.8284170578989 0.388416456021982 60.3041635975386 0.388416456021982 60.3041635975388 0.416759205629783 57.1479739553804 
17.2                           0.369211603877863 49.9400582363092 0.421460821743441 52.1312457217863 0.42146082174344 52.1312457217864 0.373269740498959 56.0963259716034 
17.25                          0.329907698198396 50.421477763998  0.453495878349439 43.7314344860335 0.453495878349439 43.7314344860337 0.334244078385495 56.3217509428973 
17.3                           0.297702866892491 52.3557115667784 0.483774213634853 35.1977814769096 0.483774213634853 35.1977814769098 0.302258671364443 57.8668129767296 
17.35                          0.274523388542038 55.4515499024726 0.511764612380049 26.6211080709457 0.511764612380049 26.6211080709458 0.279059096206192 60.412997275263  
17.4                           0.260706374672206 59.0064010031728 0.537208159313644 18.0801355847691 0.537208159313643 18.0801355847691 0.264793659348907 63.2676306937117 
17.45                          0.254726411932579 62.1688258177309 0.560110077953543 9.63459335268032 0.560110077953543 9.63459335268035 0.257822233226492 65.6204951633113 
17.5                           0.253824862696537 64.3264190561835 0.580680238553093 1.32245762521313 0.580680238553092 1.32245762521313 0.255366400925306 66.892159078803  
17.55                          0.255063746459132 65.2747055006273 0.599249713880672 -6.838990163571  0.599249713880671 -6.83899016357102 0.254510907765984 66.8749907460409 
17.6                           0.256072366922067 65.1203642226602 0.616189804943901 -14.8495416589251 0.6161898049439  -14.8495416589251 0.252892664545064 65.639951326615  
17.65                          0.255276388217069 64.1132394365323 0.631849584745803 -22.7213317862766 0.631849584745802 -22.7213317862766 0.248904536358539 63.382357508671  
17.7                           0.251813992930368 62.5355052139305 0.646516709313955 -30.4741380762473 0.646516709313954 -30.4741380762473 0.241607225219708 60.3182651429759 
17.75                          0.245363770593064 60.658423464835  0.660398894034132 -38.1313626365957 0.660398894034132 -38.1313626365957 0.230555771176157 56.6409979712238 
17.8                           0.235994861335894 58.7387027034537 0.67362060795488 -45.7169412327711 0.67362060795488 -45.7169412327711 0.21564236414434 52.513687662602  
17.85                          0.224069915433604 57.0318334563171 0.686229616554825 -53.2531712016103 0.686229616554824 -53.2531712016103 0.196982683952281 48.0788698339811 
17.9                           0.21019960421016 55.8100077806507 0.698209257374726 -60.7593353675123 0.698209257374726 -60.7593353675122 0.17484241853218 43.4780924221449 
17.95                          0.195239223562902 55.3756920403854 0.709493658253417 -68.2509714758052 0.709493658253417 -68.2509714758052 0.149593674310785 38.8863669556931 
18                             0.180313826799201 56.0565223575338 0.719984052210686 -75.7396492353943 0.719984052210687 -75.7396492353944 0.121694495481012 34.5879291342861 
18.05                          0.166842966717514 58.1526553990498 0.729564860215847 -83.2331396967724 0.729564860215848 -83.2331396967724 0.0916992844066423 31.1985355423308 
18.1                           0.156495732805499 61.7964035303206 0.73811843977517 -90.7358797233583 0.738118439775171 -90.7358797233583 0.0603793541564336 30.5841515207489 
18.15                          0.150957908985543 66.7304040277353 0.745537513046281 -98.2496438880778 0.745537513046282 -98.2496438880779 0.0297645841047229 42.3749958466118 
18.2                           0.151453383999074 72.1767998479409 0.751734440056105 -105.774339553289 0.751734440056106 -105.774339553289 0.0193214201991676 121.312336765183 
18.25                          0.158256781708805 77.0673669883206 0.756646768328325 -113.308842965402 0.756646768328325 -113.308842965402 0.0471612248174324 154.026118099866 
18.3                           0.170640871944117 80.5464994737339 0.760238869491361 -120.851799466981 0.760238869491361 -120.851799466981 0.0802129320243305 155.964543388381 
18.35                          0.187316656358025 82.2650423117025 0.762499903537557 -128.402321946164 0.762499903537557 -128.402321946164 0.113557024789538 152.579429052307 
18.4                           0.206948294107378 82.2902590809401 0.763438741346711 -135.960538277363 0.763438741346711 -135.960538277364 0.146359200970476 147.394165463356 
18.45                          0.228437707353756 80.8796929631581 0.763076745943831 -143.52795834926 0.763076745943831 -143.52795834926 0.178257979264006 141.33435617771  
18.5                           0.250992829171361 78.3220375339686 0.761439423026356 -151.107650779542 0.761439423026356 -151.107650779542 0.209057199849762 134.738908706808 
18.55                          0.274095186531115 74.8692013571383 0.758547911198227 -158.704235241623 0.758547911198227 -158.704235241623 0.238665973354912 127.754818251183 
18.6                           0.29744221293367 70.7203858970062 0.754411140438309 -166.323706373278 0.75441114043831 -166.323706373278 0.267077940804259 120.450873602129 
18.65                          0.320892804126298 66.0265305745705 0.74901930888778 -173.973109074868 0.749019308887781 -173.973109074868 0.294358850543175 112.859445533125 
18.7                           0.344422183815403 60.8999947802924 0.742339172859358 178.339916217394 0.742339172859359 178.339916217394 0.320635674435432 104.995006080358 
18.75                          0.368084924416453 55.4239662831511 0.734311551317431 170.607703680663 0.734311551317433 170.607703680663 0.3460853315186  96.8638480202885 
18.8                           0.39198365860789 49.6601653434646 0.724851422529514 162.823236857635 0.724851422529515 162.823236857635 0.37092217973688 88.4700702854952 
18.85                          0.416241459247099 43.6548394073069 0.713851013568459 154.980917592256 0.71385101356846 154.980917592256 0.39538366676592 79.8197801849682 
18.9                           0.440976694626438 37.4434211062655 0.701186297929927 147.077412774936 0.701186297929928 147.077412774936 0.419713670879571 70.9242623966867 
18.95                          0.46628004627426 31.0542336557851 0.686727241016381 139.112548048638 0.686727241016381 139.112548048638 0.44414340678388 61.8023399052849 
19                             0.492194242431461 24.511526487176  0.670351872223685 131.090194209887 0.670351872223685 131.090194209887 0.468870440819991 52.4819116015827 
19.05                          0.518697847230532 17.837998175762  0.651963735846043 123.019062270344 0.651963735846043 123.019062270344 0.494037329496521 43.0005645893521 
19.1                           0.545695005399653 11.0568465057423 0.631511465736767 114.913293831167 0.631511465736767 114.913293831167 0.519712459930363 33.4051777521576 
19.15                          0.573013151113371 4.19329616613001 0.609008250243637 106.792715761063 0.609008250243636 106.792715761063 0.5458764471646  23.7505250198149 
19.2                           0.60041012925079 -2.72449012307052 0.584548076999564 98.6826356339631 0.584548076999562 98.682635633963  0.572417469516276 14.0970144643304 
19.25                          0.627590875010346 -9.66519946598359 0.558315272092704 90.6130975984878 0.558315272092702 90.6130975984877 0.599137868473761 4.50782015015473 
19.3                           0.654231963720714 -16.594870322239 0.530584357418996 82.6175980798858 0.530584357418994 82.6175980798857 0.625772247021481 -4.9542578601594 
19.35                          0.68001050131301 -23.4780173070022 0.501708782358755 74.7313626044324 0.501708782358753 74.7313626044323 0.652014703568976 -14.2298507578257 
19.4                           0.704632657809054 -30.2791807989412 0.472099354957095 66.9893808901125 0.472099354957093 66.9893808901124 0.677550619477082 -23.2656784833285 
19.45                          0.727857171956999 -36.9646306038873 0.442195513786558 59.4244550204459 0.442195513786557 59.4244550204457 0.702087415242874 -32.016570457527 
19.5                           0.749510439263429 -43.5039429252047 0.412434132455818 52.0655136295281 0.412434132455817 52.0655136295279 0.725379271509897 -40.4467170759382 
19.55                          0.769491880991356 -49.8712246249237 0.383220800399544 44.9363838863741 0.383220800399544 44.9363838863738 0.74724268483508 -48.5301304506811 
19.6                           0.787770429819606 -56.045856690976 0.354907482469652 38.0551145557384 0.354907482469651 38.0551145557379 0.767562122917122 -56.2503924242425 
19.65                          0.804374493478547 -62.0127362889198 0.327778625780711 31.4338398937733 0.32777862578071 31.4338398937728 0.786287121978483 -63.5998404194075 
19.7                           0.819378363679796 -67.7620836421322 0.302045850475264 25.0790937638457 0.302045850475264 25.0790937638451 0.803423398979375 -70.5783780071755 
19.75                          0.832887812564366 -73.2889301963534 0.277849890003859 18.9924403330998 0.277849890003859 18.992440333099  0.819020841503529 -77.1920972675056 
19.8                           0.84502689063805 -78.5924176247521 0.255267680560556 13.1712811817245 0.255267680560556 13.1712811817236 0.833160828423583 -83.4518726080967 
19.85                          0.855927070476306 -83.6750231140862 0.234322387047956 7.60971804315778 0.234322387047955 7.60971804315677 0.845944586203995 -89.3720434399067 
19.9                           0.865719127216288 -88.5417981733725 0.214994478431889 2.29938237900887 0.214994478431888 2.29938237900769 0.857483508668282 -94.9692581576919 
19.95                          0.87452762622813 -93.1996770583577 0.197232486132526 -2.76982342712495 0.197232486132524 -2.76982342712616 0.867891744246174 -100.261512748678 
20                             0.882467605617538 -97.6568837641801 0.180962610324481 -7.60909997880234 0.180962610324479 -7.60909997880363 0.877280944061497 -105.267388132345 
20.05                          0.889642943180239 -101.922446350006 0.166096777566995 -12.2302458341744 0.166096777566993 -12.2302458341757 0.885756847995889 -110.005471538246 
20.1                           0.896145916077   -106.005814302177 0.152539064288926 -16.6452663569725 0.152539064288924 -16.6452663569739 0.893417311796108 -114.493937274346 
20.15                          0.902057538521796 -109.916567476983 0.140190591783045 -20.8660823319903 0.140190591783043 -20.8660823319917 0.900351391066019 -118.750258746532 
20.2                           0.907448358014121 -113.664202221662 0.128953095756855 -24.9043216482737 0.128953095756852 -24.904321648275 0.906639153685231 -122.791024233805 
20.25                          0.912379481123086 -117.25798000973 0.118731406776469 -28.7711775010858 0.118731406776467 -28.771177501087 0.912351961713106 -126.631831833775 
20.3                           0.91690367517771 -120.706825149972 0.109435072491477 -32.477318184462 0.109435072491475 -32.4773181844632 0.917553030752602 -130.287242854912 
20.35                          0.921066449829935 -124.019260018222 0.100979326990179 -36.0328357902875 0.100979326990177 -36.0328357902886 0.922298131560283 -133.770776923405 
20.4                           0.924907063748934 -127.203368311687 0.0932855792518451 -39.4472234792014 0.0932855792518434 -39.4472234792025 0.926636343292636 -137.094935742198 
20.45                          0.928459429690899 -130.266778758576 0.0862815586646314 -42.7293731635618 0.08628155866463 -42.7293731635626 0.930610800883825 -140.271245586522 
20.5                           0.93175290913264 -133.216663402327 0.0799012247093039 -45.8875873188198 0.0799012247093026 -45.8875873188204 0.934259402538055 -143.310311194623 
20.55                          0.934812998446133 -136.059745980688 0.0740845217122008 -48.9296001850327 0.0740845217121998 -48.9296001850332 0.937615459329001 -146.221875747482 
20.6                           0.937661914520124 -138.802317044701 0.0687770383193295 -51.8626048522957 0.0687770383193287 -51.8626048522962 0.940708279380709 -149.014883197915 
20.65                          0.940319090509561 -141.450253343745 0.063929614658215 -54.6932836824568 0.0639296146582145 -54.693283682457 0.943563685660261 -151.697540389314 
20.7                           0.942801593219459 -144.009039680027 0.0594979273815625 -57.4278402511442 0.0594979273815623 -57.4278402511443 0.946204470272014 -154.277377276108 
20.75                          0.945124473324167 -146.483791948709 0.0554420732112814 -60.0720315438303 0.0554420732112813 -60.0720315438301 0.948650790209281 -156.76130419096 
20.8                           0.947301058719522 -148.879280463379 0.0517261645531926 -62.631199546997 0.0517261645531928 -62.6311995469966 0.950920510431946 -159.155665554906 
20.85                          0.949343200139018 -151.199952950251 0.0483179456539978 -65.1103016734814 0.0483179456539982 -65.1103016734809 0.953029500338432 -161.466289742218 
20.9                           0.951261476936246 -153.449956802172 0.0451884341485187 -67.5139396763209 0.0451884341485192 -67.5139396763202 0.954991889483345 -163.698535027219 
20.95                          0.953065369757309 -155.633160334069 0.0423115903202519 -69.8463868587726 0.0423115903202527 -69.8463868587717 0.956820287951306 -165.857331683159 
21                             0.954763405755391 -157.753172889329 0.0396640146802216 -72.1116134956747 0.0396640146802224 -72.1116134956738 0.958525976255406 -167.947220393924 
21.05                          0.956363281058131 -159.813363722931 0.0372246733359438 -74.3133104551837 0.0372246733359448 -74.3133104551825 0.960119069060404 -169.972387193204 
21.1                           0.957871964390027 -161.816879640272 0.0349746499076091 -76.4549110593196 0.0349746499076101 -76.4549110593184 0.961608656479947 -171.936695173867 
21.15                          0.959295785068985 -163.766661406802 0.0328969223290402 -78.5396112535234 0.0328969223290414 -78.539611253522 0.963002926186842 -173.843713220914 
21.2                           0.960640508025703 -165.665458967524 0.0309761626562073 -80.5703881746182 0.0309761626562085 -80.5703881746167 0.964309269116673 -175.696742020345 
21.25                          0.961911398022083 -167.515845530469 0.0291985579304805 -82.5500172168982 0.0291985579304818 -82.5500172168966 0.965534371140553 -177.498837587707 
21.3                           0.963113274855891 -169.320230577064 0.0275516501602649 -84.4810877002311 0.0275516501602661 -84.4810877002294 0.966684292731124 -179.252832547008 
21.35                          0.964250561019976 -171.080871866688 0.0260241935596393 -86.3660172440402 0.0260241935596405 -86.3660172440384 0.967764538343098 179.038644624907 
21.4                           0.965327323023619 -172.79988650397 0.0246060272926067 -88.2070649482242 0.0246060272926079 -88.2070649482224 0.968780116970784 177.373152190156 
21.45                          0.966347307370754 -174.479261136608 0.0232879621002177 -90.0063434775011 0.0232879621002188 -90.0063434774993 0.969735595124765 175.748419396293 
21.5                           0.967313972016222 -176.120861349298 0.0220616793240813 -91.7658301400319 0.0220616793240824 -91.7658301400302 0.970635143283147 174.16233221242  
21.55                          0.968230513979601 -177.726440316321 0.0209196409762643 -93.4873770449895 0.0209196409762653 -93.4873770449879 0.971482576714818 172.612920405549 
21.6                           0.969099893680638 -179.297646771771 0.0198550096375927 -95.1727204173376 0.0198550096375936 -95.1727204173359 0.972281391438624 171.098345822451 
21.65                          0.969924856465825 179.163967647367 0.0188615770910456 -96.82348914169  0.0188615770910463 -96.8234891416885 0.973034795969649 169.616891755758 
21.7                           0.970707951718414 177.65694163399  0.0179337007127116 -98.4412126008823 0.0179337007127121 -98.4412126008809 0.973745739408556 168.166953285446 
21.75                          0.97145154988075 176.179897971981 0.0170662467489507 -100.0273278689  0.0170662467489511 -100.0273278689  0.974416936349509 166.747028498038 
21.8                           0.972157857665718 174.731537781884 0.0162545397048658 -101.583186312111 0.0162545397048661 -101.58318631211 0.975050889014147 165.355710496084 
21.85                          0.972828931691121 173.310635210845 0.0154943171561944 -103.110059647344 0.0154943171561945 -103.110059647344 0.975649906961503 163.991680119539 
21.9                           0.973466690735311 171.916032529891 0.0147816893747749 -104.609145500295 0.0147816893747747 -104.609145500295 0.976216124674901 162.653699308947 
21.95                          0.97407292678297 170.546635604682 0.0141131032274387 -106.081572502904 0.0141131032274383 -106.081572502904 0.976751517285424 161.340605047631 
22                             0.974649315005392 169.201409708768 0.0134853098702193 -107.528404963825 0.0134853098702187 -107.528404963827 0.977257914656254 160.051303826692 
22.05                          0.97519742279922 167.87937565101  0.0128953358148341 -108.950647141777 0.0128953358148333 -108.950647141779 0.977737014022131 158.784766582474 
22.1                           0.975718717990403 166.579606191317 0.0123404569931825 -110.349247147402 0.0123404569931815 -110.349247147405 0.978190391352529 157.540024061397 
22.15                          0.976214576295767 165.301222721031 0.0118181754887443 -111.725100495283 0.0118181754887431 -111.725100495287 0.978619511585151 156.316162571708 
22.2                           0.976686288122395 164.0433921864   0.0113261986418706 -113.079053323828 0.0113261986418692 -113.079053323833 0.979025737857562 155.1123200859   
22.25                          0.977135064774727 162.805324235408 0.0108624202695858 -114.411905296906 0.0108624202695842 -114.411905296912 0.979410339848584 153.927682661213 
22.3                           0.977562044130498 161.586268569976 0.0104249037701648 -115.72441219727 0.0104249037701631 -115.724412197277 0.979774501327151 152.761481148969 
22.35                          0.97796829583918 160.385512487076 0.0100118669088691 -117.017288217978 0.0100118669088671 -117.017288217986 0.980119326994328 151.612988166445 
22.4                           0.978354826090141 159.202378593751 0.00962166810422212 -118.291207954172 0.00962166810422006 -118.291207954182 0.980445848693801 150.481515307601 
22.45                          0.978722581992241 158.036222682296 0.00925279405444024 -119.546808093672 0.00925279405443813 -119.546808093683 0.980755031057154 149.366410571349 
22.5                           0.979072455601822 156.886431753046 0.00890384856142105 -120.784688800997 0.00890384856141883 -120.78468880101 0.981047776642447 148.267055988136 
22.55                          0.979405287631897 155.752422173303 0.00857354242531593 -122.005414785652 0.00857354242531374 -122.005414785665 0.981324930617807 147.1828654275   
22.6                           0.979721870871795 154.633637961868 0.00826068429641642 -123.209516041894 0.00826068429641424 -123.20951604191 0.981587285035822 146.113282570934 
22.65                          0.980022953343356 153.529549189571 0.00796417238308218 -124.397488244092 0.00796417238308011 -124.397488244108 0.981835582739376 145.057779035889 
22.7                           0.980309241217041 152.439650486979 0.00768298692492716 -125.569792779271 0.0076829869249252 -125.569792779288 0.982070520935023 144.015852638104 
22.75                          0.980581401508943 151.363459651194 0.00741618334962306 -126.726856397228 0.00741618334962129 -126.726856397245 0.982292754466024 142.987025780652 
22.8                           0.98084006457752 150.300516344337 0.007162886039636 -127.869070459056 0.00716288603963452 -127.869070459071 0.982502898813721 141.970843959173 
22.85                          0.981085826437056 149.250380876907 0.00692228264212292 -128.996789768094 0.00692228264212174 -128.996789768108 0.98270153285282 140.966874373754 
22.9                           0.98131925090317 148.212633069778 0.00669361886122517 -130.110330974243 0.00669361886122434 -130.110330974254 0.982889201383473 139.97470463875  
22.95                          0.981540871584229 147.186871189082 0.00647619367725269 -131.209970554633 0.00647619367725231 -131.20997055464 0.98306641746066 138.993941582696 
23                             0.981751193731227 146.172710948708 0.00626935494191937 -132.295942392688 0.00626935494191946 -132.295942392688 0.983233664539269 138.024210131092 
