! Touchstone file exported from HFSS 3D Layout Design 2026.1.0
!        File:           D:/Work/SIM/ADS_AUTO_SIM/projects/RFSOC_RF/TX_Fillter.aedt
!        Generated:      03:50:20 AM Aug 31, 2026
!        Design:         TX_BAND1_MCFIL_R41_CNN013
!        Project:        TX_Fillter
!
# GHz S MA R 50.000000
! Terminal data exported
! Port[1] = Port1
! Port[2] = Port2
14                             0.972963938709266 -165.022230552917 0.0035636485170736 -178.322477500225 0.0035636485170736 -178.322477500225 0.97556648537888 -159.059585894041 
14.05                          0.972469759873458 -165.908559618078 0.00363097288489141 -178.731264290667 0.00363097288489138 -178.731264290667 0.975140802153294 -159.90133169554 
14.1                           0.971960242010528 -166.800935572189 0.00370141155260812 -179.119636951069 0.00370141155260809 -179.119636951068 0.974702286357927 -160.748158832533 
14.15                          0.971434638193872 -167.6995445294  0.0037752066241902 -179.487115794378 0.00377520662419016 -179.487115794377 0.974250315447063 -161.600215102058 
14.2                           0.970892152438757 -168.604582326701 0.00385262382309066 -179.833252642173 0.0038526238230906 -179.833252642173 0.973784225881238 -162.457656183465 
14.25                          0.97033193566233 -169.516255156554 0.00393395508287631 179.842361947876 0.00393395508287625 179.842361947876 0.973303309742246 -163.32064615663 
14.3                           0.969753081241784 -170.434780249598 0.00401952144236039 179.540090615869 0.00401952144236034 179.540090615869 0.972806811010517 -164.189358061254 
14.35                          0.969154620123652 -171.360386612162 0.00410967628260239 179.260240254245 0.00410967628260234 179.260240254245 0.972293921465253 -165.063974501186 
14.4                           0.968535515430794 -172.293315823879 0.00420480894795095 179.003052152631 0.00420480894795089 179.003052152631 0.971763776162247 -165.944688298066 
14.45                          0.967894656506334 -173.233822901269 0.00430534879881287 178.76869121612  0.00430534879881285 178.768691216121 0.971215448438195 -166.831703199154 
14.5                           0.967230852325319 -174.182177233828 0.00441176975015465 178.557234257598 0.00441176975015462 178.557234257599 0.970647944383054 -167.725234644674 
14.55                          0.966542824195008 -175.138663599923 0.00452459535703248 178.368657386328 0.00452459535703244 178.368657386329 0.970060196713746 -168.625510600707 
14.6                           0.965829197653351 -176.103583270631 0.00464440451688983 178.202822540992 0.0046444045168898 178.202822540993 0.969451057972798 -169.532772464288 
14.65                          0.965088493461873 -177.077255210658 0.00477183786818353 178.059463245754 0.0047718378681835 178.059463245755 0.968819292964279 -170.44727604822 
14.7                           0.964319117573722 -178.060017386531 0.00490760497637936 177.938169702332 0.00490760497637934 177.938169702332 0.968163570326254 -171.369292653971 
14.75                          0.963519349939498 -179.052228193537 0.00505249241184245 177.838373369    0.00505249241184245 177.838373369    0.967482453123594 -172.299110242077 
14.8                           0.962687331992237 179.94573198572  0.0052073728400517 177.759331217833 0.00520737284005168 177.759331217833 0.96677438832697 -173.237034710591 
14.85                          0.961821052627934 178.933459076641 0.00537321526341213 177.700109902745 0.00537321526341212 177.700109902744 0.966037695022606 -174.183391293494 
14.9                           0.960918332468564 177.910523445517 0.00555109657634658 177.659570111059 0.00555109657634659 177.659570111059 0.965270551172418 -175.138526092437 
14.95                          0.959976806159739 176.876467851509 0.00574221462208907 177.636351407727 0.00574221462208907 177.636351407727 0.964470978714503 -176.102807756925 
15                             0.958993902413937 175.830805196906 0.00594790297159965 177.628857910835 0.00594790297159966 177.628857910836 0.963636826758931 -177.076629330024 
15.05                          0.957966821461174 174.773016052051 0.00616964768340242 177.635245156273 0.00616964768340247 177.635245156273 0.96276575259203 -178.060410278886 
15.1                           0.956892509510631 173.702545928183 0.0064091063492725 177.65340851447  0.0064091063492725 177.65340851447  0.961855200152584 -179.054598731962 
15.15                          0.955767629756837 172.618802267839 0.0066681297862006 177.680973509419 0.00666812978620063 177.680973509418 0.960902375583839 179.940326052268 
15.2                           0.954588529380296 171.521151118292 0.00694878680193483 177.715288356262 0.00694878680193485 177.715288356261 0.959904219393724 178.923850956919 
15.25                          0.953351201891648 170.408913448777 0.00725339254202025 177.753418975989 0.00725339254202028 177.753418975989 0.958857374669646 177.895425986638 
15.3                           0.952051244046847 169.281361066763 0.00758454102354039 177.792146662572 0.00758454102354042 177.792146662572 0.957758150690312 176.854460919475 
15.35                          0.950683806413617 168.13771208232  0.00794514257822412 177.827968469162 0.00794514257822415 177.827968469161 0.956602481151062 175.800321589254 
15.4                           0.949243536490584 166.977125862441 0.0083384670695245 177.857100247258 0.00833846706952455 177.857100247257 0.955385876066081 174.732325751284 
15.45                          0.947724513062461 165.798697409035 0.00876819391996653 177.87548211947  0.00876819391996659 177.87548211947  0.954103366224035 173.649738477765 
15.5                           0.946120170208125 164.601451085003 0.00923847019298669 177.878785997768 0.0092384701929867 177.878785997768 0.952749438844971 172.551767021821 
15.55                          0.944423209051243 163.384333602277 0.0097539782256578 177.862424581414 0.00975397822565784 177.862424581414 0.951317962805415 171.437555080863 
15.6                           0.942625494940358 162.146206173879 0.0103200146150416 177.821561089597 0.0103200146150417 177.821561089597 0.949802101452289 170.306176380685 
15.65                          0.940717937247747 160.885835718891 0.0109425827337631 177.75111881049  0.0109425827337632 177.751118810489 0.948194210598029 169.156627491524 
15.7                           0.938690348359591 159.601884994773 0.0116285014050807 177.645789387869 0.0116285014050807 177.645789387868 0.946485718757752 167.987819776352 
15.75                          0.936531277663097 158.292901516014 0.012385532923245 177.500038623438 0.012385532923245 177.500038623438 0.944666986027592 166.798570360036 
15.8                           0.934227815379646 156.95730510209  0.0132225342848277 177.308108450115 0.0132225342848277 177.308108450115 0.942727137176846 165.587591996496 
15.85                          0.93176535989659 155.593373882034 0.01414963632994 177.064013627879 0.01414963632994 177.064013627879 0.940653863491377 164.353481700188 
15.9                           0.929127340750061 154.199228569352 0.0151784565142534 176.761531625029 0.0151784565142535 176.761531625029 0.938433186605687 163.094708000001 
15.95                          0.926294887526073 152.772814812011 0.0163223522862257 176.394184065653 0.0163223522862257 176.394184065653 0.936049175925116 161.809596670218 
16                             0.923246432575262 151.311883422509 0.0175967235796574 175.955208037386 0.0175967235796575 175.955208037386 0.933483609177595 160.496314798817 
16.05                          0.919957232450381 149.813968309439 0.0190193748082331 175.437515447787 0.0190193748082332 175.437515447787 0.930715563033807 159.15285307432  
16.1                           0.916398789218634 148.276361976103 0.0206109490307979 174.8336384768   0.020610949030798 174.8336384768   0.927720917456515 157.777006218924 
16.15                          0.912538148085506 146.696088541555 0.0223954497099887 174.135658980168 0.0223954497099887 174.135658980167 0.924471753316827 156.36635158349  
16.2                           0.908337041877036 145.069874403514 0.0244008687697293 173.335119438824 0.0244008687697294 173.335119438824 0.920935617653775 154.91822607428  
16.25                          0.903750845634031 143.394116946161 0.0266599434966364 172.422912710731 0.0266599434966366 172.42291271073  0.917074624545169 153.429701840911 
16.3                           0.898727295667103 141.66485217024  0.0292110691858295 171.38914742059  0.0292110691858296 171.389147420589 0.91284435170985 151.897561581312 
16.35                          0.893204916801997 139.877722901309 0.0320993991233545 170.222985330652 0.0320993991233547 170.222985330652 0.908192483566507 150.318275008261 
16.4                           0.887111089373774 138.027950493774 0.0353781680820884 168.912446510013 0.0353781680820886 168.912446510013 0.903057140651191 148.687979124261 
16.45                          0.880359674558246 136.110314978585 0.0391102790609179 167.444177644697 0.039110279060918 167.444177644697 0.897364823667791 147.002466703616 
16.5                           0.872848104807256 134.119151854521 0.0433701937398455 165.803178571877 0.0433701937398456 165.803178571877 0.891027889668934 145.257190154024 
16.55                          0.864453839751214 132.048378917897 0.0482461617978392 163.972482383454 0.0482461617978394 163.972482383454 0.883941471608126 143.447292306036 
16.6                           0.855030095589173 129.891574807414 0.0538428070759583 161.932785767478 0.0538428070759584 161.932785767478 0.875979758234947 141.567682560663 
16.65                          0.844400794364469 127.642144113862 0.060284049640992 159.662029573107 0.0602840496409921 159.662029573107 0.866991583465673 139.613187600741 
16.7                           0.832354779633861 125.293624779068 0.0677162655394993 157.134936463747 0.0677162655394993 157.134936463746 0.856795359860582 137.578822623987 
16.75                          0.818639562805024 122.840226364718 0.0763114437262421 154.322525523142 0.0763114437262421 154.322525523141 0.845173578155768 135.46025479203  
16.8                           0.802955297236679 120.277738860154 0.0862698514325917 151.191646816904 0.0862698514325916 151.191646816904 0.831867468047222 133.254569331068 
16.85                          0.784950486994368 117.605029434841 0.0978213075555832 147.704618121771 0.0978213075555831 147.70461812177  0.816573113325841 130.961505007713 
16.9                           0.764222374521357 114.826458321851 0.111223519609549 143.819109210149 0.111223519609548 143.819109210149 0.79894154811113 128.585402355803 
16.95                          0.740327356959841 111.955699766327 0.126755011837333 139.488514576518 0.126755011837333 139.488514576518 0.778587406300149 126.138199407146 
17                             0.71281049299958 109.021633320086 0.144699009436685 134.663186631309 0.144699009436684 134.663186631309 0.755113793204163 123.643884643342 
17.05                          0.681268165916682 106.077092855831 0.165313583567456 129.293052473712 0.165313583567455 129.293052473712 0.728165049442971 121.144780879419 
17.1                           0.645462972159626 103.211074385506 0.188783353269697 123.332245979859 0.188783353269696 123.332245979859 0.697522572967505 118.709656504847 
17.15                          0.605510463994254 100.563874174518 0.215150991158791 116.74630424282  0.21515099115879 116.74630424282  0.663257526770539 116.44247261171  
17.2                           0.562143163681316 98.3411890398086 0.244235350262565 109.521947284428 0.244235350262564 109.521947284428 0.625938885137623 114.487834388733 
17.25                          0.517010661568488 96.8151894345255 0.275558594327488 101.678210510226 0.275558594327487 101.678210510226 0.586852645220446 113.024361988905 
17.3                           0.472877783006241 96.2866359096121 0.308322456473276 93.2757814595933 0.308322456473276 93.2757814595934 0.548112612588409 112.231817413423 
17.35                          0.433449857078313 96.9714361156618 0.341477994533533 84.4197159274679 0.341477994533533 84.419715927468  0.512468708585799 112.219967777503 
17.4                           0.402510782520476 98.8076956209295 0.373903903406806 75.2511266694286 0.373903903406806 75.2511266694286 0.482654071840365 112.932694075058 
17.45                          0.382403881960774 101.305369732033 0.404646518918671 65.9273520456697 0.404646518918672 65.9273520456696 0.460389508724913 114.091435442044 
17.5                           0.372712787995474 103.664412954664 0.433122337734723 56.5960883945634 0.433122337734723 56.5960883945633 0.445584833380804 115.259117508112 
17.55                          0.370338310359848 105.162698347527 0.459194184636783 47.3726469911537 0.459194184636783 47.3726469911535 0.436337273756889 116.01355965849  
17.6                           0.370965061711471 105.456636175086 0.483104087453545 38.3276656245113 0.483104087453545 38.3276656245112 0.429729305828688 116.101248180715 
17.65                          0.370627202037053 104.572379703157 0.50531792586363 29.4869125056917 0.505317925863629 29.4869125056915 0.422812945277453 115.472721018689 
17.7                           0.366467052984446 102.73635269654  0.526357344534181 20.8398179778517 0.52635734453418 20.8398179778516 0.413238000825271 114.227443815707 
17.75                          0.356780023417245 100.237363898522 0.546668813808198 12.3517566959603 0.546668813808197 12.3517566959602 0.399443342677852 112.545709299744 
17.8                           0.340778438039438 97.3717128830358 0.566544262613652 3.97624030122458 0.566544262613652 3.97624030122452 0.380603026883626 110.650509865827 
17.85                          0.318361064561892 94.4494328828273 0.586086516715144 -4.33488746763754 0.586086516715143 -4.33488746763757 0.356521052239648 108.804559150372 
17.9                           0.289995808532799 91.8400165335541 0.605207944061662 -12.6237390840231 0.605207944061663 -12.6237390840231 0.327581138980663 107.335847410143 
17.95                          0.256743267643518 90.0568826604404 0.623654217019622 -20.9210207722805 0.623654217019622 -20.9210207722806 0.294795034309497 106.687531451934 
18                             0.220452439387041 89.8994839180401 0.641049323967753 -29.2428230284175 0.641049323967754 -29.2428230284176 0.259972559360824 107.487361170125 
18.05                          0.184224589515717 92.6607047750934 0.656958848166285 -37.589514369495 0.656958848166287 -37.5895143694951 0.226031125699855 110.599390886258 
18.1                           0.15326466766238 100.174643698132 0.670965340976279 -45.9467706337663 0.670965340976281 -45.9467706337664 0.197359880298421 116.981294435015 
18.15                          0.135401805198491 113.471761787364 0.682744286848932 -54.2886456711227 0.682744286848934 -54.2886456711229 0.179621917052134 126.906101287786 
18.2                           0.13751069138129 129.109304434802 0.692125401852854 -62.5822617549602 0.692125401852856 -62.5822617549604 0.177521078076823 138.619772945178 
18.25                          0.158004564028071 140.738725093331 0.699125352321202 -70.793319933634 0.699125352321204 -70.7933199336342 0.191078887069016 148.816323185295 
18.3                           0.188784842628672 146.388274465131 0.703945237777756 -78.8914152416638 0.703945237777757 -78.891415241664 0.215547359942029 155.488615088155 
18.35                          0.222798124421978 147.570678176252 0.706936397704174 -86.8542310406173 0.706936397704174 -86.8542310406174 0.245213170151314 158.735947408837 
18.4                           0.255863161327446 145.965509238349 0.70854637603354 -94.6700545984667 0.70854637603354 -94.6700545984668 0.275799733954846 159.461926400989 
18.45                          0.285711245829014 142.650164585203 0.709259739734392 -102.338531599815 0.709259739734392 -102.338531599815 0.304639375905092 158.507527656931 
18.5                           0.311144400335449 138.245557402234 0.70954584121662 -109.869964944998 0.70954584121662 -109.869964944998 0.330199645201149 156.466270432277 
18.55                          0.331576125558213 133.103026324386 0.709820123028336 -117.283653932422 0.709820123028336 -117.283653932422 0.351667540682755 153.725619634971 
18.6                           0.346785156280319 127.418685104099 0.710420184522425 -124.605769293127 0.710420184522426 -124.605769293127 0.368677722176542 150.534127352048 
18.65                          0.356776572733756 121.296576488763 0.71159433459468 -131.867142689897 0.711594334594681 -131.867142689897 0.381144484678262 147.051686815162 
18.7                           0.361702798638576 114.783568964506 0.713499028960123 -139.101200021109 0.713499028960126 -139.101200021109 0.389159693516963 143.382088747434 
18.75                          0.361822783670811 107.889083415084 0.716201841848843 -146.3421428862  0.716201841848846 -146.342142886199 0.392933122576792 139.593206106277 
18.8                           0.357487962289211 100.596499711681 0.719687655536974 -153.623405704436 0.719687655536978 -153.623405704436 0.392760494408413 135.729043378597 
18.85                          0.349147690100882 92.8699450791866 0.723866935886304 -160.97638806063 0.723866935886308 -160.976388060629 0.389008914757454 131.816165561681 
18.9                           0.33736832121029 84.6587710080851 0.728585900510424 -168.429472202371 0.728585900510428 -168.429472202371 0.382111303943497 127.865744778992 
18.95                          0.322860038004448 75.9016952613149 0.733638846774785 -176.007368898521 0.733638846774788 -176.007368898521 0.372562107827033 123.871641241536 
19                             0.306504212247859 66.5330884967958 0.738782754469205 176.269126719005 0.738782754469207 176.269126719005 0.360907021627937 119.804503310795 
19.05                          0.289371381526504 56.4950963328816 0.743753465955359 168.382864185562 0.74375346595536 168.382864185562 0.347720895329765 115.601847170112 
19.1                           0.272715974738617 45.7605568733012 0.748281370713391 160.31945870061  0.74828137071339 160.31945870061  0.333571985084744 111.154514575136 
19.15                          0.257930425357867 34.370628374225  0.752102887537929 152.065776832198 0.752102887537927 152.065776832198 0.318978854699904 106.29074389566  
19.2                           0.246444698575927 22.4827019472005 0.754962670125776 143.607887403096 0.754962670125773 143.607887403096 0.304379139361141 100.760002636675 
19.25                          0.239580197997714 10.4049059832855 0.756601007969448 134.928764041757 0.756601007969443 134.928764041757 0.290145477422647 94.2194146730465 
19.3                           0.238415151413427 -1.42521687794806 0.756721990894783 126.006256515456 0.756721990894778 126.006256515457 0.276698633528973 86.2271852123735 
19.35                          0.243756506103532 -12.5455662576637 0.754941277418682 116.812106621544 0.754941277418678 116.812106621545 0.264771969349158 76.2551841719644 
19.4                           0.256265923211273 -22.6247815922528 0.750718632748635 107.313049010159 0.750718632748632 107.31304901016  0.255849375030259 63.7574825124557 
19.45                          0.276643843871415 -31.5836539078082 0.743291184132553 97.4752433724454 0.743291184132552 97.4752433724461 0.252656466608304 48.3722079048758 
19.5                           0.305664200822715 -39.6152535028348 0.731639700450296 87.2732339521031 0.731639700450297 87.2732339521037 0.25923409523951 30.3027955113278 
19.55                          0.343908628202181 -47.096617487354 0.714539145805617 76.7038844798977 0.714539145805618 76.7038844798981 0.279838929839697 10.6185823084004 
19.6                           0.391255491861511 -54.4377093632832 0.690751549739148 65.8036733224929 0.690751549739148 65.8036733224931 0.316759806101016 -9.09416459969857 
19.65                          0.446390501474833 -61.9396611424187 0.659383389921699 54.6641922608087 0.659383389921697 54.6641922608085 0.368826677679988 -27.5939391370735 
19.7                           0.506670663033842 -69.7213159454059 0.620326709269122 43.4372813437477 0.620326709269115 43.4372813437473 0.431870229686854 -44.3834319798773 
19.75                          0.568525755693718 -77.7276854579493 0.574574061879108 32.3218759751962 0.574574061879098 32.3218759751958 0.500281506467149 -59.4573376391543 
19.8                           0.628276282169864 -85.7929309556456 0.524175682677647 21.532419051054  0.524175682677634 21.5324190510538 0.568546525434445 -72.9638559431744 
19.85                          0.682977551516781 -93.7172544819219 0.471791145756733 11.2599864352719 0.471791145756717 11.259986435272  0.632335837692277 -85.0517565770232 
19.9                           0.73089823181645 -101.326408473668 0.420053606783522 1.64233321728177 0.420053606783506 1.64233321728226 0.689003660574869 -95.8469260869159 
19.95                          0.771514189377239 -108.501127463066 0.371058547129188 -7.24718439321182 0.371058547129174 -7.24718439321087 0.737512795706672 -105.466267118456 
20                             0.805181619009037 -115.180350307618 0.326146131919703 -15.3931492595684 0.32614613191969 -15.393149259567 0.778004066563246 -114.027990434836 
20.05                          0.832734825995251 -121.34973643271 0.285945057495535 -22.8223087060027 0.285945057495525 -22.8223087060009 0.811288542718339 -121.652042505936 
20.1                           0.855167081009174 -127.026052332059 0.250549853885421 -29.5865975060697 0.250549853885413 -29.5865975060676 0.838442059795854 -128.455510085645 
20.15                          0.873437738792538 -132.243459999798 0.219718914494691 -35.7494765708506 0.219718914494685 -35.7494765708484 0.860552597411484 -134.54769369772 
20.2                           0.88838304528817 -137.043702260031 0.193035357179361 -41.3767528580428 0.193035357179357 -41.3767528580404 0.878595248424062 -140.026910708852 
20.25                          0.900691528749763 -141.469978372749 0.170016601485021 -46.5312578458496 0.170016601485019 -46.5312578458473 0.893389012678202 -144.979239291011 
20.3                           0.91091200012206 -145.563558410704 0.150179862490554 -51.270243790498 0.150179862490552 -51.2702437904957 0.905596936048953 -149.47868271863 
20.35                          0.919474259607297 -149.362175804228 0.133076482091874 -55.6444637514093 0.133076482091874 -55.6444637514072 0.915744894826357 -153.588147021469 
20.4                           0.92671215071838 -152.899470573022 0.11830669145092 -59.6981897124038 0.11830669145092 -59.6981897124019 0.924245632119552 -157.360771872505 
20.45                          0.93288445013933 -156.205002591373 0.10552316447862 -63.469693915038 0.10552316447862 -63.4696939150363 0.931421807659781 -160.841329114362 
20.5                           0.93819214997943 -159.304542983527 0.0944287325825844 -66.9919159470664 0.0944287325825846 -66.991915947065 0.937525720905416 -164.067537092501 
20.55                          0.9427920938337  -162.220477341318 0.0847714535544687 -70.2931653848375 0.0847714535544692 -70.2931653848363 0.942755250543577 -167.071224483393 
20.6                           0.946807461390713 -164.972231677459 0.076338813603488 -73.3977857549179 0.0763388136034885 -73.3977857549171 0.947266342613536 -169.879325887586 
20.65                          0.950335720352696 -167.576677024003 0.0689519855411089 -76.3267483516726 0.0689519855411093 -76.3267483516721 0.951182630549206 -172.514716156707 
20.7                           0.953454619848827 -170.04849366923 0.0624605739429397 -79.0981672023491 0.06246057394294 -79.0981672023488 0.95460278298543 -174.996901152706 
20.75                          0.956226700938017 -172.400489378028 0.0567380082007619 -81.7277377339644 0.0567380082007621 -81.7277377339644 0.957606097819948 -177.342585822373 
20.8                           0.958702696662166 -174.643872620638 0.0516776043740712 -84.2291066284365 0.0516776043740714 -84.2291066284369 0.960256761838926 -179.566139921752 
20.85                          0.960924104614574 -176.788484838958 0.0471892500057026 -86.6141819476072 0.0471892500057025 -86.6141819476077 0.962607102134017 178.320020435384 
20.9                           0.962925143434761 -178.842996830882 0.0431966391761434 -88.8933925480701 0.0431966391761432 -88.8933925480708 0.964700077738199 176.305119891642 
20.95                          0.964734249820205 179.184925602142 0.0396349789066914 -91.0759050014362 0.0396349789066911 -91.0759050014369 0.966571198465852 174.379766729643 
21                             0.966375231623861 177.288481991734 0.0364490919088156 -93.1698051688043 0.0364490919088152 -93.1698051688054 0.968250010896203 172.535740979503 
21.05                          0.967868162306873 175.461619338937 0.033591848826684 -95.1822504882575 0.0335918488266836 -95.1822504882585 0.969761256034395 170.76581920538  
21.1                           0.969230079782816 173.6989324661   0.0310228725081779 -97.1195980304201 0.0310228725081774 -97.1195980304209 0.971125776789579 169.063629083621 
21.15                          0.970475536415805 171.995579564209 0.0287074659784876 -98.9875125005259 0.0287074659784871 -98.987512500527 0.972361233819121 167.423528234213 
21.2                           0.971617035019343 170.347210415824 0.0266157240239313 -100.791057622812 0.0266157240239308 -100.791057622813 0.973482673765752 165.840502854275 
21.25                          0.972665376959786 168.749905203017 0.0247217954035902 -102.534773725261 0.0247217954035897 -102.534773725262 0.974502983138942 164.310082572924 
21.3                           0.973629942031115 167.200122170765 0.0230032686924339 -104.222743834471 0.0230032686924334 -104.222743834472 0.97543325307676 162.828268641893 
21.35                          0.974518915007513 165.694652716447 0.0214406597205354 -105.858650175016 0.0214406597205349 -105.858650175017 0.976283074242186 161.391473130763 
21.4                           0.97533947024277 164.230582723761 0.0200169826436118 -107.445822629363 0.0200169826436113 -107.445822629364 0.977060776623975 159.996467237948 
21.45                          0.97609792304245 162.805259162965 0.0187173899996357 -108.987280439338 0.0187173899996353 -108.987280439339 0.977773625635882 158.640337182081 
21.5                           0.976799854548796 161.416261146325 0.0175288698034327 -110.48576820647 0.0175288698034324 -110.48576820647 0.978427983352983 157.320446421373 
21.55                          0.977450215377284 160.061374764602 0.0164399899185811 -111.94378706656 0.0164399899185808 -111.943787066561 0.979029441780287 156.034403175689 
21.6                           0.978053412102574 158.73857114268  0.0154406817188367 -113.363621765466 0.0154406817188364 -113.363621765466 0.979582933562552 154.780032408948 
21.65                          0.978613379818737 157.445987244784 0.0145220564886737 -114.747364241897 0.0145220564886734 -114.747364241898 0.980092824401625 153.555351577143 
21.7                           0.979133643327071 156.181909035629 0.013676249178991 -116.096934223794 0.0136762491789908 -116.096934223794 0.98056299056447 152.358549566985 
21.75                          0.979617368985023 154.944756666552 0.0128962850819979 -117.414097263289 0.0128962850819978 -117.41409726329 0.980996884178854 151.187968347447 
21.8                           0.980067408845123 153.73307140747  0.0121759657610786 -118.700480568144 0.0121759657610785 -118.700480568144 0.98139758847767 150.042086935961 
21.85                          0.980486338395957 152.545504088507 0.0115097712010763 -119.957586931961 0.0115097712010763 -119.957586931962 0.981767864732077 148.919507346018 
21.9                           0.980876488967791 151.380804850859 0.0108927756592611 -121.186807019503 0.0108927756592612 -121.186807019503 0.982110192281545 147.818942236361 
21.95                          0.981239975667881 150.237814036316 0.0103205751191919 -122.389430225049 0.010320575119192 -122.389430225049 0.982426802805615 146.739204026077 
22                             0.981578721553332 149.115454069789 0.00978922459635513 -123.56665428979 0.00978922459635527 -123.56665428979 0.982719709772297 145.679195276308 
22.05                          0.981894478623513 148.012722210112 0.00929518383000935 -124.719593837399 0.00929518383000952 -124.719593837399 0.982990733830081 144.637900169651 
22.1                           0.982188846112877 146.928684062057 0.00883527013146237 -125.849287964394 0.00883527013146258 -125.849287964394 0.9832415247754  143.614376943487 
22.15                          0.982463286483232 145.862467757311 0.00840661735421918 -126.956707002874 0.0084066173542194 -126.956707002874 0.98347358061822 142.607751154624 
22.2                           0.98271913944809 144.813258724807 0.00800664011347166 -128.042758557118 0.00800664011347191 -128.042758557119 0.983688264179904 141.617209670283 
22.25                          0.98295763430752 143.780294981472 0.00763300251722638 -129.108292901844 0.00763300251722664 -129.108292901844 0.983886817585271 140.641995295349 
22.3                           0.983179900827524 142.76286288354  0.00728359078384346 -130.15410781829 0.00728359078384373 -130.154107818291 0.984070374951802 139.681401958375 
22.35                          0.983386978861355 141.760293286383 0.00695648921482332 -131.180952934325 0.0069564892148236 -131.180952934326 0.984239973530381 138.734770389413 
22.4                           0.98357982688001 140.771958067438 0.00664995907053584 -132.189533626231 0.00664995907053615 -132.189533626231 0.984396563512018 137.801484231792 
22.45                          0.983759329553993 139.797266972513 0.00636241996285502 -133.180514532517 0.0063624199628553 -133.180514532517 0.984541016681908 136.880966537624 
22.5                           0.983926304507574 138.835664750695 0.00609243343448913 -134.154522723762 0.00609243343448945 -134.154522723763 0.984674134074651 135.97267660336  
22.55                          0.984081508349248 137.886628547292 0.00583868844192821 -135.112150567045 0.00583868844192849 -135.112150567045 0.984796652761608 135.076107107339 
22.6                           0.984225642067443 136.949665527904 0.00559998849881913 -136.05395831878 0.00559998849881941 -136.053958318781 0.984909251882158 134.190781516051 
22.65                          0.984359355868127 136.024310709923 0.00537524027041103 -136.980476475708 0.00537524027041126 -136.980476475709 0.985012558014573 133.316251730002 
22.7                           0.984483253520527 135.110124980476 0.00516344343846932 -137.892207910168 0.00516344343846955 -137.892207910168 0.985107149968675 132.452095943609 
22.75                          0.9845978962683  134.206693282258 0.00496368168055503 -138.78962981273 0.00496368168055523 -138.789629812731 0.985193563071041 131.597916696641 
22.8                           0.98470380635594 133.313622950795 0.00477511462847615 -139.673195462514 0.00477511462847632 -139.673195462515 0.985272293003807 130.753339097402 
22.85                          0.984801470213768 132.430542188477 0.00459697068860645 -140.543335843173 0.00459697068860658 -140.543335843174 0.98534379924995 129.918009200146 
22.9                           0.984891341339354 131.55709866235  0.004428540622098 -141.40046112043 0.00442854062209809 -141.400461120431 0.985408508190887 129.091592521248 
22.95                          0.984973842908457 130.692958214029 0.00426917179618084 -142.244961995263 0.00426917179618091 -142.244961995265 0.98546681589627 128.27377268041  
23                             0.98504937014454 129.837803671348 0.00411826302907305 -143.077210945194 0.00411826302907305 -143.077210945194 0.985519090640759 127.464250154712 
