! Touchstone file exported from HFSS 3D Layout Design 2026.1.0
!        File:           D:/Work/SIM/ADS_AUTO_SIM/projects/RFSOC_RF/TX_Fillter.aedt
!        Generated:      07:00:54 AM Aug 31, 2026
!        Design:         TX_BAND1_MCFIL_R66_CNN043
!        Project:        TX_Fillter
!
# GHz S MA R 50.000000
! Terminal data exported
! Port[1] = Port1
! Port[2] = Port2
14                             0.973042231098619 -165.636974608163 0.0036567719222268 -176.621924594205 0.00365677192222679 -176.621924594205 0.974775641167964 -159.030149013857 
14.05                          0.972549442524094 -166.5204790448  0.00372946180366061 -176.974797009977 0.00372946180366061 -176.974797009978 0.974322156584941 -159.873738969104 
14.1                           0.972041072313307 -167.409977919081 0.00380572684337009 -177.306257302826 0.00380572684337005 -177.306257302826 0.973854411875921 -160.722827883038 
14.15                          0.971516344409487 -168.305660589373 0.00388585522257043 -177.615903166071 0.00388585522257038 -177.615903166071 0.973371692131106 -161.577583199802 
14.2                           0.97097443063834 -169.207726523983 0.00397016377382736 -177.903380273759 0.0039701637738273 -177.903380273759 0.972873233791444 -162.438181314006 
14.25                          0.970414446315954 -170.116385972344 0.00405900115117828 -178.168391230819 0.00405900115117824 -178.168391230818 0.972358220479819 -163.304808173693 
14.3                           0.969835445409154 -171.031860690416 0.00415275137399592 -178.410705406219 0.00415275137399587 -178.410705406219 0.971825778399677 -164.177659932918 
14.35                          0.96923641519458 -171.954384725586 0.00425183779073772 -178.630169659984 0.00425183779073766 -178.630169659984 0.971274971248162 -165.056943658838 
14.4                           0.968616270355259 -172.884205266876 0.00435672751483514 -178.82671995696 0.00435672751483509 -178.826719956959 0.970704794583395 -165.94287809879 
14.45                          0.967973846444839 -173.821583567   0.00446793639202468 -179.000393838222 0.0044679363920246 -179.000393838222 0.970114169576823 -166.835694513457 
14.5                           0.967307892639623 -174.766795943515 0.00458603456659506 -179.151343694816 0.00458603456659498 -179.151343694816 0.969501936071504 -167.735637582958 
14.55                          0.966617063686868 -175.7201348672  0.00471165272353844 -179.279850758223 0.00471165272353837 -179.279850758223 0.968866844855426 -168.642966393526 
14.6                           0.965899910944247 -176.681910146746 0.00484548909472729 -179.386339687884 0.00484548909472722 -179.386339687884 0.968207549045195 -169.557955513351 
14.65                          0.965154872389471 -177.652450219941 0.00498831733032364 -179.471393598969 0.00498831733032359 -179.471393598969 0.967522594459355 -170.480896167252 
14.7                           0.964380261460463 -178.632103562796 0.0051409953520788 -179.535769334487 0.00514099535207875 -179.535769334487 0.966810408841652 -171.412097521039 
14.75                          0.963574254564593 -179.621240229441 0.00530447532349922 -179.580412746356 0.00530447532349914 -179.580412746356 0.966069289772296 -172.35188808782 
14.8                           0.962734877069753 179.37974646271  0.00547981489365159 -179.60647371229 0.00547981489365154 -179.60647371229 0.965297391078947 -173.300617270067 
14.85                          0.961859987559589 178.370438086247 0.00566818989740344 -179.615320581903 0.0056681898974034 -179.615320581903 0.964492707527999 -174.258657053098 
14.9                           0.960947260099202 177.350389077056 0.00587090872604423 -179.608553719361 0.00587090872604418 -179.608553719361 0.963653057539718 -175.226403867674 
14.95                          0.959994164214794 176.319124506834 0.00608942861960321 -179.588017794569 0.00608942861960317 -179.588017794569 0.962776063626713 -176.204280641792 
15                             0.95899794223974 175.276137631223 0.00632537417709094 -179.555812473871 0.00632537417709089 -179.555812473872 0.961859130202539 -177.192739064504 
15.05                          0.95795558361862 174.220887186884 0.00658055843493517 -179.514301178018 0.00658055843493513 -179.514301178019 0.96089941834414 -178.192262087698 
15.1                           0.956863795687645 173.15279440716  0.00685700692898813 -179.466117612725 0.0068570069289881 -179.466117612726 0.959893817015936 -179.203366695402 
15.15                          0.955718970362088 172.071239721927 0.00715698523397346 -179.414169837926 0.00715698523397343 -179.414169837926 0.958838910171855 179.773393025683 
15.2                           0.954517146055264 170.975559102447 0.0074830305689507 -179.361641726875 0.00748303056895068 -179.361641726876 0.957730939040881 178.737422475958 
15.25                          0.953253964025335 169.865040006678 0.00783798817173814 -179.311991775456 0.0078379881717381 -179.311991775456 0.956565758767232 177.688082749054 
15.3                           0.951924618190307 168.738916874329 0.00822505328346308 -179.268949353479 0.00822505328346306 -179.26894935348 0.955338788412485 176.624686404065 
15.35                          0.950523797261699 167.59636611392  0.0086478197516698 -179.236508639873 0.00864781975166975 -179.236508639873 0.954044953126706 175.546492746426 
15.4                           0.949045617815053 166.436500516155 0.00911033646309226 -179.218920647297 0.00911033646309222 -179.218920647298 0.952678617049949 174.452702551752 
15.45                          0.947483546630425 165.258363018919 0.00961717306320322 -179.220683912524 0.00961717306320324 -179.220683912524 0.951233505202952 173.342452157542 
15.5                           0.945830310284978 164.060919739169 0.0101734967188129 -179.246534599841 0.0101734967188129 -179.246534599842 0.949702612252018 172.214806837113 
15.55                          0.944077789545973 162.843052175807 0.0107851620445731 -179.301436928876 0.010785162044573 -179.301436928877 0.948078095569409 171.068753358219 
15.6                           0.942216895574585 161.603548475513 0.0114588167595316 -179.390574989459 0.0114588167595316 -179.390574989459 0.946351149433484 169.90319161576  
15.65                          0.940237424281619 160.341093640581 0.0122020261849462 -179.519347140436 0.0122020261849462 -179.519347140436 0.944511856491985 168.716925213769 
15.7                           0.938127884340781 159.054258544571 0.0130234203631215 -179.693364304878 0.0130234203631214 -179.693364304878 0.942549011708413 167.50865085701  
15.75                          0.935875293319073 157.741487608955 0.013932868398495 -179.918453572656 0.013932868398495 -179.918453572656 0.940449912875357 166.276946397688 
15.8                           0.933464935070597 156.401084983233 0.0149416856327795 179.799331392077 0.0149416856327795 179.799331392077 0.938200110345731 165.020257369277 
15.85                          0.930880069887203 155.031199064858 0.016062880509889 179.453691557591 0.0160628805098891 179.453691557591 0.93578310682065 163.736881829665 
15.9                           0.928101586815788 153.629805197451 0.017311449516843 179.038053672342 0.017311449516843 179.038053672342 0.93317999573574 162.424953333355 
15.95                          0.925107584922457 152.194686402746 0.0187047304665659 178.545529564586 0.0187047304665659 178.545529564586 0.930369023871684 161.082421863433 
16                             0.921872866965859 150.723412043414 0.0202628266889458 177.968861647852 0.0202628266889458 177.968861647853 0.927325060110964 159.707032588331 
16.05                          0.918368324762409 149.213314396221 0.0220091174946458 177.300352470589 0.022009117494646 177.300352470589 0.924018947561274 158.296302381555 
16.1                           0.914560190282017 147.66146326308  0.0239708736462991 176.531775856268 0.0239708736462992 176.531775856268 0.92041671031402 156.847494179592 
16.15                          0.91040911998076 146.064639000706 0.0261800005683135 175.654266796633 0.0261800005683136 175.654266796633 0.916478578611261 155.357589493651 
16.2                           0.905869071840253 144.419304770257 0.0286739366506445 174.658186776476 0.0286739366506446 174.658186776476 0.912157786845563 153.823259797804 
16.25                          0.90088592489658 142.721579494649 0.0314967391384623 173.532960625973 0.0314967391384624 173.532960625973 0.907399087340678 152.240838189739 
16.3                           0.895395779763918 140.967214118816 0.0347003954038988 172.266880341063 0.0347003954038988 172.266880341063 0.902136909144382 150.606293820607 
16.35                          0.889322866320861 139.15157554335  0.0383464020914735 170.846870649034 0.0383464020914736 170.846870649034 0.896293075415151 148.915213372864 
16.4                           0.882576972850509 137.269645435283 0.0425076571550265 169.258210563722 0.0425076571550266 169.258210563721 0.889773976640255 147.162796738297 
16.45                          0.875050302986911 135.316045629978 0.0472707072120589 167.484205039435 0.047270707212059 167.484205039435 0.882467083038891 145.34387866664  
16.5                           0.866613670051744 133.285109001475 0.0527383795770065 165.505801585356 0.0527383795770066 165.505801585355 0.874236675003434 143.452995562932 
16.55                          0.857111966997053 131.171026023532 0.0590327953729818 163.30114921463  0.0590327953729819 163.30114921463  0.864918689416547 141.48452846866  
16.6                           0.846358931169351 128.968115124182 0.0662986911459139 160.845102882653 0.066298691145914 160.845102882653 0.85431464955812 139.432972174441 
16.65                          0.834131405959727 126.671292874094 0.074706844756777 158.108688152516 0.0747068447567771 158.108688152516 0.842184818446717 137.293410388528 
16.7                           0.820163673854366 124.276863025871 0.0844571648354929 155.058562327888 0.0844571648354929 155.058562327888 0.828241082769646 135.062323848732 
16.75                          0.804143146318231 121.783807722257 0.0957805995253785 151.656546063442 0.0957805995253785 151.656546063442 0.812140798159178 132.738930318473 
16.8                           0.785709981324951 119.195855622608 0.108938368793785 147.85936250691  0.108938368793785 147.85936250691  0.793484169169194 130.327361853213 
16.85                          0.764465390320093 116.524719186761 0.12421604803453 143.618820182823 0.12421604803453 143.618820182823 0.771820084807629 127.840131096918 
16.9                           0.739996841673505 113.795010934249 0.141908731598318 138.882819184165 0.141908731598318 138.882819184165 0.746669137311935 125.303510663794 
16.95                          0.711933099626503 111.051371133909 0.162292153975538 133.597739756057 0.162292153975538 133.597739756057 0.71757803893782 122.765572376878 
17                             0.680046839206373 108.368008290062 0.18557414551792 127.712934285087 0.18557414551792 127.712934285087 0.6842258962347  120.307470959448 
17.05                          0.644422991795856 105.859581507527 0.211823157700843 121.188039572454 0.211823157700843 121.188039572454 0.646605682096037 118.057516151226 
17.1                           0.605696360507006 103.689065490822 0.240878975157931 114.003369299922 0.24087897515793 114.003369299922 0.605293073443876 116.204407524643 
17.15                          0.565314607826298 102.061724314833 0.27226760577941 106.172372577322 0.27226760577941 106.172372577322 0.561769851294272 114.998740478389 
17.2                           0.525688610538066 101.185755264836 0.305163956449798 97.7529601668123 0.305163956449798 97.7529601668126 0.518668635380944 114.71970840753  
17.25                          0.48998240637286 101.180308583436 0.338455404835543 88.8522641975759 0.338455404835543 88.852264197576  0.479662566897573 115.57546656665  
17.3                           0.461312146262275 101.946568972064 0.370931182964707 79.6192720557666 0.370931182964707 79.6192720557667 0.448668175256347 117.534552499517 
17.35                          0.441486557471447 103.09588813338  0.401551532999373 70.2238326307201 0.401551532999373 70.2238326307201 0.428357258627096 120.190807859484 
17.4                           0.430032869182257 104.0546536621   0.429683299407692 60.8276539171735 0.429683299407692 60.8276539171735 0.41877571336662 122.851647001041 
17.45                          0.424326961557993 104.311077493565 0.455193487883532 51.5579173801954 0.455193487883532 51.5579173801953 0.41725221497175 124.864696123581 
17.5                           0.420725883336083 103.597790043765 0.478376054570287 42.492537692065  0.478376054570286 42.492537692065  0.419720487690767 125.895206845348 
17.55                          0.415782027408197 101.893904180641 0.499775665754931 33.6593951245171 0.499775665754929 33.6593951245171 0.4222857664267  125.944954060068 
17.6                           0.40688209489905 99.3240263777604 0.519997956650265 25.0457077077094 0.519997956650264 25.0457077077094 0.422076634600475 125.213877504283 
17.65                          0.392330459187606 96.06502365808   0.539564190761423 16.6116789600709 0.539564190761421 16.6116789600709 0.417373285499923 123.972663194495 
17.7                           0.371178198342397 92.3007929068908 0.558824892023549 8.30394758973208 0.558824892023548 8.30394758973212 0.407413526171228 122.502844682615 
17.75                          0.343028519407602 88.218609475356  0.577922110102902 0.0667247970541337 0.577922110102901 0.0667247970541963 0.392178173252501 121.087992654123 
17.8                           0.307915695095913 84.036133345232  0.596785419419006 -8.14978963201485 0.596785419419004 -8.14978963201481 0.372276455844114 120.029047282184 
17.85                          0.266277458977063 80.0650055726819 0.615152304201939 -16.3834119012536 0.615152304201938 -16.3834119012535 0.348946742131616 119.663479219803 
17.9                           0.21902656949413 76.8574302003355 0.632610037793402 -24.6560812850078 0.632610037793401 -24.6560812850077 0.324137307335064 120.366967968634 
17.95                          0.16779737878492 75.6136664166303 0.648658627758121 -32.9720123000846 0.64865862775812 -32.9720123000846 0.300580504629766 122.501163309348 
18                             0.11584558874084 79.5953259128474 0.662791458090217 -41.3180472542042 0.662791458090217 -41.3180472542042 0.281675489688711 126.255232604623 
18.05                          0.0725453431422782 99.3270389515145 0.674583374033485 -49.6663260792905 0.674583374033485 -49.6663260792905 0.270887018654299 131.382102925236 
18.1                           0.0668092926711971 144.152724062189 0.68376917774554 -57.9790508021924 0.683769177745541 -57.9790508021925 0.270549142610767 137.041723124927 
18.15                          0.10469193948163 169.416554050617 0.690293910327968 -66.2146139017497 0.690293910327968 -66.2146139017498 0.28072944225831 142.087886299071 
18.2                           0.154574388897988 175.093274936404 0.694322698230381 -74.3339517350434 0.694322698230381 -74.3339517350435 0.299248103812435 145.660998041916 
18.25                          0.204439153699906 174.103396392107 0.696210203301272 -82.3059243175864 0.696210203301271 -82.3059243175865 0.322842616893487 147.483867793668 
18.3                           0.250737238669758 170.535395103945 0.696441702767633 -90.1108675646746 0.696441702767633 -90.1108675646748 0.348368229873576 147.70970309276  
18.35                          0.291997483589351 165.790080791887 0.695563768646351 -97.7420416011843 0.69556376864635 -97.7420416011844 0.373376072903556 146.655676721828 
18.4                           0.327543520927212 160.44504190055  0.694120855379801 -105.205239572622 0.694120855379801 -105.205239572622 0.396187849691063 144.638457152109 
18.45                          0.357122259707284 154.76680969109  0.692607575871944 -112.517134480983 0.692607575871944 -112.517134480983 0.415760688213863 141.914514745709 
18.5                           0.380734816157468 148.882359478975 0.691439211858172 -119.702993286349 0.691439211858172 -119.702993286349 0.431513965720898 138.673133801179 
18.55                          0.398534864195436 142.84741592341  0.690937914843844 -126.794260867021 0.690937914843844 -126.794260867021 0.443181298383571 135.047360897736 
18.6                           0.410762892950025 136.677540270381 0.691329843311356 -133.826324465924 0.691329843311357 -133.826324465924 0.450701722587394 131.127948389119 
18.65                          0.417706475201936 130.363665117117 0.692748481381855 -140.836594699264 0.692748481381856 -140.836594699264 0.454147414790317 126.975422430823 
18.7                           0.419681458293205 123.880225904152 0.695240538121383 -147.862919323903 0.695240538121384 -147.862919323903 0.453681120829997 122.629282595735 
18.75                          0.417030319543   117.189298368414 0.698772302634861 -154.942284851178 0.698772302634863 -154.942284851178 0.449536354671977 118.114521204082 
18.8                           0.41013462733942 110.242280790692 0.703235663500225 -162.109747481598 0.703235663500228 -162.109747481598 0.442014297471446 113.445824829751 
18.85                          0.399439049836753 102.979862253852 0.708453995275853 -169.39755405882 0.708453995275855 -169.39755405882 0.431492062084696 108.629651956903 
18.9                           0.385484591975467 95.3307264390085 0.714188691631499 -176.834452269839 0.714188691631501 -176.834452269839 0.4184372129815  103.664111753113 
18.95                          0.368948626546621 87.2095478837295 0.720147223685372 175.554765770162 0.720147223685374 175.554765770162 0.403423172777841 98.5363114998842 
19                             0.350688714943881 78.5154960979772 0.725993158260926 167.749405822028 0.725993158260927 167.749405822027 0.387139794761729 93.2167192648239 
19.05                          0.331785817970419 69.1340143291405 0.731357569237616 159.732608720022 0.731357569237616 159.732608720022 0.37039374932932 87.6503314444508 
19.1                           0.313579108649893 58.9473559034314 0.735849859974771 151.490627249668 0.735849859974771 151.490627249668 0.354095663998604 81.7454145426557 
19.15                          0.297676923628079 47.8623694044068 0.739064595452487 143.011685296844 0.739064595452487 143.011685296844 0.33923631381278 75.362726514092  
19.2                           0.285915073951257 35.862705357198  0.740580221574844 134.284625732458 0.740580221574843 134.284625732458 0.326862293585377 68.3114665621458 
19.25                          0.28022293471317 23.0768237155923 0.73994641422915 125.297768099313 0.73994641422915 125.297768099313 0.318068286381942 60.3616278613968 
19.3                           0.282377874900964 9.8184651404799  0.736660104480853 116.038623293127 0.736660104480854 116.038623293128 0.314018088985432 51.2828206132533 
19.35                          0.293705395434233 -3.46400453294352 0.730136501540452 106.495282234998 0.730136501540453 106.495282234998 0.315977811397079 40.9121128871652 
19.4                           0.314859133215663 -16.3362736531139 0.719690449339736 96.6602989365138 0.719690449339739 96.6602989365141 0.325294933303806 29.2343785845535 
19.45                          0.345764660867266 -28.5273781788821 0.70455318614448 86.5375521047213 0.704553186144483 86.5375521047215 0.34322715113653 16.4342571841546 
19.5                           0.385659268696398 -39.9728590987384 0.683954338466639 76.1516731486695 0.683954338466641 76.1516731486697 0.370582506869824 2.87492018818599 
19.55                          0.433115175997569 -50.7495970540447 0.657288192897287 65.5580651385504 0.657288192897289 65.5580651385505 0.4072831583058  -10.9981994609896 
19.6                           0.486052039285585 -60.9759623802797 0.624346228813984 54.8496984828938 0.624346228813984 54.8496984828938 0.452084981915034 -24.7698463813779 
19.65                          0.541855177924007 -70.7388703359471 0.58553972165405 44.1560070252358 0.585539721654048 44.1560070252359 0.502641995654586 -38.1191836293014 
19.7                           0.597685448516394 -80.0665674104433 0.541994981689278 33.6309814420642 0.541994981689273 33.6309814420644 0.555929675576252 -50.8257300282252 
19.75                          0.650925966363116 -88.9377166234894 0.495433718951277 23.4322483748558 0.495433718951271 23.4322483748562 0.608865562652093 -62.7487362981861 
19.8                           0.699591148052185 -97.3076498044923 0.447859271943691 13.6979043150635 0.447859271943686 13.6979043150641 0.65888335302907 -73.8077872633685 
19.85                          0.742533337945608 -105.134454678539 0.401179164178772 4.52921670247959 0.401179164178766 4.52921670248051 0.704265278306846 -83.971183864876 
19.9                           0.779405082326514 -112.395169791643 0.356914455319768 -4.01614127325295 0.356914455319763 -4.01614127325178 0.744181124262764 -93.2475312475453 
19.95                          0.810457212022763 -119.090590109471 0.316072450012977 -11.9209399111601 0.316072450012974 -11.9209399111587 0.778517297135395 -101.676518931797 
20                             0.836291563655405 -125.242177115852 0.279166800394095 -19.1993315234575 0.279166800394093 -19.1993315234559 0.807627260629949 -109.318626257699 
20.05                          0.857652685543705 -130.885597308254 0.246321267317228 -25.8862143068824 0.246321267317226 -25.8862143068806 0.83210318689094 -116.245377425927 
20.1                           0.875289339641619 -136.064134703102 0.217395487994924 -32.0278658988637 0.217395487994924 -32.0278658988619 0.852612225002707 -122.531562353306 
20.15                          0.889880238497318 -140.823509031125 0.192095655787767 -37.6749803592052 0.192095655787767 -37.6749803592034 0.869799185435021 -128.249905649361 
20.2                           0.902004839012312 -145.208422958421 0.170056542520321 -42.878111398729 0.170056542520322 -42.8781113987271 0.884239342063481 -133.467938112015 
20.25                          0.912140359966306 -149.260580679004 0.150895321865943 -47.6850306308168 0.150895321865944 -47.6850306308151 0.896422730454593 -138.246517977316 
20.3                           0.920671491857909 -153.017758620081 0.13424324799854 -52.1394209563202 0.134243247998541 -52.1394209563186 0.906755485245909 -142.639437041221 
20.35                          0.92790465927779 -156.513545751512 0.119762011945343 -56.2804160812   0.119762011945344 -56.2804160811986 0.915568907864171 -146.693662685318 
20.4                           0.93408259227295 -159.777468606082 0.107150403142702 -60.1426323996045 0.107150403142704 -60.1426323996034 0.923130998691891 -150.449905131241 
20.45                          0.939397335745078 -162.835311598521 0.096145299008727 -63.7564600846495 0.0961452990087283 -63.7564600846485 0.929657813640135 -153.943314791371 
20.5                           0.944001105148283 -165.709516494371 0.0865196187239302 -67.148469864063 0.0865196187239312 -67.1484698640621 0.935323521081122 -157.204197073487 
20.55                          0.948015009304862 -168.419594798188 0.0780788621516135 -70.3418523674075 0.0780788621516142 -70.3418523674069 0.940268830612238 -160.258685581971 
20.6                           0.951535908477926 -170.982518398841 0.0706571754983334 -73.3568451433863 0.0706571754983341 -73.3568451433858 0.944607841079913 -163.129347141795 
20.65                          0.95464174083181 -173.413072674351 0.0641134567586878 -76.2111254770827 0.0641134567586883 -76.2111254770824 0.948433505813648 -165.835710575419 
20.7                           0.957395633975772 -175.724166949417 0.0583277555942456 -78.9201604169416 0.0583277555942459 -78.9201604169413 0.951821951401217 -168.394720975268 
20.75                          0.959849071979549 -177.92710288696 0.0531980728822749 -81.4975127013562 0.0531980728822752 -81.4975127013562 0.954835874232148 -170.821125884116 
20.8                           0.962044336354302 179.968195857118 0.0486375827993277 -83.9551049877514 0.0486375827993277 -83.9551049877514 0.957527208014204 -173.127801561174 
20.85                          0.964016392166498 177.952988299601 0.0445722578593792 -86.3034464476194 0.0445722578593791 -86.3034464476195 0.959939220607814 -175.32602772529 
20.9                           0.965794350984992 176.019550506367 0.0409388579234091 -88.5518263145549 0.040938857923409 -88.551826314555 0.962108166319255 -177.425718616247 
20.95                          0.967402610965181 174.161035324066 0.0376832376161886 -90.7084788987391 0.0376832376161883 -90.7084788987393 0.964064592490512 -179.43561734366 
21                             0.968861750063779 172.371353561543 0.0347589267841238 -92.7807242211248 0.0347589267841235 -92.7807242211251 0.965834377105859 178.636540461495 
21.05                          0.970189229849457 170.645073224326 0.0321259421172426 -94.775087947303 0.0321259421172421 -94.7750879473033 0.967439556679837 176.783888594897 
21.1                           0.971399953379717 168.977333902953 0.0297497928821423 -96.6974038078073 0.029749792882142 -96.6974038078075 0.96889899012568 175.000313554944 
21.15                          0.972506710092359 167.363773869445 0.0276006488161672 -98.5529012251546 0.0276006488161667 -98.5529012251548 0.970228893853355 173.280355592627 
21.2                           0.973520532761945 165.80046783359  0.0256526430829318 -100.3462804489  0.0256526430829314 -100.3462804489  0.97144327533365 171.619124589958 
21.25                          0.974450985641079 164.283873650837 0.0238832875469439 -102.081777134813 0.0238832875469435 -102.081777134814 0.972554286231853 170.012228331188 
21.3                           0.975306398444798 162.810786560236 0.0222729814132192 -103.763217991985 0.0222729814132188 -103.763217991985 0.97357251151961 168.45571115375  
21.35                          0.97609405747035 161.378299770277 0.0208045975031797 -105.394068857817 0.0208045975031793 -105.394068857818 0.974507207373991 166.946001314422 
21.4                           0.976820362596012 159.9837704092   0.0194631331475861 -106.97747633963 0.0194631331475858 -106.97747633963 0.975366497906027 165.479865692864 
21.45                          0.977490956964807 158.624790020767 0.0182354149332369 -108.516303976992 0.0182354149332366 -108.516303976992 0.976157538627573 164.054370690019 
21.5                           0.978110834679021 157.29915892228  0.0171098484077681 -110.013163725303 0.0171098484077678 -110.013163725303 0.976886652914261 162.666848371994 
21.55                          0.978684430695745 156.004863853758 0.0160762053874119 -111.47044343345 0.0160762053874116 -111.47044343345 0.977559446439271 161.314867068731 
21.6                           0.979215696237828 154.740058439789 0.0151254427806576 -112.890330882315 0.0151254427806574 -112.890330882315 0.978180903551432 159.996205767142 
21.65                          0.979708162355864 153.503046062127 0.0142495478835764 -114.274834862691 0.0142495478835763 -114.274834862691 0.978755468786428 158.708831745871 
21.7                           0.980164993748036 152.292264804575 0.0134414059600455 -115.625803697786 0.0134414059600454 -115.625803697786 0.979287116081993 157.450880987479 
21.75                          0.980589034530657 151.106274184279 0.012694686625486 -116.944941554276 0.012694686625486 -116.944941554276 0.979779407779341 156.220640977218 
21.8                           0.980982847326469 149.943743427379 0.0120037461335684 -118.233822834746 0.0120037461335683 -118.233822834746 0.980235545104877 155.016535558342 
21.85                          0.981348746780121 148.80344108343  0.0113635431442192 -119.493904901573 0.0113635431442192 -119.493904901573 0.98065841151644 153.837111564508 
21.9                           0.981688828405479 147.684225803527 0.0107695659467195 -120.726539346337 0.0107695659467195 -120.726539346337 0.981050610049994 152.681026991924 
21.95                          0.982004993505908 146.585038132637 0.010217769438799 -121.932981988646 0.0102177694387991 -121.932981988647 0.981414495602832 151.547040509171 
22                             0.982298970777454 145.504893188111 0.00970452043374911 -123.114401762696 0.00970452043374917 -123.114401762696 0.981752202927697 150.434002132103 
22.05                          0.98257233509905 144.44287411445  0.009226550092718 -124.271888628293 0.00922655009271808 -124.271888628293 0.982065670981071 149.340844916093 
22.1                           0.982826523928252 143.398126219693 0.00878091246671482 -125.406460624733 0.00878091246671493 -125.406460624734 0.982356664161888 148.266577538746 
22.15                          0.983062851651292 142.369851711753 0.0083649482890961 -126.51907017026 0.00836494828909621 -126.51907017026 0.982626790889439 147.210277663923 
22.2                           0.983282522179342 141.357304963996 0.00797625328989392 -127.610609696504 0.00797625328989405 -127.610609696505 0.982877519897305 146.171085992849 
22.25                          0.983486640036171 140.359788248765 0.00761265041272076 -128.681916695849 0.00761265041272086 -128.68191669585 0.983110194560849 145.148200920795 
22.3                           0.983676220143935 139.376647885524 0.00727216540679541 -129.733778249819 0.00727216540679553 -129.73377824982 0.983326045526754 144.140873728686 
22.35                          0.983852196482017 138.407270757129 0.00695300534386957 -130.766935098115 0.00695300534386971 -130.766935098116 0.983526201872266 143.148404248182 
22.4                           0.984015429767437 137.45108115365  0.00665353967494536 -131.782085300577 0.00665353967494551 -131.782085300578 0.98371170098789 142.170136946733 
22.45                          0.984166714283369 136.507537908164 0.00637228349668645 -132.779887537998 0.00637228349668657 -132.779887537999 0.983883497348823 141.205457385884 
22.5                           0.984306783963874 135.576131793339 0.00610788274400133 -133.76096409217 0.00610788274400145 -133.760964092171 0.984042470316591 140.253789011929 
22.55                          0.984436317827575 134.656383151371 0.00585910106479263 -134.725903540745 0.00585910106479275 -134.725903540747 0.984189431092301 139.31459024308  
22.6                           0.984555944839936 133.7478397331   0.00562480816646349 -135.675263198271 0.0056248081664636 -135.675263198272 0.984325128925957 138.387351821634 
22.65                          0.984666248272912 132.85007472496  0.0054039694523922 -136.60957133107 0.00540396945239228 -136.609571331072 0.984450256671992 137.47159440341  
22.7                           0.984767769621356 131.96268494489  0.00519563679101804 -137.529329170429 0.00519563679101812 -137.529329170431 0.984565455768957 136.566866359979 
22.75                          0.984861012127722 131.085289190464 0.00499894028107688 -138.435012745703 0.00499894028107694 -138.435012745704 0.98467132071096 135.672741772063 
22.8                           0.984946443959839 130.217526724385 0.00481308089443131 -139.327074556453 0.00481308089443136 -139.327074556455 0.984768403069599 134.788818594959 
22.85                          0.985024501080764 129.359055884127 0.00463732389331439 -140.205945100565 0.00463732389331442 -140.205945100566 0.984857215117573 133.914716978977 
22.9                           0.985095589844816 128.509552803945 0.00447099293202974 -141.072034273299 0.00447099293202975 -141.0720342733  0.984938233098613 133.050077729829 
22.95                          0.985160089349602 127.668710238751 0.00431346476454617 -141.925732650613 0.00431346476454616 -141.925732650614 0.985011900182846 132.1945608955   
23                             0.985218353570229 126.836236480437 0.00416416448926258 -142.767412668484 0.00416416448926256 -142.767412668484 0.98507862914185 131.347844467633 
