! Touchstone file exported from HFSS 3D Layout Design 2026.1.0
!        File:           D:/Work/SIM/ADS_AUTO_SIM/projects/RFSOC_RF/TX_Fillter.aedt
!        Generated:      11:30:50 PM Aug 30, 2026
!        Design:         TX_BAND1_MCFIL_R8_CNN023
!        Project:        TX_Fillter
!
# GHz S MA R 50.000000
! Terminal data exported
! Port[1] = Port1
! Port[2] = Port2
14                             0.963892231749079 173.95205549067  0.00556294477207221 174.230948776251 0.00556294477207221 174.230948776251 0.965060143063462 175.798014197064 
14.05                          0.963167843006013 172.913501767314 0.00570008249984145 173.798589332595 0.00570008249984146 173.798589332595 0.964358662151131 174.793615923899 
14.1                           0.962419952564707 171.865562054408 0.00584456109973064 173.378245308405 0.00584456109973062 173.378245308405 0.963634003992689 173.780231664034 
14.15                          0.961647433618078 170.807923236585 0.00599694646632446 172.969563174251 0.00599694646632441 172.969563174251 0.962885034752945 172.757553481655 
14.2                           0.96084908755769 169.740256873255 0.00615785599012822 172.572111835565 0.00615785599012819 172.572111835566 0.962110546981082 171.725258115542 
14.25                          0.960023638226207 168.662218250573 0.00632796370789967 172.185376460082 0.00632796370789962 172.185376460083 0.961309253616072 170.68300601132  
14.3                           0.959169725611935 167.573445361202 0.00650800600881383 171.80875223161  0.0065080060088138 171.80875223161  0.960479781401584 169.630440278353 
14.35                          0.9582858989214  166.473557805287 0.00669878796220236 171.441538091976 0.00669878796220232 171.441538091977 0.959620663641839 168.567185564273 
14.4                           0.957370608957434 165.362155605327 0.00690119034147463 171.082930540512 0.00690119034147458 171.082930540513 0.958730332220628 167.49284683933  
14.45                          0.956422199720392 164.238817926858 0.00711617742907663 170.73201756708  0.00711617742907658 170.732017567081 0.957807108795146 166.407008081926 
14.5                           0.955438899138849 163.103101695984 0.00734480569921923 170.387772799953 0.00734480569921919 170.387772799953 0.956849195064028 165.309230855695 
14.55                          0.954418808823056 161.954540103782 0.0075882334888839 170.049049953276 0.00758823348888386 170.049049953276 0.955854661994859 164.199052767456 
14.6                           0.953359892719243 160.792640986512 0.00784773178362539 169.714577659912 0.00784773178362538 169.714577659912 0.954821437879975 163.07598579408  
14.65                          0.952259964525342 159.616885069283 0.00812469626331897 169.382954773633 0.00812469626331895 169.382954773633 0.953747295070344 161.939514464979 
14.7                           0.95111667370815 158.426724059442 0.00842066077469756 169.052646219369 0.00842066077469752 169.052646219369 0.952629835215082 160.789093885354 
14.75                          0.94992748993816 157.221578574321 0.0087373124228223 168.721979461191 0.00873731242282229 168.721979461191 0.951466472808242 159.624147583548 
14.8                           0.948689685730311 156.000835886209 0.00907650850314871 168.38914164442  0.00907650850314871 168.38914164442  0.950254416814203 158.444065163889 
14.85                          0.947400317046241 154.763847465359 0.00944029553032057 168.052177450645 0.00944029553032053 168.052177450645 0.948990650107404 157.248199744132 
14.9                           0.946056201575171 153.509926299555 0.00983093066010652 167.708987682344 0.0098309306601065 167.708987682344 0.94767190642039 156.035865154022 
14.95                          0.94465389436534 152.238343966162 0.010250905847996 167.357328567424 0.010250905847996 167.357328567424 0.94629464444487 154.806332868639 
15                             0.943189660424439 150.948327429635 0.0107029751430887 166.99481174364  0.0107029751430887 166.99481174364  0.94485501867233 153.558828646831 
15.05                          0.941659443844372 149.639055534185 0.0111901855804551 166.618904849056 0.0111901855804551 166.618904849056 0.94334884649186 152.292528841344 
15.1                           0.940058832930609 148.309655157498 0.0117159122107742 166.226932608222 0.0117159122107742 166.226932608222 0.941771570981115 151.006556342979 
15.15                          0.93838302072729 146.959196987239 0.0122838978947496 165.816078265353 0.0122838978947497 165.816078265352 0.940118218729062 149.699976116303 
15.2                           0.936626760222923 145.586690877269 0.0128982985938933 165.383385176573 0.0128982985938933 165.383385176573 0.93838335191313 148.371790278999 
15.25                          0.934784313394482 144.191080735226 0.0135637350115149 164.925758334134 0.0135637350115149 164.925758334134 0.936561013714688 147.02093267076  
15.3                           0.932849393095535 142.771238887095 0.0142853515814271 164.43996555736  0.0142853515814271 164.43996555736  0.934644665990496 145.646262850715 
15.35                          0.930815096611309 141.325959857822 0.015068883970815 163.92263804883  0.0150688839708151 163.92263804883  0.932627117918027 144.246559454572 
15.4                           0.928673829483709 139.853953499663 0.0159207364624429 163.370269980351 0.0159207364624429 163.370269980351 0.930500444092104 142.82051283397  
15.45                          0.926417217944111 138.353837391995 0.0168480708151307 162.779216742045 0.0168480708151307 162.779216742044 0.928255890260064 141.366716890915 
15.5                           0.924036007971303 136.824128427714 0.0178589084763208 162.145691459168 0.0178589084763208 162.145691459168 0.925883764531898 139.883660009602 
15.55                          0.921519948604146 135.263233492251 0.0189622483434933 161.465759354674 0.0189622483434933 161.465759354673 0.923373311476891 138.369714976546 
15.6                           0.918857656668345 133.669439132045 0.0201682026499595 160.735329510029 0.0201682026499594 160.735329510029 0.920712566002985 136.823127767931 
15.65                          0.91603645950635 132.040900100334 0.0214881539936338 159.950143551276 0.0214881539936338 159.950143551276 0.917888183289353 135.242005070802 
15.7                           0.913042211606861 130.375626660255 0.0229349370436369 159.105760759982 0.0229349370436369 159.105760759982 0.914885240282421 133.624300392891 
15.75                          0.909859080189799 128.671470519714 0.0245230490576338 158.197539077951 0.0245230490576337 158.197539077951 0.911687003341877 131.967798605553 
15.8                           0.906469293783249 126.92610927109  0.0262688940299855 157.220611438307 0.0262688940299855 157.220611438307 0.908274655501826 130.270098757267 
15.85                          0.902852846595378 125.137029214618 0.0281910660711338 156.169856812181 0.0281910660711338 156.169856812181 0.904626975453554 128.528594994138 
15.9                           0.89898714999737 123.301506461531 0.0303106784898399 155.039865308452 0.0303106784898399 155.039865308452 0.900719958715708 126.740455433088 
15.95                          0.89484662065141 121.416586248382 0.032651745998235 153.824896603318 0.0326517459982349 153.824896603318 0.896526369487305 124.902598859282 
16                             0.890402192701428 119.479060457269 0.0352416284518948 152.518830908208 0.0352416284518948 152.518830908208 0.892015209332527 123.011669171597 
16.05                          0.885620738964822 117.485443442647 0.0381115455080399 151.115111612048 0.03811154550804 151.115111612048 0.887151086086661 121.064007593189 
16.1                           0.88046438321792 115.431946435924 0.0412971724175055 149.606678664928 0.0412971724175055 149.606678664928 0.881893463188884 119.055622820379 
16.15                          0.874889682506894 113.314451066741 0.044839327661517 147.985891718074 0.044839327661517 147.985891718074 0.876195766082137 116.982159535238 
16.2                           0.868846655089124 111.128482952837 0.0487847629760786 146.244442022819 0.0487847629760786 146.244442022819 0.870004318518305 114.838866104524 
16.25                          0.862277626446337 108.869186940559 0.0531870649517518 144.373252156149 0.0531870649517519 144.373252156149 0.863257077897727 112.620562903738 
16.3                           0.855115863446767 106.531306531063 0.0581076740328598 142.362362841271 0.0581076740328597 142.362362841271 0.855882135806633 110.32161364991  
16.35                          0.847283966326223 104.109171459337 0.0636170200984249 140.200806560141 0.0636170200984249 140.200806560141 0.84779594888933 107.935903563604 
16.4                           0.838691991722433 101.596699533481 0.0697957619618792 137.876468450656 0.0697957619618792 137.876468450656 0.838901268199797 105.456830352115 
16.45                          0.829235290937501 98.987422023932  0.0767360982131643 135.375936354019 0.0767360982131643 135.375936354019 0.829084745778636 102.87731726926  
16.5                           0.818792071519283 96.2745465973956 0.084543084688025 132.684344136239 0.0845430846880251 132.68434413624  0.818214221273073 100.189862385711 
16.55                          0.807220736117392 93.4510786989381 0.0933358436515494 129.785215994027 0.0933358436515495 129.785215994027 0.806135738412265 97.3866454534645 
16.6                           0.794357134345113 90.5100323370595 0.103248473739794 126.660324981228 0.103248473739794 126.660324981229 0.792670425825581 94.4597244422939 
16.65                          0.780012001979217 87.4447756624395 0.114430358242139 123.289587257316 0.114430358242139 123.289587257316 0.777611521246862 91.4013694475788 
16.7                           0.763969086944892 84.2495770799867 0.127045412399268 119.651025517067 0.127045412399268 119.651025517067 0.760722054275904 88.2046041819943 
16.75                          0.745984811849956 80.9204455306676 0.1412696014252  115.720851646117 0.1412696014252  115.720851646116 0.741734072269799 84.8640570947793 
16.8                           0.725790841266383 77.4563952118111 0.15728580549528 111.473740329197 0.15728580549528 111.473740329197 0.720350843871018 81.3772679494345 
16.85                          0.703101639108231 73.8613097983212 0.175274840646856 106.88339115901  0.175274840646856 106.88339115901  0.69625424173944 77.7466535268002 
16.9                           0.677629995845898 70.1466291103022 0.195401257384752 101.923502610718 0.195401257384752 101.923502610718 0.669120476768352 73.9824078381121 
16.95                          0.649114425650259 66.3351173803837 0.217792618818178 96.5692970095385 0.217792618818178 96.5692970095384 0.638648390101553 70.106692003706  
17                             0.617362875247674 62.465963213692  0.242511619961125 90.7997221665126 0.242511619961126 90.7997221665125 0.604605219381323 66.1595390201137 
17.05                          0.582316549685357 58.6013394468546 0.269522061051162 84.6003829270996 0.269522061051162 84.6003829270994 0.56689437727195 62.2069176325194 
17.1                           0.544134604594551 54.834190580953  0.298652663651908 77.967089505642  0.298652663651908 77.9670895056419 0.525647153193852 58.3512776558876 
17.15                          0.503293577916703 51.2961937662934 0.329566844566652 70.9096292030695 0.329566844566651 70.9096292030694 0.481334143100757 54.7444347367211 
17.2                           0.460684008089385 48.1631846269468 0.361750529326979 63.4550084098184 0.361750529326979 63.4550084098183 0.434882157337458 51.6013578425729 
17.25                          0.417671858290469 45.6523270704456 0.394531109005559 55.6491055969984 0.394531109005558 55.6491055969983 0.387769450378862 49.2100954708918 
17.3                           0.376077792122486 44.000679606351  0.427135389428949 47.5556534900636 0.427135389428948 47.5556534900635 0.342057805446563 47.9251311116477 
17.35                          0.338018985730961 43.4106424587159 0.458781772747011 39.2519463775787 0.45878177274701 39.2519463775787 0.300300916617191 48.1157540853005 
17.4                           0.305567889109179 43.9536306226447 0.488786236834887 30.8216378107797 0.488786236834886 30.8216378107798 0.265236085226478 50.0245627351416 
17.45                          0.280240701184251 45.4580270667531 0.51665205155299 22.346078065299  0.516652051552989 22.3460780652991 0.239150668316102 53.523899516231  
17.5                           0.262472355797504 47.4685504557367 0.542117209622679 13.8962491799719 0.542117209622679 13.8962491799721 0.222983115686934 57.9246546908871 
17.55                          0.251390635746334 49.3676766394597 0.565150100446238 5.52711135967744 0.565150100446238 5.52711135967763 0.215695927299222 62.1510556577497 
17.6                           0.24511206136586 50.6109171523365 0.585903114581671 -2.72476856339039 0.585903114581672 -2.72476856339019 0.214619602112405 65.2739380040809 
17.65                          0.241391039385174 50.8963255953482 0.604645150424884 -10.8405263526633 0.604645150424885 -10.8405263526631 0.216586917687087 66.8830811512614 
17.7                           0.238209664020467 50.1716511884502 0.621694018373501 -18.8161910070704 0.621694018373503 -18.8161910070702 0.218918893306335 67.0280509214152 
17.75                          0.234068736007084 48.5438361256569 0.637362395283914 -26.6588874637422 0.637362395283915 -26.658887463742 0.219787035087572 65.9774230508204 
17.8                           0.228017378348821 46.187006827046  0.651922301970247 -34.3829745642374 0.651922301970249 -34.3829745642373 0.21814215515272 64.0428906348932 
17.85                          0.219557638310877 43.2881905194508 0.665586903127411 -42.0066849551807 0.665586903127413 -42.0066849551806 0.213508519699913 61.506824448875  
17.9                           0.208524286544772 40.0273460126431 0.678505582727055 -49.5495096453881 0.678505582727057 -49.5495096453881 0.205794176260591 58.6105203217497 
17.95                          0.19498365938161 36.5785974864243 0.690767815194067 -57.0303524706652 0.690767815194068 -57.0303524706652 0.195156132712707 55.5675626340171 
18                             0.179162200396404 33.1242312647981 0.702412089328915 -64.4663668766712 0.702412089328915 -64.4663668766711 0.181916642293205 52.5866838104012 
18.05                          0.161403319325278 29.8801316166149 0.713437162503858 -71.8723470165916 0.713437162503857 -71.8723470165916 0.166519195735814 49.9010106836311 
18.1                           0.142151061794941 27.138967633801  0.723813800058224 -79.2605438033028 0.723813800058223 -79.2605438033027 0.149517318723036 47.8073524380967 
18.15                          0.121966849761406 25.3485473182688 0.73349577804706 -86.6407908924667 0.733495778047059 -86.6407908924666 0.13159843109184 46.7232442053599 
18.2                           0.101604890370921 25.261998405539  0.742429338310369 -94.0208429953448 0.742429338310366 -94.0208429953447 0.113658130839067 47.2677969922423 
18.25                          0.0822168940525563 28.2131156715389 0.750560567540967 -101.406844520828 0.750560567540965 -101.406844520828 0.0969535960189845 50.3393579665226 
18.3                           0.0658292258128936 36.4100177755038 0.757840397487537 -108.80385969425 0.757840397487535 -108.80385969425 0.0833359629560917 57.0027822838596 
18.35                          0.0560041949810356 51.853529464597  0.764227129506788 -116.216407032186 0.764227129506786 -116.216407032186 0.0753095537684059 67.6225891663991 
18.4                           0.0566564697883127 71.0643781339009 0.769686579719725 -123.648952456095 0.769686579719723 -123.648952456094 0.0751194237206794 80.1647124280556 
18.45                          0.0675130722320545 85.4296258574213 0.774190107719877 -131.10632677903 0.774190107719876 -131.10632677903 0.0829334634951964 90.71109676738   
18.5                           0.0846336645096991 92.3797050206181 0.777710914038875 -138.594044330318 0.777710914038875 -138.594044330317 0.0967794959148231 97.0283137835456 
18.55                          0.104888312232811 94.1108601012854 0.780219059035556 -146.118509048548 0.780219059035557 -146.118509048548 0.11438912777608 99.3593858686141 
18.6                           0.126738520240426 92.7131024597506 0.781675672844215 -153.687101291666 0.781675672844216 -153.687101291667 0.134220175718898 98.7407681995738 
18.65                          0.149537507771012 89.4085645920101 0.782026812207406 -161.30814199127 0.782026812207406 -161.308141991271 0.155430040737928 96.0613759079533 
18.7                           0.173070326522292 84.8694855052203 0.781197406491837 -168.990730324902 0.781197406491837 -168.990730324903 0.177627970079993 91.9212239999442 
18.75                          0.197342480871416 79.4762166895545 0.779085757618707 -176.744447296796 0.779085757618705 -176.744447296797 0.200693893492379 86.7042554949929 
18.8                           0.222478762735156 73.454409441644  0.775559149215397 175.421088071813 0.775559149215393 175.421088071812 0.224670457433768 80.6583261016118 
18.85                          0.248665748961949 66.944958545957  0.77045129785569 167.496828361851 0.770451297855682 167.49682836185  0.249696194932173 73.949661283273  
18.9                           0.276110913766502 60.0408571537109 0.763562635889682 159.475092503282 0.763562635889671 159.475092503281 0.275957823424207 66.6965032449147 
18.95                          0.305007406583662 52.8076917453889 0.754664697892482 151.350556844213 0.754664697892467 151.350556844212 0.303650031778855 58.9895497373579 
19                             0.335500438772915 45.2957601351695 0.743510071451805 143.121431168334 0.743510071451787 143.121431168333 0.332937472347877 50.9043979057109 
19.05                          0.367654861862178 37.5477034998041 0.729849269093511 134.790766797753 0.729849269093489 134.790766797751 0.363917725645433 42.5091163877794 
19.1                           0.401426042323944 29.6035806632461 0.713455225380466 126.367783053421 0.713455225380442 126.36778305342  0.396587029691731 33.8687824890115 
19.15                          0.436638087797705 21.5043111907893 0.694154698548057 117.869026056285 0.694154698548031 117.869026056284 0.430812940244768 25.0480679841646 
19.2                           0.472974609689961 13.2938693639612 0.671863648535287 109.319110392463 0.671863648535261 109.319110392462 0.466319523560915 16.1124905325838 
19.25                          0.509986881546259 5.02032169839107 0.646621094146925 100.750771561375 0.6466210941469  100.750771561375 0.502690528173821 7.12864311562798 
19.3                           0.547121909001826 -3.26430445187953 0.618613977003007 92.2040095771469 0.618613977002984 92.2040095771466 0.539393667004725 -1.83646158049033 
19.35                          0.583768658040686 -11.505284892914 0.588185429507504 83.7242484698565 0.588185429507484 83.7242484698565 0.575824756246673 -10.7168375119736 
19.4                           0.61931565286471 -19.6474002615672 0.555821437653942 75.3596512799859 0.555821437653926 75.3596512799861 0.611365171269187 -19.4495912991775 
19.45                          0.653209363706449 -27.6376903295346 0.522115927366355 67.1579502586743 0.522115927366343 67.1579502586746 0.645441944534717 -27.9773000740115 
19.5                           0.685002135114485 -35.4282496645373 0.487720088524708 59.1632918771339 0.4877200885247  59.1632918771342 0.677578810786407 -36.2502872518511 
19.55                          0.714381397368526 -42.9785597911077 0.453285898013835 51.4135949475771 0.453285898013831 51.4135949475775 0.707429254546918 -44.2283824649543 
19.6                           0.741177302307012 -50.25699717342  0.419414605064797 43.9387778226158 0.419414605064797 43.938777822616  0.734787961887775 -51.8818747944999 
19.65                          0.76535141717085 -57.2413795420868 0.386618361860755 36.7599884919833 0.386618361860757 36.7599884919834 0.759582713585673 -59.1915660500204 
19.7                           0.786972696162596 -63.918630158638 0.355298711637425 29.8897550731508 0.355298711637429 29.8897550731506 0.781852604642629 -66.1480251000164 
19.75                          0.806187894784624 -70.2837850828009 0.325741255961509 23.3328289390492 0.325741255961514 23.3328289390488 0.801719693875231 -72.7502728547153 
19.8                           0.823192421492647 -76.3386208262347 0.298122892868507 17.0874400280982 0.298122892868513 17.0874400280975 0.81936021890275 -79.0041692355356 
19.85                          0.838205449479539 -82.0901560230685 0.272526920064047 11.1467069422943 0.272526920064052 11.1467069422933 0.834979440252797 -84.9207442972776 
19.9                           0.851450945241431 -87.5492154181201 0.248961633355452 5.50000916423996 0.248961633355458 5.50000916423873 0.848792024043008 -90.5146485411956 
19.95                          0.863144669351   -92.7291697740849 0.227379137047944 0.134203177357612 0.227379137047949 0.134203177356205 0.861008229581502 -95.8028231601455 
20                             0.873486295864767 -97.6449015259998 0.20769233006677 -4.96537178360983 0.207692330066774 -4.96537178361141 0.871825197212959 -100.803428720984 
20.05                          0.882655453238818 -102.312001127916 0.189789090211296 -9.81410725037363 0.1897890902113  -9.81410725037534 0.881422228626178 -105.535027870831 
20.1                           0.890810504970316 -106.746172692498 0.173543422788351 -14.4275402000758 0.173543422788354 -14.4275402000775 0.889958920682176 -110.015993285107 
20.15                          0.898089079199188 -110.962815524787 0.15882378127026 -18.8209380924228 0.158823781270262 -18.8209380924246 0.897575173544182 -114.264101847942 
20.2                           0.90460959924399 -114.976745558299 0.145498978216511 -23.0090202277587 0.145498978216513 -23.0090202277605 0.904392318338304 -118.296274946048 
20.25                          0.910473294044451 -118.802023368237 0.133442164812789 -27.0057835148026 0.13344216481279 -27.0057835148044 0.910514827687997 -122.128428607792 
20.3                           0.915766351081946 -122.451860454187 0.122533332849214 -30.8244053259296 0.122533332849215 -30.8244053259313 0.916032253186974 -125.775403148246 
20.35                          0.920562009807849 -125.938581075162 0.112660729335897 -34.4772013844282 0.112660729335898 -34.4772013844297 0.921021169852097 -129.25094825279 
20.4                           0.924922486887039 -129.27362213991 0.103721498951349 -37.9756216123278 0.10372149895135 -37.9756216123292 0.925547003027466 -132.567745148091 
20.45                          0.928900685051816 -132.467558099715 0.0956217979305476 -41.3302711453758 0.0956217979305484 -41.330271145377 0.929665676413664 -135.737452306406 
20.5                           0.932541674254515 -135.530141363375 0.088276561370773 -44.5509471802501 0.0882765613707735 -44.5509471802511 0.933425059480106 -138.770764946067 
20.55                          0.935883954677275 -138.470351514144 0.0816090560835577 -47.6466850035607 0.081609056083558 -47.6466850035616 0.936866215778089 -141.677481515836 
20.6                           0.938960521674354 -141.296448679539 0.0755503124650584 -50.6258085747289 0.0755503124650587 -50.6258085747295 0.940024466180274 -144.466572529002 
20.65                          0.941799756871559 -144.016027923655 0.0700384997957985 -53.4959825237955 0.0700384997957988 -53.495982523796 0.942930286812608 -147.146248698086 
20.7                           0.94442617009799 -146.636072624082 0.0650182880597491 -56.2642635005492 0.0650182880597493 -56.2642635005494 0.945610063130082 -149.724026451337 
20.75                          0.946861015293853 -149.163005567651 0.060440224051239 -58.9371495747878 0.0604402240512392 -58.9371495747878 0.948086720992883 -152.206789702972 
20.8                           0.949122801083778 -151.602737035641 0.0562601387360926 -61.5206269206108 0.0562601387360927 -61.5206269206106 0.950380253843269 -154.600847291398 
20.85                          0.951227713953272 -153.960709514812 0.0524385953627625 -64.0202133833548 0.0524385953627625 -64.0202133833545 0.952508162843896 -156.911985863163 
20.9                           0.953189969263614 -156.241938914461 0.0489403827618095 -66.440998773562 0.0489403827618096 -66.4409987735614 0.954485824506587 -159.145518217026 
20.95                          0.955022102863272 -158.451052327585 0.0457340549364105 -68.7876818932552 0.0457340549364105 -68.7876818932544 0.956326798127742 -161.306327270566 
21                             0.956735213874669 -160.592322472301 0.0427915159221644 -71.0646044012866 0.0427915159221644 -71.0646044012858 0.9580430833531  -163.398905898635 
21.05                          0.958339167368626 -162.669699006602 0.0400876476099955 -73.2757816849959 0.0400876476099955 -73.2757816849949 0.959645336456422 -165.427392938446 
21.1                           0.959842764068956 -164.686836938656 0.0375999775147929 -75.4249309379556 0.0375999775147928 -75.4249309379545 0.961143052433518 -167.395605674025 
21.15                          0.961253882925896 -166.647122365578 0.0353083831452293 -77.515496657437 0.0353083831452293 -77.5154966574357 0.962544718766125 -169.307069112941 
21.2                           0.962579601323758 -168.553695772352 0.033194829553887 -79.5506737768751 0.0331948295538869 -79.5506737768739 0.963857945672683 -171.165042357291 
21.25                          0.963826296810036 -170.409473114018 0.0312431367288706 -81.5334286425532 0.0312431367288706 -81.5334286425519 0.965089576805884 -172.972542353545 
21.3                           0.964999733517762 -172.217164891323 0.0294387736649887 -83.4665180330338 0.0294387736649887 -83.4665180330324 0.966245783652308 -174.732365285066 
21.35                          0.96610513587146 -173.979293414882 0.0277686761812621 -85.352506406654 0.0277686761812621 -85.3525064066526 0.967332146311996 -176.447105849017 
21.4                           0.967147251695355 -175.698208436931 0.0262210858034036 -87.1937815480569 0.0262210858034036 -87.1937815480557 0.968353722863576 -178.119174637193 
21.45                          0.968130406459895 -177.376101313737 0.0247854072863987 -88.9925687701652 0.0247854072863986 -88.9925687701639 0.969315109134588 -179.750813819005 
21.5                           0.969058550092411 -179.015017846391 0.0234520826017881 -90.7509438138036 0.0234520826017881 -90.7509438138024 0.970220490381321 178.655888695316 
21.55                          0.969935297525873 179.383130066858 0.0222124794498062 -92.470844573684 0.0222124794498061 -92.470844573683 0.971073686124655 177.098986451771 
21.6                           0.970763963955055 177.816553846955 0.0210587925744532 -94.1540817668694 0.0210587925744531 -94.1540817668685 0.971878189177389 175.576662867401 
21.65                          0.971547595602812 176.28357861167  0.019983956358291 -95.8023486482283 0.0199839563582909 -95.8023486482274 0.972637199725587 174.087220735716 
21.7                           0.972288996663301 174.782634418257 0.0189815673530072 -97.4172298667918 0.0189815673530072 -97.4172298667913 0.97335365518452 172.629072709488 
21.75                          0.972990752977901 173.312248285016 0.0180458155622127 -99.0002095473128 0.0180458155622127 -99.0002095473125 0.974030256432878 171.200732660035 
21.8                           0.973655252908555 171.871036914711 0.0171714234356371 -100.55267867265 0.0171714234356371 -100.552678672649 0.974669490932625 169.800807823191 
21.85                          0.974284705798492 170.457700050942 0.0163535916602354 -102.075941834792 0.0163535916602355 -102.075941834792 0.975273653162192 168.427991652019 
21.9                           0.974881158348656 169.071014405823 0.0155879509452027 -103.571223415357 0.0155879509452027 -103.571223415357 0.975844862724687 167.081057305065 
21.95                          0.97544650918723 167.709828103834 0.0148705190959945 -105.039673250099 0.0148705190959946 -105.039673250099 0.976385080437901 165.758851706721 
22                             0.975982521867466 166.373055592477 0.014197662758615 -106.482371826397 0.014197662758615 -106.482371826398 0.976896122667181 164.460290123148 
22.05                          0.976490836493905 165.059672975523 0.0135660632909868 -107.900335057663 0.0135660632909869 -107.900335057664 0.977379674123996 163.184351203299 
22.1                           0.976972980147823 163.768713729223 0.012972686284423 -109.294518674139 0.0129726862844231 -109.29451867414 0.977837299320952 161.930072440016 
22.15                          0.977430376258212 162.499264765939 0.0124147543161646 -110.665822265579 0.0124147543161647 -110.66582226558 0.978270452847106 160.69654601093  
22.2                           0.977864353044071 161.250462813265 0.0118897225646739 -112.015093007713 0.011889722564674 -112.015093007715 0.978680488604666 159.482914963164 
22.25                          0.978276151136424 160.021491079975 0.01139525696375 -113.34312910124 0.0113952569637501 -113.343129101242 0.979068668128969 158.288369709598 
22.3                           0.978666930473887 158.811576182997 0.0109292146103672 -114.650682949207 0.0109292146103673 -114.650682949209 0.979436168097325 157.112144807804 
22.35                          0.979037776553146 157.619985312172 0.0104896261751285 -115.938464096121 0.0104896261751286 -115.938464096124 0.979784087118427 155.953515995705 
22.4                           0.979389706105208 156.446023611892 0.010074680093984 -117.207141949826 0.0100746800939842 -117.207141949829 0.980113451882236 154.811797460689 
22.45                          0.979723672259235 155.289031760701 0.00968270834592953 -118.45734830515 0.00968270834592967 -118.457348305152 0.980425222740081 153.686339321222 
22.5                           0.980040569248104 154.148383731827 0.00931217364424793 -119.689679686486 0.0093121736442481 -119.689679686489 0.980720298776059 152.576525302102 
22.55                          0.980341236703194 153.023484719215 0.00896165788888757 -120.904699524837 0.00896165788888777 -120.90469952484 0.980999522423347 151.48177058639  
22.6                           0.98062646358023 151.913769215103 0.00862985174515255 -122.102940183343 0.00862985174515273 -122.102940183346 0.981263683672575 150.401519828649 
22.65                          0.980896991753057 150.818699226514 0.00831554522932006 -123.284904844024 0.00831554522932021 -123.284904844026 0.981513523913858 149.335245315692 
22.7                           0.981153519308015 149.737762619182 0.0080176191953686 -124.451069267236 0.00801761919536875 -124.451069267239 0.981749739449219 148.282445262286 
22.75                          0.981396703567816 148.670471578524 0.00773503762893715 -125.601883434288 0.00773503762893728 -125.60188343429 0.981972984707977 147.242642230505 
22.8                           0.981627163870674 147.616361178188 0.00746684066514324 -126.73777308266 0.00746684066514335 -126.737773082662 0.982183875193976 146.215381662455 
22.85                          0.981845484127565 146.574988047587 0.00721213825614723 -127.859141142434 0.00721213825614732 -127.859141142436 0.982382990190336 145.200230517069 
22.9                           0.982052215178062 145.545929130581 0.00697010442251641 -128.966369081714 0.00697010442251647 -128.966369081715 0.982570875244639 144.196776002512 
22.95                          0.98224787696304 144.528780528172 0.0067399720296501 -130.059818168104 0.00673997202965014 -130.059818168105 0.982748044454962 143.204624396506 
23                             0.982432960530601 143.523156418708 0.00652102803689768 -131.1398306527  0.00652102803689769 -131.1398306527  0.982914982575047 142.223399947601 
