! Touchstone file exported from HFSS 3D Layout Design 2026.1.0
!        File:           D:/Work/SIM/ADS_AUTO_SIM/projects/RFSOC_RF/TX_Fillter.aedt
!        Generated:      05:50:06 AM Aug 31, 2026
!        Design:         TX_BAND1_MCFIL_R56_CNN020
!        Project:        TX_Fillter
!
# GHz S MA R 50.000000
! Terminal data exported
! Port[1] = Port1
! Port[2] = Port2
14                             0.973053083777392 -164.437256008692 0.00369056389624994 -177.75723805381 0.00369056389624993 -177.75723805381 0.974095733389048 -162.036834331125 
14.05                          0.972557920029276 -165.323922957181 0.00376309679448005 -178.153074083122 0.00376309679448005 -178.153074083121 0.973632001837272 -162.899048712031 
14.1                           0.972047298616675 -166.216680749475 0.00383907253110626 -178.528788815111 0.00383907253110627 -178.52878881511 0.973154013194767 -163.766819754986 
14.15                          0.971520463376531 -167.115717385463 0.0039187607125276 -178.883979142216 0.00391876071252759 -178.883979142215 0.972661071545661 -164.640315067807 
14.2                           0.970976608258267 -168.021230722657 0.00400245721389319 -179.218281694529 0.0040024572138932 -179.218281694527 0.97215243496743 -165.519711107847 
14.25                          0.970414873195142 -168.933429119438 0.0040904870431187 -179.531380559271 0.0040904870431187 -179.531380559269 0.97162731171234 -166.405193762386 
14.3                           0.969834339562651 -169.852532129361 0.00418320753896961 -179.82301579949 0.00418320753896962 -179.823015799489 0.971084856005738 -167.296958975232 
14.35                          0.96923402517526 -170.778771251383 0.00428101194403372 179.907007205909 0.00428101194403373 179.90700720591  0.970524163415885 -168.19521342397 
14.4                           0.968612878766216 -171.712390741407 0.00438433339870902 179.658807591643 0.00438433339870902 179.658807591644 0.969944265743877 -169.100175252735 
14.45                          0.967969773887459 -172.653648491165 0.00449364940842603 179.432418012238 0.00449364940842604 179.432418012239 0.969344125375007 -170.012074866002 
14.5                           0.967303502157851 -173.602816981126 0.00460948684334389 179.227772852034 0.00460948684334391 179.227772852036 0.968722629024686 -170.931155789448 
14.55                          0.966612765777649 -174.560184314904 0.0047324275378881 179.044695689727 0.00473242753788811 179.044695689729 0.968078580802452 -171.857675604699 
14.6                           0.965896169215215 -175.526055343531 0.00486311456694894 178.882886095408 0.00486311456694895 178.882886095409 0.9674106945064  -172.791906965548 
14.65                          0.965152209958048 -176.500752888914 0.00500225928659635 178.741905868554 0.00500225928659637 178.741905868554 0.966717585047405 -173.734138704122 
14.7                           0.964379268203982 -177.48461907698 0.00515064924011485 178.621164858666 0.00515064924011486 178.621164858666 0.965997758887275 -174.684677036554 
14.75                          0.96357559534935 -178.478016792232 0.00530915704541215 178.51990654511  0.00530915704541217 178.519906545111 0.965249603357198 -175.643846878813 
14.8                           0.9627393011086  -179.481331266958 0.00547875039789229 178.43719358797  0.00547875039789229 178.43719358797  0.964471374701914 -176.611993284729 
14.85                          0.961868339073548 179.505028180054 0.00566050334428781 178.371893595391 0.00566050334428783 178.371893595391 0.963661184670434 -177.589483019745 
14.9                           0.960960490489423 178.480626238512 0.00585560900843034 178.322665382849 0.00585560900843037 178.322665382849 0.962816985445046 -178.576706285622 
14.95                          0.960013345988145 177.444999516417 0.00606539398035811 178.287946023229 0.00606539398035812 178.28794602323  0.961936552665961 -179.574078613337 
15                             0.9590242849757  176.397654243223 0.00629133461655405 178.265939000727 0.00629133461655407 178.265939000727 0.961017466268017 179.417957056364 
15.05                          0.957990452318585 175.338063742165 0.00653507554272504 178.254603783137 0.00653507554272505 178.254603783137 0.960057088797286 178.398928082734 
15.1                           0.956908731912399 174.265665644259 0.00679845070288389 178.251647113146 0.0067984507028839 178.251647113146 0.959052540817232 177.368329600122 
15.15                          0.955775716641485 173.179858812797 0.00708350736139526 178.254516286959 0.00708350736139525 178.254516286959 0.958000672944468 176.325621730066 
15.2                           0.954587674149481 172.079999942911 0.00739253354029218 178.260394635965 0.0073925335402922 178.260394635965 0.956898033970512 175.270226498176 
15.25                          0.953340507733321 170.965399795893 0.00772808946521697 178.26619935285  0.00772808946521696 178.26619935285  0.955740834425043 174.201524419198 
15.3                           0.952029711543502 169.835319022399 0.00809304370301435 178.268581707781 0.00809304370301433 178.268581707781 0.954524904814184 173.118850708611 
15.35                          0.95065031911613 168.688963522272 0.00849061480623502 178.263929584192 0.00849061480623501 178.263929584192 0.95324564761935 172.021491073329 
15.4                           0.949196844070835 167.525479281455 0.00892441943940502 178.24837213038  0.00892441943940501 178.24837213038  0.951897981961951 170.908677027555 
15.45                          0.947663211574915 166.343946618189 0.0093985281547839 178.21778617658  0.00939852815478389 178.217786176579 0.950476279619184 169.779580672348 
15.5                           0.94604267888783 165.143373761289 0.009917530218762 178.167803912996 0.00991753021876197 178.167803912996 0.948974290806316 168.6333088691   
15.55                          0.944327742948248 163.922689672785 0.010486609173033 178.093821168289 0.010486609173033 178.093821168289 0.947385057809073 167.468896727649 
15.6                           0.942510032531871 162.680736015423 0.0111116311583852 177.991005476436 0.0111116311583851 177.991005476436 0.945700814140346 166.285300319373 
15.65                          0.940580181971298 161.416258152628 0.0117992484472025 177.854302978122 0.0117992484472025 177.854302978122 0.943912866388428 165.08138851412  
15.7                           0.938527682762544 160.127895054577 0.0125570211406841 177.678443074895 0.0125570211406841 177.678443074894 0.942011455294367 163.855933827719 
15.75                          0.936340708552748 158.814167969514 0.0133935606095139 177.457939642241 0.0133935606095139 177.457939642241 0.939985591811379 162.607602154221 
15.8                           0.934005907966928 157.473467704989 0.0143186990182484 177.187087510841 0.0143186990182484 177.187087510841 0.93782286291873 161.33494124488  
15.85                          0.931508158433604 156.104040350626 0.0153436902057624 176.859952839852 0.0153436902057624 176.859952839852 0.935509200733965 160.036367785335 
15.9                           0.928830272540187 154.703971264519 0.0164814483350222 176.470355925524 0.0164814483350222 176.470355925524 0.933028606924471 158.710152915721 
15.95                          0.925952646401446 153.271167142847 0.0177468321207617 176.01184490304  0.0177468321207617 176.01184490304  0.93036282247858 157.354406038869 
16                             0.922852836948327 151.803336002476 0.0191569841461157 175.477658697259 0.0191569841461157 175.477658697259 0.927490930452731 155.96705677487  
16.05                          0.919505051803829 150.297964938276 0.020731736847762 174.860677445077 0.020731736847762 174.860677445077 0.92438887623466 154.54583495479  
16.1                           0.915879531343136 148.752295584695 0.0224940992449344 174.153358433931 0.0224940992449345 174.153358433932 0.921028885995654 153.088248615785 
16.15                          0.911941797443907 147.163297337528 0.0244708414663894 173.347655363484 0.0244708414663895 173.347655363484 0.917378759162342 151.591560085919 
16.2                           0.907651737106851 145.527638612022 0.0266931976245887 172.434918429422 0.0266931976245888 172.434918429422 0.913401004715499 150.052760463041 
16.25                          0.902962481358029 143.841656783399 0.0291977115787838 171.405772344116 0.0291977115787838 171.405772344116 0.909051783717556 148.468543151142 
16.3                           0.89781903048371 142.101328063356 0.0320272544904478 170.249968954089 0.0320272544904479 170.249968954089 0.904279611534417 146.835277702248 
16.35                          0.892156565723044 140.302239550033 0.0352322474698269 168.956210614745 0.035232247469827 168.956210614745 0.899023762768025 145.148986152445 
16.4                           0.885898375484316 138.439567268484 0.038872126325287 167.511940000076 0.0388721263252871 167.511940000076 0.893212310352015 143.405325541597 
16.45                          0.878953312229785 136.508066541062 0.0430170870659642 165.903091682864 0.0430170870659642 165.903091682863 0.886759718778139 141.599582689923 
16.5                           0.871212687320015 134.502085041269 0.0477501478086224 164.113800850668 0.0477501478086224 164.113800850668 0.879563902779676 139.726691077175 
16.55                          0.862546511392368 132.41561525743  0.0531695505438375 162.126065337926 0.0531695505438375 162.126065337925 0.87150266274689 137.781285625048 
16.6                           0.852799009147508 130.242413185258 0.0593914969551884 159.91935947285  0.0593914969551883 159.91935947285  0.862429427952098 135.757820554057 
16.65                          0.841783402074664 127.976225995053 0.0665531529443768 157.470203274177 0.0665531529443767 157.470203274177 0.852168299521448 133.6507901633   
16.7                           0.829276101346278 125.61119639824  0.0748157452115292 154.75170028761  0.0748157452115291 154.75170028761  0.840508525622215 131.455115190324 
16.75                          0.815010757539372 123.142550191707 0.0843673767349352 151.733075008917 0.0843673767349351 151.733075008917 0.827198829517407 129.166792377535 
16.8                           0.798673195233295 120.567732452416 0.0954248576429663 148.379271220785 0.0954248576429661 148.379271220785 0.811942561692069 126.783957244123 
16.85                          0.779899312079455 117.888244702815 0.108233321112596 144.650722401196 0.108233321112596 144.650722401196 0.794395642116299 124.308585324705 
16.9                           0.758279821958824 115.112555588529 0.123061609945228 140.503482653557 0.123061609945228 140.503482653557 0.774170957305772 121.749157221551 
16.95                          0.733378595146874 112.260604280145 0.140190373375133 135.890017462923 0.140190373375133 135.890017462923 0.75085557350978 119.124725208869 
17                             0.704775467192951 109.370542103047 0.159888687076244 130.761093104763 0.159888687076244 130.761093104764 0.724050948512037 116.470889896679 
17.05                          0.672149188605022 106.508312457396 0.18237442370102 125.069335964696 0.18237442370102 125.069335964696 0.69345064760743 113.848070323605 
17.1                           0.635419065296695 103.780061858396 0.207754967607497 118.775058339543 0.207754967607498 118.775058339543 0.658972250814489 111.351765316281 
17.15                          0.594957962277802 101.345350862683 0.235950520678542 111.854667511321 0.235950520678542 111.854667511322 0.620953472623821 109.122536517079 
17.2                           0.551861625495619 99.4241803897742 0.266614445126758 104.311117831519 0.266614445126759 104.311117831519 0.580394739435156 107.349124421764 
17.25                          0.508192997244391 98.2814570398841 0.29908255058627 96.1842840107166 0.29908255058627 96.1842840107167 0.539167834245006 106.250964945322 
17.3                           0.467012862235702 98.1615147743595 0.332395771801084 87.5572547210607 0.332395771801084 87.5572547210608 0.500017401123319 106.020289930115 
17.35                          0.43191995997927 99.1519011188084 0.365428971562342 78.5537625342612 0.365428971562343 78.5537625342613 0.46612541169028 106.714477297982 
17.4                           0.405942102215895 101.020590714095 0.397110477400784 69.3240687996156 0.397110477400785 69.3240687996155 0.440146301688708 108.13990720196  
17.45                          0.390154691364672 103.183122723869 0.426654402836902 60.0217667330783 0.426654402836902 60.0217667330782 0.423065880087217 109.837812712188 
17.5                           0.38301826012766 104.927070621243 0.453704427351764 50.7791078212371 0.453704427351763 50.779107821237  0.413662790160449 111.248795947803 
17.55                          0.381081001381543 105.740461370352 0.478333832365692 41.6894153307671 0.478333832365691 41.6894153307671 0.40904503670956 111.950712838586 
17.6                           0.380432577042603 105.456271251915 0.500925696909057 32.8010769397433 0.500925696909055 32.8010769397433 0.405813255206027 111.778689545016 
17.65                          0.377820568536682 104.173285001053 0.522004875039541 24.1219878412108 0.522004875039539 24.1219878412108 0.401023824336126 110.786016788413 
17.7                           0.371040486873199 102.1154449381   0.54208693260162 15.6300306792969 0.542086932601618 15.630030679297  0.392593174163714 109.145886899194 
17.75                          0.358853506224914 99.5412594228404 0.561574844098216 7.28512781335293 0.561574844098214 7.285127813353   0.379291151124509 107.078856924318 
17.8                           0.340767112024249 96.7162221617989 0.580704697517824 -0.959926291706527 0.580704697517822 -0.959926291706464 0.36058660927244 104.826071499004 
17.85                          0.316860322134062 93.9280295287815 0.599529095092292 -9.15093130422851 0.59952909509229 -9.15093130422843 0.336511197341426 102.658199618467 
17.9                           0.287712891539763 91.5316147059848 0.617927037425964 -17.3261136969299 0.617927037425962 -17.3261136969299 0.307606777689919 100.910108393356 
17.95                          0.254453366716152 90.0265882523835 0.63563364991768 -25.5120632619474 0.635633649917678 -25.5120632619474 0.274976171572686 100.039539547039 
18                             0.218953179772677 90.1805150727959 0.652286557916622 -33.7215617213728 0.652286557916621 -33.7215617213728 0.240455060771979 100.7100066778   
18.05                          0.184241318518815 93.1848315518733 0.6674857836486  -41.9532344058989 0.667485783648598 -41.953234405899 0.206935167268796 103.864869347923 
18.1                           0.155176865409587 100.596402905385 0.680860978721859 -50.1929991980149 0.680860978721858 -50.192999198015 0.178782655436336 110.595330267197 
18.15                          0.138609266429963 113.052180738968 0.692135698823227 -58.4171531806539 0.692135698823225 -58.417153180654 0.161715226697855 121.243919125448 
18.2                           0.140122103462987 127.442954093803 0.701176274043334 -66.5966663414415 0.701176274043331 -66.5966663414415 0.160432551833679 133.761300802335 
18.25                          0.158234717412345 138.424159962835 0.708014958975128 -74.7019771952555 0.708014958975126 -74.7019771952555 0.174597805823529 144.362168678417 
18.3                           0.186018542840194 144.094764548616 0.712843453086716 -82.7074640479033 0.712843453086713 -82.7074640479033 0.199082947558148 150.993914509506 
18.35                          0.217146305494152 145.572213133488 0.715980912694184 -90.594881775632 0.715980912694182 -90.594881775632 0.228188023886094 153.980354618252 
18.4                           0.247689058484932 144.316627185818 0.717826590203256 -98.3553655050845 0.717826590203255 -98.3553655050845 0.257873810228624 154.378545417995 
18.45                          0.275452803026832 141.331433795992 0.718808967597386 -105.989974154011 0.718808967597385 -105.989974154011 0.285708662392071 153.085897909318 
18.5                           0.299257685445824 137.219015655804 0.71934094129813 -113.509038333616 0.71934094129813 -113.509038333616 0.310328630606813 150.708330344741 
18.55                          0.318516079011678 132.329777095945 0.719786274810276 -120.930716485298 0.719786274810277 -120.930716485298 0.331028898875328 147.631457390273 
18.6                           0.333000917799831 126.863840609828 0.720438356501506 -128.279159487703 0.720438356501508 -128.279159487703 0.347513587276662 144.098572580076 
18.65                          0.342715023579171 120.930094209229 0.721509559562673 -135.582594013505 0.721509559562674 -135.582594013505 0.359746574249197 140.263990353608 
18.7                           0.347817351801449 114.579708326937 0.723128408884583 -142.871520510606 0.723128408884585 -142.871520510606 0.367862694340709 136.226006412046 
18.75                          0.348585107261454 107.825363652016 0.72534188060197 -150.177125066824 0.725341880601972 -150.177125066824 0.372116283550452 132.046600809034 
18.8                           0.345400563592972 100.652486095817 0.728120892817642 -157.529943759274 0.728120892817643 -157.529943759274 0.372853409452761 127.762702422984 
18.85                          0.338755521250256 93.0260896411087 0.731367892802472 -164.958793942793 0.731367892802473 -164.958793942793 0.37049845264634 123.391724526438 
18.9                           0.329267837771423 84.8956485447703 0.734926080895542 -172.489990233141 0.734926080895542 -172.489990233142 0.365547616816264 118.932740988614 
18.95                          0.317704449611862 76.2002385321591 0.738590050773745 179.853119757589 0.738590050773744 179.853119757589 0.358562921347231 114.363956136822 
19                             0.305003947705363 66.8767334682014 0.742117392537827 172.050249053541 0.742117392537826 172.050249053541 0.350161348581897 109.636928365469 
19.05                          0.292288886894397 56.8747194258701 0.745240128016663 164.083845362094 0.745240128016662 164.083845362094 0.34099616277579 104.668348260392 
19.1                           0.280853812469018 46.1817534438251 0.747673892361603 155.938331392794 0.747673892361603 155.938331392795 0.331732028871403 99.3310660487204 
19.15                          0.272111926335663 34.8588014657752 0.749121872248776 147.598975725036 0.749121872248778 147.598975725036 0.323022786699219 93.4473826609305 
19.2                           0.26748875820484 23.0748162099293 0.749270139155309 139.050583095797 0.749270139155313 139.050583095797 0.315509027883504 86.7890106520705 
19.25                          0.26827532192239 11.1144053831304 0.74777174286408 130.276355640284 0.747771742864086 130.276355640284 0.309857264161256 79.0892064186681 
19.3                           0.275491881603618 -0.668893105934854 0.744219331329128 121.25745739658  0.744219331329137 121.257457396581 0.306855333184735 70.0733167036158 
19.35                          0.289827969250917 -11.949792165253 0.738110665510431 111.973977349003 0.738110665510442 111.973977349003 0.307550012607286 59.5138514424787 
19.4                           0.311672195585807 -22.5295922548105 0.728818527626206 102.408063883481 0.728818527626217 102.408063883481 0.313357548647423 47.3109835403032 
19.45                          0.341158217962864 -32.3790691680795 0.715585644499767 92.5498658885728 0.715585644499778 92.5498658885728 0.326014194135152 33.5796071878811 
19.5                           0.378125877474202 -41.6103035280214 0.697573258917468 82.4063497827117 0.697573258917477 82.4063497827115 0.347232521194532 18.6902267940002 
19.55                          0.421968071717091 -50.4043754416468 0.673990828744621 72.0118439412256 0.673990828744626 72.0118439412254 0.378084186950605 3.20431142907649 
19.6                           0.471445962326768 -58.9337386062276 0.644311513354618 61.4373479055316 0.64431151335462 61.4373479055315 0.41838926896786 -12.2835485431103 
19.65                          0.524622881070143 -67.3076153429742 0.608527042335   50.7940398166027 0.608527042334999 50.7940398166029 0.46648425173337 -27.2937058184302 
19.7                           0.579036913957386 -75.5523310425463 0.567336429394392 40.226678641465  0.567336429394389 40.2266786414657 0.519520751958348 -41.5151098475524 
19.75                          0.632104837746289 -83.6236305567251 0.522149384498261 29.896052907116  0.522149384498257 29.8960529071172 0.57413960111577 -54.7783711545389 
19.8                           0.68160255558683 -91.4378338145654 0.47486008604927 19.9551383584104 0.474860086049268 19.9551383584121 0.627214294697998 -67.0079507678796 
19.85                          0.726015352893602 -98.9056027678567 0.427474170041491 10.5273202292148 0.427474170041492 10.5273202292169 0.676388917407189 -78.1880635838003 
19.9                           0.764639186643959 -105.956276990272 0.38174856635991 1.69377170380429 0.381748566359914 1.69377170380675 0.720281902746777 -88.3441652169497 
19.95                          0.79745948344106 -112.548647480951 0.338970755087611 -6.50800846908691 0.338970755087617 -6.50800846908426 0.758396282409799 -97.5313903988746 
20                             0.824921369881804 -118.670642971278 0.299906947941623 -14.0773300969063 0.299906947941631 -14.0773300969037 0.79087396084982 -105.824525406724 
20.05                          0.847700925048839 -124.333023977387 0.264871465484581 -21.0397796465106 0.264871465484591 -21.0397796465081 0.818228231491261 -113.308651971816 
20.1                           0.866535245891271 -129.561510372584 0.233848270668019 -27.4368170966443 0.233848270668029 -27.436817096642 0.841131077594327 -120.071351691948 
20.15                          0.882121149983803 -134.389873611945 0.206613083263795 -33.3174669953348 0.206613083263804 -33.3174669953329 0.860275357978388 -126.197138815226 
20.2                           0.895067910699197 -138.854882624138 0.1828311510453  -38.7325686625859 0.182831151045309 -38.7325686625843 0.876300616200715 -131.764106196636 
20.25                          0.905884182239619 -142.993056611807 0.162125215978115 -43.7312504181888 0.162125215978124 -43.7312504181876 0.889762088624205 -136.842335396895 
20.3                           0.914983009082662 -146.838819793293 0.144117787213903 -48.3590388260894 0.144117787213911 -48.3590388260886 0.901124751552485 -141.493511487585 
20.35                          0.922694483833702 -150.423612696887 0.128454615195531 -52.6570454759702 0.128454615195537 -52.6570454759697 0.91076980897422 -145.771258441323 
20.4                           0.929280257980562 -153.775598418395 0.114815766281215 -56.6618041230516 0.11481576628122 -56.6618041230513 0.91900608630679 -149.721844686566 
20.45                          0.934947134670947 -156.919708934417 0.102919154429641 -60.4054664527532 0.102919154429645 -60.4054664527532 0.926082331799873 -153.385033357273 
20.5                           0.939858687730881 -159.877866722813 0.0925198362180579 -63.9161721101624 0.0925198362180608 -63.9161721101626 0.932198569830052 -156.794945715401 
20.55                          0.944144716652546 -162.669281911238 0.0834071628376373 -67.2184836118423 0.0834071628376396 -67.2184836118425 0.937515823040515 -159.980868892903 
20.6                           0.947908727314471 -165.310768049532 0.0754010400007208 -70.3338252758404 0.0754010400007224 -70.3338252758406 0.94216410341568 -162.967977564898 
20.65                          0.951233756415548 -167.817046291651 0.0683480011869898 -73.2808950553488 0.0683480011869907 -73.280895055349 0.946248827809327 -165.777961132891 
20.7                           0.954186867617457 -170.201023643314 0.0621174637991465 -76.0760355936356 0.062117463799147 -76.0760355936357 0.949855900016737 -168.429559567744 
20.75                          0.956822609525333 -172.474039964034 0.0565983395169753 -78.733560563279 0.0565983395169753 -78.7335605632789 0.953055708130046 -170.939016455313 
20.8                           0.959185674151514 -174.646083291197 0.0516960579941877 -81.2660374779016 0.0516960579941874 -81.2660374779015 0.955906259398016 -173.320459703032 
20.85                          0.961312944526391 -176.725975491465 0.047330002972802 -83.6845306029923 0.0473300029728016 -83.684530602992 0.958455638208362 -175.586220442281 
20.9                           0.963235077237695 -178.721531293315 0.0434313303491417 -85.9988085226279 0.043431330349141 -85.9988085226273 0.960743936608974 -177.747099852889 
20.95                          0.964977731070732 179.360305956359 0.0399411255096612 -88.2175210406787 0.0399411255096606 -88.2175210406778 0.962804775093759 -179.812592474948 
21                             0.966562525927209 177.513348571559 0.0368088544705669 -90.3483498136901 0.0368088544705662 -90.348349813689 0.964666505263477 178.208926658121 
21.05                          0.968007795558759 175.732065887855 0.0339910653909605 -92.3981366565981 0.0339910653909598 -92.3981366565967 0.96635316516478 176.310044893663 
21.1                           0.969329182048593 174.011500102316 0.0314503012576619 -94.3729929560665 0.0314503012576612 -94.3729929560647 0.967885241856926 174.484179703447 
21.15                          0.970540108254191 172.347194348928 0.0291541895119634 -96.2783931335126 0.0291541895119627 -96.2783931335111 0.969280283205081 172.725467048206 
21.2                           0.971652155643838 170.735131100144 0.0270746793431294 -98.119254650702 0.0270746793431287 -98.1192546507001 0.970553391270213 171.028666862611 
21.25                          0.97267536838474 169.171679282946 0.0251874019428393 -99.9000066561722 0.0251874019428387 -99.90000665617  0.971717622300733 169.389082781785 
21.3                           0.97361849961005 167.653548755884 0.0234711330507903 -101.624649031854 0.0234711330507899 -101.624649031852 0.972784312701963 167.802493742522 
21.35                          0.974489212085678 166.177751013204 0.0219073405938444 -103.296803312357 0.021907340593844 -103.296803312354 0.973763346053377 166.265095512086 
21.4                           0.975294242701928 164.741565167312 0.0204798031582585 -104.919756708705 0.0204798031582582 -104.919756708703 0.974663372942757 164.773450540552 
21.45                          0.976039538097636 163.342508415592 0.0191742874918471 -106.496500267591 0.0191742874918468 -106.496500267589 0.975491992849027 163.324444812815 
21.5                           0.97673036711378 161.978310326635 0.0179782752739844 -108.029762030273 0.0179782752739841 -108.029762030271 0.976255905348352 161.915250605048 
21.55                          0.977371414542386 160.646890388133 0.0168807310788397 -109.52203591677 0.0168807310788395 -109.522035916769 0.976961036402624 160.543294237356 
21.6                           0.977966859690921 159.346338347786 0.0158719048484904 -110.975606946038 0.0158719048484903 -110.975606946037 0.977612644311235 159.206228067255 
21.65                          0.978520442552212 158.074896952532 0.0149431633378629 -112.39257330737 0.0149431633378629 -112.392573307368 0.978215408987031 157.901906094024 
21.7                           0.97903551980335 156.830946752967 0.0140868459357977 -113.774865718971 0.0140868459357977 -113.77486571897 0.978773507495799 156.628362647017 
21.75                          0.979515112414977 155.612992691012 0.013296141042017 -115.124264443555 0.0132961410420169 -115.124264443554 0.979290678230226 155.383793715857 
21.8                           0.979961946305785 154.419652231622 0.0125649798184119 -116.442414275644 0.0125649798184118 -116.442414275643 0.979770275639465 154.166540550562 
21.85                          0.980378487203764 153.249644835043 0.0118879446595847 -117.730837769105 0.0118879446595847 -117.730837769105 0.980215317077895 152.975075217654 
21.9                           0.980766970659359 152.101782596012 0.0112601901622928 -118.990946934688 0.0112601901622927 -118.990946934688 0.980628523051212 151.807987846547 
21.95                          0.981129427983272 150.974961901455 0.0106773747329353 -120.224053604678 0.0106773747329352 -120.224053604679 0.98101235190906 150.663975340605 
22                             0.981467708743757 149.868155979325 0.010135601270065 -121.431378634237 0.0101356012700649 -121.431378634237 0.981369029849061 149.541831360826 
22.05                          0.981783500347358 148.780408229115 0.00963136560614134 -122.614060085621 0.00963136560614129 -122.614060085622 0.981700576947987 148.440437418168 
22.1                           0.982078345137408 147.710826239642 0.00916151159838907 -123.773160521621 0.00916151159838898 -123.773160521623 0.982008829814724 147.358754934126 
22.15                          0.98235365537195 146.658576412536 0.00872319193003549 -124.909673517612 0.0087231919300354 -124.909673517614 0.982295461360955 146.295818149043 
22.2                           0.982610726383382 145.622879120733 0.00831383382638167 -126.02452948713 0.00831383382638153 -126.024529487132 0.982561998104621 145.250727774416 
22.25                          0.982850748173622 144.603004340575 0.00793110901001552 -127.118600903461 0.00793110901001535 -127.118600903463 0.982809835354828 144.222645299672 
22.3                           0.983074815658651 143.598267704062 0.00757290732002489 -128.192706989028 0.00757290732002471 -128.19270698903 0.983040250572055 143.210787875978 
22.35                          0.983283937743315 142.608026924595 0.00723731350460008 -129.247617935157 0.00723731350459989 -129.24761793516 0.983254415152158 142.214423709899 
22.4                           0.983479045379922 141.631678555398 0.0069225867676372 -130.284058706833 0.00692258676763704 -130.284058706836 0.983453404845011 141.23286790853  
22.45                          0.983660998741447 140.66865504486  0.00662714271008778 -131.302712480161 0.0066271427100876 -131.302712480164 0.983638208987152 140.265478725219 
22.5                           0.983830593621104 139.718422057344 0.00634953735768112 -132.304223754269 0.00634953735768093 -132.304223754271 0.983809738701602 139.311654161443 
22.55                          0.983988567154148 138.780476031816 0.00608845300978651 -133.289201174193 0.00608845300978628 -133.289201174197 0.983968834195901 138.370828885954 
22.6                           0.984135602944321 137.854341953876 0.0058426856808361 -134.258220096775 0.00584268568083587 -134.258220096778 0.984116271270918 137.442471437086 
22.65                          0.984272335666062 136.939571319612 0.00561113393693524 -135.211824927647 0.00561113393693503 -135.21182492765 0.984252767137271 136.526081678238 
22.7                           0.984399355203975 136.035740272188 0.00539278895690724 -136.150531253983 0.00539278895690703 -136.150531253986 0.984378985622941 135.62118848013  
22.75                          0.984517210382927 135.142447894188 0.00518672566977341 -137.074827794686 0.00518672566977323 -137.074827794688 0.984495541844417 134.727347606536 
22.8                           0.984626412335178 134.259314640682 0.00499209484015584 -137.985178187072 0.00499209484015568 -137.985178187074 0.984603006404085 133.844139782892 
22.85                          0.984727437545012 133.385980899555 0.00480811598981012 -138.882022626847 0.00480811598980999 -138.882022626849 0.984701909168392 132.971168929526 
22.9                           0.984820730606237 132.522105667177 0.00463407105786873 -139.765779376184 0.00463407105786863 -139.765779376185 0.984792742674322 132.108060543329 
22.95                          0.984906706723564 131.66736532868  0.00446929871475497 -140.63684615295 0.00446929871475491 -140.636846152951 0.984875965205656 131.254460213459 
23                             0.984985753985054 130.821452533303 0.00431318925540664 -141.495601412649 0.00431318925540663 -141.495601412649 0.98495200357537 130.410032258277 
