! Touchstone file exported from HFSS 3D Layout Design 2026.1.0
!        File:           D:/Work/SIM/ADS_AUTO_SIM/projects/RFSOC_RF/TX_Fillter.aedt
!        Generated:      01:35:57 AM Aug 31, 2026
!        Design:         TX_BAND1_MCFIL_R22_CNN047
!        Project:        TX_Fillter
!
# GHz S MA R 50.000000
! Terminal data exported
! Port[1] = Port1
! Port[2] = Port2
14                             0.972156775262615 -167.649852263415 0.0037254158053466 -178.516688053171 0.0037254158053466 -178.516688053171 0.974696595928384 -160.268179147528 
14.05                          0.971637854880411 -168.544786458855 0.00379896189840933 -178.914947018318 0.00379896189840936 -178.914947018318 0.974243341959265 -161.122762998171 
14.1                           0.971102458050184 -169.446106603363 0.00387600802406832 -179.293155905991 0.00387600802406836 -179.293155905991 0.973776206632487 -161.982752377765 
14.15                          0.970549773422025 -170.354016659752 0.00395682857080824 -179.650912836209 0.00395682857080828 -179.650912836209 0.97329451179019 -162.848307570332 
14.2                           0.96997893594596 -171.268731197298 0.00404172471431266 -179.987855650716 0.00404172471431272 -179.987855650717 0.972797534239523 -163.719597393788 
14.25                          0.969389022410933 -172.190476083452 0.00413102734821494 179.696330343752 0.004131027348215 179.696330343751 0.972284501995058 -164.596799764456 
14.3                           0.968779046535744 -173.119489230761 0.0042251003583758 179.401903824811 0.00422510035837586 179.401903824811 0.97175459014218 -165.480102306811 
14.35                          0.968147953558955 -174.056021404296 0.00432434428292845 179.129058072762 0.0043243442829285 179.129058072762 0.971206916276398 -166.369703012803 
14.4                           0.9674946142675  -175.00033709546 0.00442920040585866 178.877910747143 0.00442920040585873 178.877910747143 0.970640535467339 -167.265810955585 
14.45                          0.966817818395392 -175.952715468739 0.00454015533823849 178.648492826954 0.00454015533823852 178.648492826954 0.97005443468906 -168.168647063035 
14.5                           0.966116267314219 -176.91345138869 0.00465774614855541 178.44073673984  0.00465774614855546 178.44073673984  0.969447526650024 -169.078444957049 
14.55                          0.965388565925902 -177.882856535324 0.00478256611206271 178.254463729094 0.00478256611206276 178.254463729094 0.968818642946455 -169.99545186532 
14.6                           0.964633213655081 -178.861260617015 0.00491527115894281 178.089370534564 0.00491527115894285 178.089370534564 0.968166526451638 -170.919929613091 
14.65                          0.963848594423304 -179.849012691123 0.00505658711260493 177.945015494177 0.00505658711260499 177.945015494177 0.967489822840632 -171.852155703253 
14.7                           0.963032965469341 179.153517396174 0.00520731782296552 177.820804206124 0.00520731782296557 177.820804206124 0.966787071134642 -172.792424494207 
14.75                          0.962184444859122 178.145937438009 0.00536835431550021 177.71597492694  0.00536835431550026 177.71597492694  0.966056693131353 -173.741048486045 
14.8                           0.961300997504252 177.127831148415 0.00554068509571314 177.629583916225 0.00554068509571316 177.629583916224 0.96529698156655 -174.698359726941 
14.85                          0.960380419479249 176.098756281062 0.00572540777105569 177.560490972936 0.00572540777105571 177.560490972936 0.964506086827493 -175.664711353116 
14.9                           0.959420320393522 175.058242566754 0.00592374217898907 177.507345438577 0.00592374217898909 177.507345438577 0.963682002009267 -176.640479277484 
14.95                          0.958418103533815 174.005789448873 0.00613704524172272 177.468572966671 0.00613704524172275 177.468572966671 0.962822546070578 -177.62606404403 
15                             0.957370943444899 172.94086359323  0.00636682780627019 177.442363372587 0.0063668278062702 177.442363372587 0.961925344804196 -178.621892867195 
15.05                          0.956275760559253 171.862896145659 0.00661477377415788 177.426659879889 0.00661477377415787 177.426659879889 0.960987809288084 -179.628421878116 
15.1                           0.955129192418357 170.771279707076 0.00688276187999808 177.419150065837 0.00688276187999809 177.419150065837 0.960007111424427 179.353861397501 
15.15                          0.953927560946546 169.665364991603 0.00717289054411276 177.417258776653 0.00717289054411275 177.417258776653 0.958980156103249 178.324435301778 
15.2                           0.952666835140328 168.54445712864  0.00748750630379473 177.418143230447 0.00748750630379474 177.418143230447 0.957903549442503 177.282741015355 
15.25                          0.951342588417759 167.407811564317 0.00782923642343386 177.41869045103  0.00782923642343384 177.41869045103  0.956773562454131 176.228179200042 
15.3                           0.94994994972948 166.254629511558 0.00820102639903638 177.415517079111 0.00820102639903638 177.415517079111 0.955586089361626 175.160106272063 
15.35                          0.948483547359461 165.084052890838 0.0086061832118017 177.404971489905 0.00860618321180167 177.404971489905 0.95433659964411 174.077830258817 
15.4                           0.946937444132251 163.895158695606 0.00904842535350089 177.383138010754 0.00904842535350086 177.383138010754 0.953020082698386 172.980606185547 
15.45                          0.945305062485471 162.686952707018 0.00953194084970697 177.345842883205 0.00953194084970694 177.345842883205 0.951630983786043 171.86763093092  
15.5                           0.94357909755008 161.458362472153 0.0100614547532055 177.288661456423 0.0100614547532054 177.288661456424 0.950163129657275 170.738037482235 
15.55                          0.941751415992045 160.208229447988 0.0106423078787483 177.206925938969 0.0106423078787482 177.206925938969 0.948609641904006 169.590888511609 
15.6                           0.939812937889298 158.935300200177 0.0112805489135719 177.095732879795 0.0112805489135718 177.095732879795 0.946962835675993 168.425169184274 
15.65                          0.937753498324029 157.638216531103 0.0119830424804929 176.949949402578 0.0119830424804928 176.949949402578 0.945214100874261 167.239779098909 
15.7                           0.935561684632963 156.315504395924 0.0127575962701231 176.764217083994 0.012757596270123 176.764217083994 0.943353762290437 166.033523248125 
15.75                          0.933224644339873 154.965561448838 0.0136131110182782 176.532952248452 0.0136131110182782 176.532952248452 0.941370914354954 164.805101875237 
15.8                           0.930727857647575 153.586643045407 0.0145597579115768 176.250341348367 0.0145597579115768 176.250341348367 0.939253225149222 163.553099092047 
15.85                          0.928054866930457 152.176846511881 0.0156091889921288 175.91033000646  0.0156091889921287 175.91033000646  0.936986703072769 162.275970113077 
15.9                           0.925186953866797 150.734093481541 0.0167747873415453 175.506604208076 0.0167747873415453 175.506604208077 0.934555417967451 160.97202695676  
15.95                          0.922102752586272 149.256110095131 0.0180719653030751 175.032562037177 0.0180719653030751 175.032562037177 0.931941166500512 159.639422467235 
16                             0.918777784362145 147.740404873958 0.0195185208034862 174.481274237247 0.0195185208034862 174.481274237247 0.929123069088372 158.276132527733 
16.05                          0.915183895801932 146.184244110601 0.0211350640238849 173.845431733825 0.0211350640238848 173.845431733825 0.926077082469723 156.879936377241 
16.1                           0.911288578008165 144.584624699802 0.0229455293024277 173.117278064084 0.0229455293024276 173.117278064084 0.922775408048748 155.448395021284 
16.15                          0.907054138588136 142.938244477198 0.0249777902843166 172.28852440716  0.0249777902843166 172.288524407161 0.919185771139684 153.978827868214 
16.2                           0.902436691469914 141.241470387171 0.0272643999896366 171.350244586435 0.0272643999896366 171.350244586436 0.91527054004917 152.468287960867 
16.25                          0.897384921031001 139.490305228484 0.029843481606832 170.292747018334 0.0298434816068319 170.292747018334 0.910985646340766 150.913536566658 
16.3                           0.891838566954468 137.680354430482 0.0327598002681305 169.105420121453 0.0327598002681304 169.105420121453 0.906279258517402 149.311018526388 
16.35                          0.885726564620114 135.806795456659 0.0360660504064539 167.776547208811 0.0360660504064538 167.776547208811 0.901090150813235 147.65684078322  
16.4                           0.878964763359417 133.864354275281 0.0398243966691317 166.293086440664 0.0398243966691316 166.293086440664 0.895345697336383 145.946758138148 
16.45                          0.871453133255034 131.8472962898   0.0441083071230472 164.640411164652 0.0441083071230471 164.640411164652 0.888959410901124 144.176172851586 
16.5                           0.863072364102413 129.749443838339 0.0490047126218157 162.802006187737 0.0490047126218156 162.802006187737 0.88182793878595 142.340158772132 
16.55                          0.853679765281866 127.564239887593 0.0546165104169846 160.75911669533  0.0546165104169844 160.75911669533  0.87382743100347 140.433527063259 
16.6                           0.843104407283741 125.284889495924 0.0610653942970562 158.49034949102  0.0610653942970561 158.49034949102  0.864809223356272 138.450960611017 
16.65                          0.831141531769219 122.904629552893 0.0684949226019226 155.97123237452  0.0684949226019224 155.97123237452  0.854594851613437 136.387259787276 
16.7                           0.817546446502921 120.41720711798  0.0770736050535899 153.173749086113 0.0770736050535897 153.173749086112 0.842970577924242 134.237766271623 
16.75                          0.802028499914987 117.817693134185 0.0869975621950867 150.065887902493 0.0869975621950866 150.065887902493 0.82968194148696 131.999068020568 
16.8                           0.784246440223022 115.103829309696 0.0984919345541015 146.61127697873  0.0984919345541014 146.61127697873  0.814429467552516 129.670141925335 
16.85                          0.763807728656443 112.278210958422 0.111809628056739 142.769036033782 0.111809628056739 142.769036033782 0.796867774785072 127.254165082794 
16.9                           0.740276504324165 109.351754535926 0.127225125197198 138.494059805984 0.127225125197198 138.494059805984 0.776612170838039 124.761318682622 
16.95                          0.713198218922554 106.349077239695 0.145019997438034 133.738067946823 0.145019997438034 133.738067946823 0.753259673236689 122.212998178932 
17                             0.682153549839431 103.316569396191 0.165455694730316 128.451897479374 0.165455694730315 128.451897479373 0.726435207946931 119.647855989852 
17.05                          0.646859147437347 100.333877840195 0.188728963068362 122.589627657962 0.188728963068362 122.589627657962 0.695877492178167 117.129849633529 
17.1                           0.607334629260632 97.5287385947921 0.214907516116282 116.115088759241 0.214907516116282 116.115088759241 0.661579346383825 114.757542823708 
17.15                          0.564145634777342 95.0924674270691 0.243850832077589 109.010892277568 0.243850832077589 109.010892277568 0.62398610941086 112.671602084669 
17.2                           0.51869663093548 93.2868494554294 0.275134883991555 101.289066739168 0.275134883991554 101.289066739168 0.584221098869052 111.052967247308 
17.25                          0.473466637702154 92.4204672388741 0.308017026889812 93.000655428762  0.308017026889812 93.000655428762  0.54423956157142 110.098117505487 
17.3                           0.431957084075315 92.7579649117399 0.341485095388676 84.2399055535696 0.341485095388676 84.2399055535695 0.506731597383033 109.95605476304  
17.35                          0.398034994226952 94.3394616123751 0.374413451791153 75.1385614971774 0.374413451791153 75.1385614971774 0.474586194192559 110.62942325823  
17.4                           0.374556113542635 96.7894675036195 0.405793257385432 65.8488178107111 0.405793257385432 65.8488178107111 0.449934346583533 111.891621019144 
17.45                          0.361877299152039 99.3413046961685 0.434947516926593 56.5189977952964 0.434947516926593 56.5189977952965 0.433212152957477 113.31252564676  
17.5                           0.35749347621669 101.186814917352 0.46163670128372 47.270294914704  0.46163670128372 47.2702949147041 0.422910440645509 114.421853354431 
17.55                          0.357234883809472 101.853312762413 0.486021130821876 38.182342655513  0.486021130821877 38.182342655513  0.416225061697965 114.895943974964 
17.6                           0.356937252657912 101.279202947035 0.508521370931298 29.2904794267567 0.508521370931299 29.2904794267567 0.410089260614979 114.632342287791 
17.65                          0.353433209146663 99.6592131065321 0.529650270519792 20.5923748948305 0.529650270519793 20.5923748948305 0.4019401008494  113.707767590842 
17.7                           0.344739431537247 97.2825928670759 0.549873107523102 12.0593677949397 0.549873107523103 12.0593677949396 0.390015150591616 112.302049236024 
17.75                          0.329856325247888 94.4557065773768 0.569517473306673 3.64846750837775 0.569517473306673 3.6484675083777  0.373339677650678 110.647686198059 
17.8                           0.308521022948152 91.4969893590912 0.588729845758035 -4.68724471796852 0.588729845758035 -4.68724471796858 0.35162087987766 109.017927630271 
17.85                          0.281059236207589 88.7797836537309 0.607467668893902 -12.9905603522712 0.607467668893903 -12.9905603522712 0.325181874681921 107.746347798429 
17.9                           0.248379550769341 86.8211853796719 0.625517751949595 -21.2944065406091 0.625517751949595 -21.2944065406092 0.294992780498527 107.27001374401  
17.95                          0.212150447145281 86.4443868739988 0.642536070438918 -29.6182283738928 0.642536070438917 -29.6182283738928 0.262823184534046 108.185703009612 
18                             0.175286194429681 89.0568369076129 0.658105862332779 -37.9663976918477 0.658105862332778 -37.9663976918477 0.231519423227599 111.275283116102 
18.05                          0.142996851874118 96.8883745249888 0.671808854411072 -46.3286606793698 0.671808854411072 -46.3286606793697 0.205290614882256 117.336488982002 
18.1                           0.123952915891518 111.688397025766 0.683299791120149 -54.6825732974576 0.683299791120149 -54.6825732974575 0.189413701360315 126.486333759742 
18.15                          0.126752015018195 129.596959923137 0.692370340614314 -62.9976116804251 0.692370340614314 -62.997611680425 0.188189999682908 137.12830865338  
18.2                           0.1499064535849  142.513514704837 0.698988425696972 -71.2402912477927 0.698988425696972 -71.2402912477926 0.201812046615242 146.43635690967  
18.25                          0.184050094801073 148.395394234515 0.703304605250778 -79.3793733623989 0.703304605250779 -79.3793733623988 0.22622211945046 152.616038530982 
18.3                           0.221574324394144 149.419166573083 0.705626416524203 -87.3902402739782 0.705626416524203 -87.3902402739781 0.256230634908719 155.633396969839 
18.35                          0.258260744986135 147.58578923097  0.706370251666407 -95.2577994006502 0.706370251666407 -95.2577994006501 0.287731145565041 156.227756034203 
18.4                           0.291900514769515 144.071948853299 0.706004559683216 -102.977710255308 0.706004559683216 -102.977710255308 0.31804051277577 155.149762384089 
18.45                          0.321348987223598 139.525381227478 0.704996984221282 -110.556127569582 0.704996984221283 -110.556127569582 0.345557258866518 152.953669948066 
18.5                           0.346061696284195 134.30518068812  0.703773348570209 -118.008392835672 0.70377334857021 -118.008392835672 0.369398688965295 150.010152298205 
18.55                          0.365855870730209 128.612016434014 0.702691044390803 -125.357158326587 0.702691044390803 -125.357158326587 0.389143402395702 146.558492566483 
18.6                           0.380775213997292 122.555944373977 0.702025424817703 -132.630346864064 0.702025424817702 -132.630346864064 0.404662746342422 142.750233072532 
18.65                          0.391009331050089 116.192889667263 0.701965891328842 -139.859215404642 0.701965891328841 -139.859215404642 0.416012690423283 138.678867303246 
18.7                           0.396847205618437 109.545284252952 0.702618125548837 -147.076661843781 0.702618125548836 -147.076661843781 0.423366098669906 134.398754417736 
18.75                          0.398654242129998 102.614416580795 0.704009622646138 -154.315822773126 0.704009622646137 -154.315822773126 0.426972400399957 129.936686967281 
18.8                           0.396866174214417 95.3883528614768 0.706096689201532 -161.608961078632 0.706096689201531 -161.608961078632 0.427135781576835 125.298458678802 
18.85                          0.39199464037429 87.8475782699575 0.708771965641466 -168.986628477868 0.708771965641465 -168.986628477868 0.424205411102748 120.471839730883 
18.9                           0.384639735230475 79.96972585611   0.71187211483265 -176.477096472633 0.711872114832649 -176.477096472633 0.418572784787201 115.426752999835 
18.95                          0.375504789400276 71.7344205849449 0.715185504258729 175.893934254745 0.715185504258729 175.893934254745 0.410672615723504 110.113116410225 
19                             0.365408258305311 63.1290844138402 0.718459496706019 168.103325282264 0.718459496706019 168.103325282264 0.400985346690684 104.456748410479 
19.05                          0.355287247779802 54.1562551195317 0.721406425191688 160.130181028695 0.721406425191689 160.130181028695 0.390041807060299 98.3539557944547 
19.1                           0.346187434619648 44.8422101890841 0.723706638684999 151.955248159187 0.723706638685   151.955248159187 0.378434074414203 91.6660303999861 
19.15                          0.339235734307731 35.2451001228267 0.725006484754317 143.56014621659  0.725006484754317 143.56014621659  0.366840807658918 84.2160529495045 
19.2                           0.335595613119085 25.4584885438391 0.724909218301327 134.926667468186 0.724909218301327 134.926667468186 0.356078113280883 75.7924124630766 
19.25                          0.336409634958204 15.6045522352967 0.722958194038468 126.036541740455 0.722958194038467 126.036541740454 0.347183228069217 66.1664562686742 
19.3                           0.342736041707628 5.81304545289917 0.718614952512865 116.872221988114 0.718614952512863 116.872221988114 0.341518628410972 55.1345976916676 
19.35                          0.355480652450244 -3.81052441658326 0.711240385156156 107.419346419086 0.711240385156153 107.419346419086 0.340838853240384 42.5926864749877 
19.4                           0.375312280300625 -13.2142943974101 0.700094698062652 97.6714595876658 0.700094698062649 97.6714595876654 0.347201158853527 28.6307565014839 
19.45                          0.402542367520847 -22.4101073946201 0.684378934300732 87.6371530354759 0.684378934300727 87.6371530354756 0.36259134978379 13.5948851162157 
19.5                           0.436967507884634 -31.4558159804566 0.663341142406931 77.348834424924  0.663341142406927 77.3488344249239 0.388284685215687 -1.95928911679929 
19.55                          0.477720281384662 -40.4174736954165 0.636454172856876 66.8708702793103 0.636454172856873 66.8708702793103 0.424230178214401 -17.4284820101002 
19.6                           0.523219485122607 -49.330511436329 0.603633349455721 56.3034351431894 0.603633349455719 56.3034351431894 0.468837430733466 -32.3305353352704 
19.65                          0.571307111136594 -58.1778868398913 0.565413324858808 45.7782834678478 0.565413324858808 45.7782834678479 0.519294917542628 -46.3705627218152 
19.7                           0.619582003955368 -66.8921377094478 0.522983236144612 35.4450232909193 0.522983236144615 35.4450232909193 0.572235010939101 -59.4087795082586 
19.75                          0.66582703186905 -75.3758667665931 0.478026530209505 25.4508453406548 0.478026530209509 25.4508453406547 0.624451863856112 -71.4001397513164 
19.8                           0.708364325535269 -83.5284559026837 0.43241221246453 15.9202946294674 0.432412212464533 15.920294629467  0.673434999524151 -82.3513357202609 
19.85                          0.746216898617868 -91.2676938085116 0.387862914541155 6.94166517383147 0.38786291454116 6.94166517383095 0.717603960017402 -92.299905804785 
19.9                           0.779065959060614 -98.540792426701 0.345720206881971 -1.43702947517207 0.345720206881974 -1.43702947517278 0.756264760485713 -101.304650344229 
19.95                          0.807081772245169 -105.325349542312 0.306855697826963 -9.20389656228095 0.306855697826966 -9.20389656228185 0.789399335931742 -109.438960532151 
20                             0.830724234873945 -111.624064423285 0.27170323905664 -16.3745282024647 0.271703239056641 -16.3745282024658 0.817411432405654 -116.784338470887 
20.05                          0.850576729186589 -117.457215066957 0.24035565307579 -22.982481364822 0.240355653075791 -22.9824813648231 0.840909972337698 -123.424403568775 
20.1                           0.867235103510397 -122.85554900952 0.212675661489107 -29.0710909039508 0.212675661489107 -29.071090903952 0.860559418724412 -129.440185673436 
20.15                          0.881246786619129 -127.854749898003 0.188391952034501 -34.6874332957124 0.188391952034501 -34.6874332957135 0.876993049476786 -134.907036599832 
20.2                           0.893085278947426 -132.491653140027 0.167170238348957 -39.8783748748695 0.167170238348957 -39.8783748748706 0.890772041503195 -139.893011069132 
20.25                          0.903145630369463 -136.801925348464 0.148660168083449 -44.6882657065844 0.148660168083448 -44.6882657065855 0.902372851169157 -144.458344714981 
20.3                           0.911750463365825 -140.818804440502 0.132523267016439 -49.1577831346813 0.132523267016438 -49.1577831346822 0.912189738461198 -148.655638678214 
20.35                          0.919160135793169 -144.572538403854 0.118447660614754 -53.323509758281 0.118447660614754 -53.3235097582817 0.920544068201776 -152.530437239506 
20.4                           0.925583598596755 -148.090250102186 0.106154323856282 -57.2179443059784 0.106154323856281 -57.217944305979 0.927695673446059 -156.121981573161 
20.45                          0.931188346541781 -151.396042132211 0.0953982892335127 -60.869744889477 0.0953982892335123 -60.8697448894775 0.933853920055326 -159.464005065993 
20.5                           0.936108882770816 -154.51122312389 0.0859670910985893 -64.3040796543341 0.085967091098589 -64.3040796543345 0.939187471162293 -162.585494987954 
20.55                          0.940453628499668 -157.454583878294 0.0776778701602483 -67.5430112815273 0.0776778701602482 -67.5430112815275 0.943832466692703 -165.511383892267 
20.6                           0.944310430946821 -160.242682421695 0.0703739816579503 -70.6058747472754 0.0703739816579504 -70.6058747472755 0.947899173496231 -168.263157323309 
20.65                          0.947750894925523 -162.890116164325 0.0639215785903895 -73.5096279079585 0.0639215785903897 -73.5096279079586 0.951477298508432 -170.859377330601 
20.7                           0.950833765467921 -165.409770796901 0.0582064128725222 -76.2691663061044 0.0582064128725226 -76.2691663061043 0.954640192080466 -173.31612780542 
20.75                          0.953607562161207 -167.813042147488 0.0531309623812297 -78.8976002217376 0.0531309623812301 -78.8976002217376 0.957448156856135 -175.647390409601 
20.8                           0.956112631107497 -170.110030834993 0.0486119155419302 -81.4064954801714 0.0486119155419308 -81.4064954801712 0.959951048167706 -177.865360529445 
20.85                          0.958382746782365 -172.30971139624 0.0445780043696405 -83.8060811736253 0.044578004369641 -83.8060811736251 0.962190318806664 -179.9807122752  
20.9                           0.96044636704321 -174.420078377935 0.0409681571078898 -86.1054280583865 0.0409681571078905 -86.1054280583865 0.964200630301791 177.997179353933 
20.95                          0.962327620901999 -176.448272125708 0.0377299338068168 -88.3126014301486 0.0377299338068174 -88.3126014301485 0.966011126670442 176.06005208207  
21                             0.964047090044962 -178.400686939236 0.0348182069238373 -90.4347920379803 0.0348182069238381 -90.4347920379803 0.967646445319534 174.200599743882 
21.05                          0.965622430674221 179.716935948471 0.032194051118636 -92.4784282321394 0.0321940511186367 -92.4784282321395 0.96912752290477 172.412340410963 
21.1                           0.967068871229484 177.899428379385 0.0298238100097801 -94.4492721408621 0.0298238100097808 -94.4492721408621 0.970472240801342 170.689505068312 
21.15                          0.968399613175699 176.142126358609 0.0276783117394519 -96.3525022824738 0.0276783117394525 -96.3525022824738 0.971695944674591 169.026943374415 
21.2                           0.969626155697577 174.440810581018 0.025732209213473 -98.1927846636022 0.0257322092134737 -98.1927846636024 0.972811864824782 167.420043644404 
21.25                          0.970758560335408 172.791654995961 0.0239634245826137 -99.9743341002997 0.0239634245826142 -99.9743341002999 0.973831457986181 165.864664698644 
21.3                           0.971805667951084 171.19118222136  0.0223526808020763 -101.700967227597 0.0223526808020768 -101.700967227597 0.974764686664053 164.357077633595 
21.35                          0.972775277641651 169.636224801263 0.02088310592844 -103.376148431853 0.0208831059284404 -103.376148431854 0.975620248564359 162.893915911985 
21.4                           0.973674295103637 168.12389145674  0.0195398982103171 -105.003029745049 0.0195398982103175 -105.00302974505 0.976405765955863 161.472132448054 
21.45                          0.9745088563326  166.651537611952 0.0183100420432985 -106.584485576213 0.0183100420432988 -106.584485576213 0.977127942709542 160.088962591708 
21.5                           0.975284431297433 165.216739588385 0.0171820665407423 -108.123143017985 0.0171820665407426 -108.123143017985 0.977792695138378 158.741892102167 
21.55                          0.976005911267103 163.817271953653 0.0161458398683916 -109.621408351664 0.0161458398683919 -109.621408351664 0.978405261500363 157.428629354706 
21.6                           0.976677682720787 162.451087589663 0.0151923936475931 -111.081490278343 0.0151923936475933 -111.081490278343 0.978970294044319 156.147081149695 
21.65                          0.977303690189714 161.116300110698 0.0143137726886504 -112.505420323748 0.0143137726886506 -112.505420323748 0.979491936707819 154.895331596377 
21.7                           0.977887489922166 159.811168317177 0.0135029061066759 -113.895070797484 0.013502906106676 -113.895070797485 0.979973890970416 153.671623628939 
21.75                          0.978432295902948 158.534082417201 0.0127534965259979 -115.252170631322 0.0127534965259979 -115.252170631322 0.980419471886508 152.474342782717 
21.8                           0.978941019473391 157.283551787035 0.0120599246198426 -116.578319374095 0.0120599246198426 -116.578319374095 0.980831655942037 151.302002916596 
21.85                          0.979416303570806 156.058194074516 0.0114171666796077 -117.874999581137 0.0114171666796077 -117.874999581137 0.981213122076316 150.153233615984 
21.9                           0.979860552424598 154.856725477133 0.0108207232790739 -119.143587802775 0.0108207232790738 -119.143587802774 0.981566286967726 149.026769051027 
21.95                          0.980275957400122 153.677952050036 0.0102665574069117 -120.385364348046 0.0102665574069117 -120.385364348045 0.981893335487086 147.921438098299 
22                             0.980664519563297 152.520761919082 0.00975104069697533 -121.601521975831 0.00975104069697519 -121.60152197583 0.982196247065113 146.836155562371 
22.05                          0.981028069443219 151.384118290998 0.00927090659923554 -122.793173645098 0.00927090659923545 -122.793173645097 0.982476818592811 145.769914357269 
22.1                           0.981368284391826 150.267053167082 0.00882320951228972 -123.961359438494 0.0088232095122896 -123.961359438493 0.982736684369809 144.721778527733 
22.15                          0.981686703875737 149.168661679234 0.00840528904729659 -125.107052758572 0.00840528904729645 -125.107052758571 0.982977333530849 143.690877006982 
22.2                           0.981984742982714 148.088096977544 0.0080147387179704 -126.231165883065 0.00801473871797028 -126.231165883064 0.983200125311031 142.676398021892 
22.25                          0.982263704381728 147.024565607768 0.00764937845603121 -127.334554954581 0.00764937845603107 -127.33455495458 0.983406302453163 141.677584068595 
22.3                           0.982524788939572 145.977323324708 0.0073072304396545 -128.418024470512 0.00730723043965434 -128.41802447051 0.983597003013239 140.693727391728 
22.35                          0.982769105166919 144.945671294235 0.00698649779677172 -129.482331330708 0.00698649779677158 -129.482331330706 0.983773270780808 139.724165909366 
22.4                           0.982997677641648 143.928952642448 0.00668554580784748 -130.528188493277 0.00668554580784734 -130.528188493275 0.983936064498388 138.768279533139 
22.45                          0.983211454536215 142.926549315433 0.0064028852858966 -131.556268282685 0.00640288528589647 -131.556268282683 0.984086266036758 137.82548683948  
22.5                           0.983411314358118 141.937879217453 0.00613715785657637 -132.567205388852 0.00613715785657628 -132.567205388849 0.984224687660216 136.895242053448 
22.55                          0.983598071997567 140.962393599112 0.00588712289949261 -133.561599591287 0.00588712289949248 -133.561599591285 0.984352078496626 135.977032311361 
22.6                           0.983772484163745 139.999574670344 0.00565164594447842 -134.540018238156 0.00565164594447831 -134.540018238154 0.984469130310971 135.070375172554 
22.65                          0.983935254280322 139.048933415916 0.00542968834443589 -135.502998506567 0.00542968834443576 -135.502998506565 0.984576482667447 134.174816354148 
22.7                           0.984087036901637 138.110007593646 0.00522029807012158 -136.451049467251 0.00522029807012149 -136.451049467249 0.984674727553535 133.289927665804 
22.75                          0.984228441703144 137.182359897699 0.00502260149263604 -137.384653974047 0.00502260149263598 -137.384653974046 0.984764413529662 132.415305124103 
22.8                           0.984360037092941 136.265576271264 0.00483579603686019 -138.304270396199 0.00483579603686013 -138.304270396198 0.984846049459666 131.550567228547 
22.85                          0.984482353485423 135.359264354601 0.00465914360411491 -139.210334209364 0.00465914360411488 -139.210334209363 0.984920107870084 130.695353383189 
22.9                           0.984595886273101 134.463052055915 0.00449196467526385 -140.1032594594  0.00449196467526384 -140.103259459398 0.984987027980167 129.849322449719 
22.95                          0.984701098528277 133.576586233847 0.00433363301664791 -140.983440111362 0.00433363301664789 -140.983440111361 0.985047218439224 129.012151419349 
23                             0.984798423462569 132.699531481514 0.00418357092089167 -141.851251294748 0.00418357092089166 -141.851251294748 0.985101059803347 128.18353419226  
