! Touchstone file exported from HFSS 3D Layout Design 2026.1.0
!        File:           D:/Work/SIM/ADS_AUTO_SIM/projects/RFSOC_RF/TX_Fillter.aedt
!        Generated:      11:19:10 PM Aug 30, 2026
!        Design:         TX_BAND1_MCFIL_R6_CNN025
!        Project:        TX_Fillter
!
# GHz S MA R 50.000000
! Terminal data exported
! Port[1] = Port1
! Port[2] = Port2
14                             0.962310933984737 171.471403801883 0.00594785237245446 172.264841082328 0.00594785237245445 172.264841082328 0.963144331841378 170.638964471488 
14.05                          0.961548897411736 170.414460872908 0.00609681965679911 171.798397517351 0.00609681965679915 171.798397517351 0.962407829110195 169.591886053314 
14.1                           0.96076211888364 169.347540153388 0.0062537305902406 171.34212576025  0.00625373059024061 171.34212576025  0.961647435920874 168.535255972452 
14.15                          0.959949424634383 168.270309656971 0.00641918735798346 170.895602392937 0.00641918735798353 170.895602392938 0.96086201196509 167.468752116737 
14.2                           0.959109567166345 167.182421511798 0.00659384585841516 170.458329200898 0.0065938458584152 170.458329200898 0.960050344834017 166.392036753737 
14.25                          0.958241219430896 166.08351099478  0.0067784209734235 170.029727791496 0.00677842097342352 170.029727791497 0.959211144296546 165.304755575061 
14.3                           0.957342968451433 164.973195493431 0.00697369239837429 169.609134194863 0.00697369239837433 169.609134194863 0.958343036026954 164.206536668634 
14.35                          0.95641330832567 163.851073388699 0.00718051109710995 169.195793501677 0.00718051109710998 169.195793501677 0.957444554719382 163.096989412421 
14.4                           0.955450632535663 162.716722851591 0.00739980645602518 168.788854597303 0.0073998064560252 168.788854597303 0.956514136518232 161.975703282407 
14.45                          0.954453225484482 161.569700545606 0.00763259422129906 168.387365055848 0.00763259422129907 168.387365055848 0.955550110684103 160.842246566857 
14.5                           0.953419253167444 160.409540226106 0.00787998531493464 167.990266260487 0.00787998531493463 167.990266260488 0.954550690403946 159.696164978024 
14.55                          0.952346752873119 159.235751226831 0.00814319563863712 167.596388817494 0.0081431956386371 167.596388817494 0.953513962641497 158.536980151511 
14.6                           0.951233621794618 158.047816822621 0.00842355699005312 167.204448330336 0.00842355699005306 167.204448330336 0.952437876909438 157.364188022399 
14.65                          0.950077604414657 156.845192456251 0.00872252923384338 166.813041596719 0.00872252923384333 166.813041596719 0.951320232827792 156.177257066036 
14.7                           0.94887627850809 155.627303815834 0.00904171389088823 166.420643285149 0.00904171389088819 166.420643285149 0.950158666313389 154.975626390007 
14.75                          0.947627039582553 154.393544747779 0.00938286933310173 166.025603138189 0.00938286933310167 166.025603138189 0.94895063422231 153.758703662259 
14.8                           0.946327083551022 153.143274988468 0.00974792779942498 165.626143736976 0.0097479277994249 165.626143736975 0.947693397240453 152.52586285861  
14.85                          0.944973387398579 151.875817695898 0.0101390144812339 165.220358845593 0.0101390144812338 165.220358845593 0.946384000786088 151.276441810892 
14.9                           0.943562687568865 150.590456760295 0.0105584689634021 164.806212334597 0.010558468963402 164.806212334596 0.945019253651541 150.009739534776 
14.95                          0.942091455752375 149.286433870172 0.011008869351508 164.381537660644 0.011008869351508 164.381537660644 0.943595704068027 148.725013313802 
15                             0.940555871707709 147.962945307506 0.011493059467225 163.944037853965 0.0114930594672249 163.944037853965 0.942109612826822 147.421475513306 
15.05                          0.938951792686699 146.619138442486 0.0120141795540269 163.49128593789  0.0120141795540269 163.491285937889 0.940556923029955 146.098290094759 
15.1                           0.937274718963021 145.254107894666 0.0125757010054445 163.020725675347 0.0125757010054445 163.020725675347 0.938933225972563 144.75456879739  
15.15                          0.935519754879398 143.866891323317 0.0131814657099332 162.529672506788 0.0131814657099331 162.529672506788 0.937233722574762 143.38936694995  
15.2                           0.933681564727939 142.456464805157 0.0138357307019929 162.015314513139 0.0138357307019928 162.015314513139 0.935453179680645 142.001678870849 
15.25                          0.931754322658413 141.021737752548 0.0145432189208741 161.474713206772 0.0145432189208741 161.474713206772 0.933585880422532 140.590432809832 
15.3                           0.929731655666164 139.561547319453 0.0153091770088012 160.904803923734 0.0153091770088012 160.904803923734 0.931625567705835 139.154485378563 
15.35                          0.927606578540123 138.074652236125 0.0161394412333747 160.302395562156 0.0161394412333747 160.302395562155 0.929565379698944 137.692615411169 
15.4                           0.925371419445972 136.559726006373 0.0170405127974442 159.66416938509  0.0170405127974443 159.66416938509  0.927397776007446 136.203517188696 
15.45                          0.923017734572647 135.015349393586 0.0180196440085924 158.986676581205 0.0180196440085925 158.986676581205 0.925114452965387 134.68579295376  
15.5                           0.920536209973133 133.440002113319 0.0190849370243548 158.266334253532 0.0190849370243549 158.266334253531 0.922706246179302 133.137944633308 
15.55                          0.917916548372171 131.83205364141  0.0202454571739397 157.499419484439 0.0202454571739398 157.499419484438 0.920163018102463 131.558364678604 
15.6                           0.915147338280812 130.189753037504 0.0215113631885235 156.682061103428 0.0215113631885237 156.682061103428 0.917473527984098 129.945325922411 
15.65                          0.912215902235021 128.511217674862 0.0228940570565588 155.810228762196 0.0228940570565589 155.810228762196 0.914625281015269 128.296970344412 
15.7                           0.909108120343664 126.794420759171 0.0244063566643005 154.87971889756  0.0244063566643006 154.87971889756  0.91160435286052 126.611296627654 
15.75                          0.905808224567767 125.037177512703 0.0260626948906428 153.886137135912 0.026062694890643 153.886137135912 0.908395184999642 124.886146382464 
15.8                           0.902298558231537 123.237129897248 0.0278793494033479 152.824876661562 0.027879349403348 152.824876661562 0.90498034538037 123.119188911231 
15.85                          0.89855929415629 121.391729752237 0.02987470805134 151.691092034512 0.0298747080513401 151.691092034512 0.901340247770017 121.307904390342 
15.9                           0.894568103477864 119.498220236975 0.0320695754591056 150.479667900099 0.0320695754591057 150.479667900098 0.89745282185829 119.44956535784  
15.95                          0.890299765621904 117.553615493625 0.034487527187785 149.185181983625 0.0344875271877852 149.185181983625 0.893293124569483 117.541216422712 
16                             0.885725708037352 115.554678498556 0.0371553185989795 147.801861708839 0.0371553185989796 147.801861708839 0.888832881156732 115.579652162171 
16.05                          0.880813462104001 113.497897156352 0.0401033562789947 146.323533723254 0.0401033562789947 146.323533723254 0.884039942449769 113.561393259038 
16.1                           0.875526019134614 111.379458831121 0.0433662404459946 144.743565562381 0.0433662404459947 144.74356556238  0.878877642108154 111.482661070347 
16.15                          0.869821067629879 109.195223730738 0.0469833869940561 143.054798650257 0.0469833869940562 143.054798650257 0.873304034935254 109.339351037117 
16.2                           0.863650090041069 106.94069790078  0.05099973744436 141.249471834042 0.05099973744436 141.249471834041 0.867270994355849 107.127005683065 
16.25                          0.856957294520452 104.611007104679 0.0554665636326917 139.31913471579  0.0554665636326917 139.31913471579  0.860723144316206 104.840788464701 
16.3                           0.849678355007754 102.200873650967 0.0604423707831742 137.254550221504 0.060442370783174 137.254550221504 0.853596598636763 102.475460511683 
16.35                          0.841738932434947 99.7045994038067 0.0659938966680508 135.04558620755  0.0659938966680507 135.04558620755  0.845817480146537 100.025363459309 
16.4                           0.833052952418015 97.1160599639919 0.0721971942919993 132.681096555158 0.072197194291999 132.681096555158 0.83730019432862 97.4844133069016 
16.45                          0.823520623191616 94.4287176034127 0.0791387687111766 130.148793304316 0.0791387687111764 130.148793304316 0.827945440339923 94.8461128015108 
16.5                           0.813026196038894 91.6356643647419 0.0869167119763073 127.435113160808 0.086916711976307 127.435113160808 0.817637960424741 92.1035936277148 
16.55                          0.80143550590912 88.729712353693  0.0956417393087717 124.525084503334 0.0956417393087714 124.525084503334 0.8062440637363  89.2497052243051 
16.6                           0.78859339284735 85.703556429252  0.105437968580606 121.402205272665 0.105437968580606 121.402205272665 0.793609022945055 86.2771751055689 
16.65                          0.77432121100408 82.5500462955338 0.116443196764935 118.048348429865 0.116443196764935 118.048348429865 0.779554547467454 83.1788771669223 
16.7                           0.758414803689253 79.262621800558  0.128808303646923 114.443720730019 0.128808303646923 114.443720730019 0.763876708065849 79.9482609355512 
16.75                          0.740643589696853 75.8359887411971 0.142695249347997 110.566913087001 0.142695249347997 110.566913087001 0.746344953551995 76.5800176909507 
16.8                           0.720751802253797 72.2671444746791 0.158272930791656 106.395097246803 0.158272930791656 106.395097246803 0.72670325585191 73.0710904978367 
16.85                          0.698463477113089 68.5569045672821 0.175709945138977 101.904443408357 0.175709945138977 101.904443408357 0.7046749747097  69.4221756370036 
16.9                           0.673493502133939 64.7121334336315 0.195163135735134 97.0708544005785 0.195163135735133 97.0708544005783 0.679973749732145 65.6399121216075 
16.95                          0.645567843886359 60.7489394402448 0.216760793260336 91.8711278304354 0.216760793260336 91.8711278304351 0.652323531973485 61.7400092206299 
17                             0.614456732196902 56.6971462107952 0.240579766791229 86.2846559894893 0.240579766791228 86.284655989489  0.62149153328666 57.7516059232525 
17.05                          0.580024638247173 52.6063692668613 0.266616808711732 80.2957342295365 0.266616808711731 80.2957342295362 0.5873379215545  53.7231616493462 
17.1                           0.54229954960552 48.5539532019589 0.294756534766603 73.8964459706791 0.294756534766602 73.8964459706788 0.54988473543905 49.7300846634507 
17.15                          0.501560363989967 44.6547404037969 0.324741475583557 67.0899045946796 0.324741475583555 67.0899045946793 0.509402747550842 45.8839945231941 
17.2                           0.458434490337111 41.0718892018609 0.356153196961194 59.8933647210392 0.356153196961192 59.893364721039  0.466508134610337 42.342739914779  
17.25                          0.413988206284722 38.0261518842405 0.3884156577223  52.3404337127207 0.388415657722298 52.3404337127205 0.422251052333584 39.3185209871369 
17.3                           0.369781269455505 35.7969190538469 0.420830260684592 44.4814641677989 0.42083026068459 44.4814641677988 0.378166997261984 37.0776285182592 
17.35                          0.32784508457364 34.7000352293055 0.452644442363901 36.3813752053212 0.4526444423639  36.3813752053212 0.336250183941348 35.9179350269356 
17.4                           0.290526990755402 35.0154065120448 0.483143248862752 28.1147351251367 0.483143248862752 28.1147351251367 0.298794344090999 36.1003625168412 
17.45                          0.260124664028247 36.837707466736  0.511741708077723 19.7588055740898 0.511741708077723 19.7588055740898 0.268034662796294 37.7125657973789 
17.5                           0.238269947503226 39.8841942165409 0.538052363963047 11.3860091287575 0.538052363963048 11.3860091287575 0.245564002467449 40.4970776283765 
17.55                          0.22523820900517 43.4318838200393 0.561910570096549 3.05751495880771 0.561910570096552 3.05751495880767 0.2316908874422  43.7932498090478 
17.6                           0.219680095493493 46.567420249368  0.583355866070865 -5.18079912872076 0.583355866070869 -5.18079912872088 0.225182204722615 46.7525053917422 
17.65                          0.219129209193022 48.6007759608739 0.602582070999344 -13.2995975481859 0.602582070999349 -13.2995975481861 0.223711797408158 48.7089612491731 
17.7                           0.2209216331038  49.2675769804195 0.619874921560704 -21.2849510903306 0.619874921560708 -21.2849510903309 0.224710748805345 49.3801199331084 
17.75                          0.222871066511405 48.6381840092745 0.635553688942126 -29.135669013562 0.63555368894213 -29.1356690135623 0.226025186012548 48.8035066870591 
17.8                           0.223482156804408 46.9363079904218 0.649926313290317 -36.8600028651353 0.64992631329032 -36.8600028651356 0.226151172049161 47.1754787102673 
17.85                          0.22187464332852 44.4139942793762 0.663260705202686 -44.4724150324665 0.663260705202688 -44.4724150324667 0.224183968203279 44.7311060898138 
17.9                           0.217620539019355 41.2988494819883 0.675770374797779 -51.9908165116956 0.675770374797779 -51.9908165116957 0.219670134086351 41.6892585465754 
17.95                          0.210594439072128 37.7839391289827 0.687610682686541 -59.4344325986738 0.687610682686541 -59.4344325986737 0.212464094674589 38.2394567670376 
18                             0.200863889664969 34.0362588751613 0.698881916112269 -66.8222951710502 0.698881916112268 -66.8222951710498 0.202620345715611 34.5482461221589 
18.05                          0.188617732399569 30.2126447162432 0.709636120743505 -74.172279210474 0.709636120743504 -74.1722792104734 0.190322020399518 30.7739876817527 
18.1                           0.174124094254314 26.4807296728635 0.719885516449649 -81.5005740935949 0.719885516449649 -81.5005740935941 0.175838885049294 27.0872823883685 
18.15                          0.157712007608891 23.0482762607179 0.729611086038823 -88.8214823465517 0.729611086038825 -88.8214823465506 0.159509427216053 23.6998345856178 
18.2                           0.139776700007424 20.2103773476193 0.738770467437432 -96.1474527632744 0.738770467437436 -96.1474527632733 0.141747472312235 20.9101939539367 
18.25                          0.120819684202268 18.4347157853166 0.747304629366419 -103.489271335861 0.747304629366425 -103.48927133586 0.123084502722839 19.1834011454432 
18.3                           0.101558918256532 18.5239928942041 0.755143029066858 -110.856348037498 0.755143029066866 -110.856348037497 0.104280875319657 19.2930261562575 
18.35                          0.0831999039286751 21.9010926687864 0.762207095318181 -118.257048953994 0.762207095318189 -118.257048953993 0.0865830991819033 22.5381071239296 
18.4                           0.0680355405785602 30.8201201165057 0.768411991614301 -125.699031834202 0.768411991614309 -125.699031834202 0.072234181534791 30.7871231627767 
18.45                          0.0601568091312753 46.7917572867614 0.773666716655137 -133.189549494559 0.773666716655142 -133.189549494558 0.064923432104925 44.9700351157836 
18.5                           0.0637313596824307 65.2284898558571 0.777872703878469 -140.735690256294 0.777872703878469 -140.735690256294 0.0681798036598745 61.1517446503141 
18.55                          0.0782358112503021 78.0404970208756 0.78092119427655 -148.344528079006 0.780921194276542 -148.344528079006 0.0816747315921568 72.7388186097497 
18.6                           0.0998210237452035 83.7238823733237 0.782689782119758 -156.023157514317 0.78268978211974 -156.023157514318 0.102167826631568 78.0340910814575 
18.65                          0.125596208337715 84.5470487838049 0.783038678027735 -163.778590378095 0.783038678027704 -163.778590378095 0.126972919664803 78.705629531697  
18.7                           0.154132602384227 82.4322825667611 0.781807404791118 -171.617492875246 0.781807404791073 -171.617492875247 0.154653486818782 76.4402756817366 
18.75                          0.184783159727165 78.4946486819882 0.778812838788072 -179.545745248766 0.778812838788011 -179.545745248766 0.184528362850143 72.3007875334454 
18.8                           0.217251710034527 73.3559603077359 0.773849715994837 172.432186824597 0.773849715994762 172.432186824598 0.216281816527115 66.9099434095819 
18.85                          0.251386876231533 67.376855449243  0.766694884989677 164.314065825588 0.76669488498959 164.31406582559  0.249758594973086 60.641700254771  
18.9                           0.287077250645581 60.7799154776085 0.75711661039256 156.100853534019 0.757116610392463 156.100853534022 0.284854366776829 53.7333418477381 
18.95                          0.324190146824955 53.7130862230743 0.744889959299855 147.797776006189 0.744889959299754 147.797776006194 0.321449952371743 46.3461749989704 
19                             0.362532261596366 46.2834233288382 0.729818570231285 139.4153718489   0.729818570231185 139.415371848905 0.359368218231344 38.5986884518299 
19.05                          0.401825723411021 38.575807033281  0.71176179749378 130.970363691894 0.711761797493687 130.970363691901 0.398346944316602 30.585197495552  
19.1                           0.441699064497453 30.6635759240863 0.690664420424945 122.486156176732 0.690664420424863 122.48615617674  0.438027129374702 22.3865235134113 
19.15                          0.481694320979824 22.6144298607895 0.666584201210831 113.992761885466 0.666584201210764 113.992761885475 0.477958013711307 14.075982799887  
19.2                           0.521290415339924 14.4932901608022 0.639711296995884 105.526009540712 0.639711296995834 105.526009540722 0.517619127041602 5.72237156220965 
19.25                          0.559940200455095 6.36307067167444 0.610373729318927 97.1260025217828 0.610373729318895 97.1260025217927 0.556456882180948 -2.60909445367867 
19.3                           0.597115267089974 -1.71596890814015 0.579025290624697 88.8349508409825 0.57902529062468 88.8349508409918 0.593929862732532 -10.8572189802895 
19.35                          0.632350327958335 -9.68769944006265 0.546216110878067 80.6946509649663 0.546216110878063 80.6946509649748 0.629554514326966 -18.9660683106199 
19.4                           0.665278895518042 -17.5018780212131 0.512550391929116 72.7439805371943 0.51255039192912 72.7439805372015 0.662942700697894 -26.8864854463871 
19.45                          0.695654324400531 -25.1157100558832 0.478638913721136 65.0167720248487 0.478638913721144 65.0167720248544 0.693824843051089 -34.5774192736912 
19.5                           0.723354208143543 -32.4948864238708 0.445054657534724 57.5403317315109 0.445054657534734 57.5403317315148 0.722056275771081 -42.0067506077742 
19.55                          0.748370074010831 -39.6139443595791 0.412298196292507 50.3347173000068 0.412298196292514 50.3347173000091 0.747608490283979 -49.1514719398643 
19.6                           0.770786977928013 -46.455970897622 0.380776316637742 43.412732751541  0.380776316637745 43.4127327515418 0.770549731758261 -55.9972432203627 
19.65                          0.790758427690724 -53.0117878399683 0.350794003097239 36.7804895324421 0.350794003097236 36.7804895324415 0.791020373516935 -62.5374623513029 
19.7                           0.808481346360381 -59.278811444042 0.322557469029041 30.4383329843457 0.322557469029033 30.4383329843439 0.809207873907384 -68.7720407799914 
19.75                          0.824174255045064 -65.2597770987677 0.296184758614151 24.3819390509379 0.296184758614138 24.3819390509352 0.825324632768817 -74.7060702657844 
19.8                           0.838060218317653 -70.9614809009026 0.271720405052812 18.6034253233996 0.271720405052794 18.6034253233962 0.839590430284527 -80.3485280302093 
19.85                          0.850354801922892 -76.3936388019711 0.249151278617715 13.0923720049061 0.249151278617694 13.0923720049023 0.852219812502923 -85.7111163475239 
19.9                           0.861258489859872 -81.5679159176798 0.228421658257176 7.83669649449542 0.228421658257153 7.83669649449153 0.863413950566394 -90.8072849950325 
19.95                          0.870952645371001 -86.4971416519096 0.209446412016374 2.82336232081439 0.209446412016349 2.8233623208105  0.873356105110571 -95.651448652439 
20                             0.879598043782697 -91.1947021983442 0.192121830545918 -1.96107254121697 0.192121830545893 -1.96107254122072 0.882209744875487 -100.258387905583 
20.05                          0.887335118124361 -95.6740889444041 0.176334094852272 -6.53004957649433 0.176334094852247 -6.53004957649779 0.890118464106994 -104.642810096106 
20.1                           0.894285238630139 -99.948576255463 0.161965606032048 -10.8967220303006 0.161965606032024 -10.8967220303037 0.897207013329564 -108.819041765185 
20.15                          0.900552532241274 -104.031002084984 0.148899513619   -15.0737613370081 0.148899513618978 -15.0737613370108 0.903582938246758 -112.800824872396 
20.2                           0.906225907595064 -107.933627511787 0.137022800833517 -19.0732356762112 0.137022800833496 -19.0732356762134 0.90933847950873 -116.601192001912 
20.25                          0.911381074773461 -111.668055071688 0.126228258600799 -22.9065420683222 0.12622825860078 -22.906542068324 0.914552510459647 -120.232399827349 
20.3                           0.916082438401736 -115.245189679733 0.11641563221036 -26.5843770436257 0.116415632210344 -26.5843770436271 0.919292380831401 -123.705904257235 
20.35                          0.920384803339647 -118.675229535161 0.107492170973683 -30.1167342559466 0.107492170973669 -30.1167342559476 0.923615596854012 -127.032364441894 
20.4                           0.924334871085375 -121.967677456916 0.0993727607950615 -33.512920254567 0.0993727607950496 -33.5129202545677 0.927571308946066 -130.221665994186 
20.45                          0.927972528375095 -125.131365571927 0.0919797760341947 -36.7815819299488 0.0919797760341851 -36.7815819299491 0.931201603119335 -133.282956330816 
20.5                           0.931331942323207 -128.174488215487 0.085242751470913 -39.9307409482009 0.0852427514709053 -39.9307409482011 0.934542606435517 -136.224687030554 
20.55                          0.93444248253198 -131.104639381717 0.079097947204173 -42.9678318592082 0.0790979472041672 -42.9678318592082 0.937625424011081 -139.054659616963 
20.6                           0.937329492520986 -133.928852168657 0.0734878579188661 -45.8997415849182 0.073487857918862 -45.8997415849182 0.940476927822906 -141.780072297957 
20.65                          0.940014932346758 -136.653638477174 0.0683607019462912 -48.7328487430206 0.0683607019462885 -48.7328487430206 0.943120417721732 -144.407566017443 
20.7                           0.942517912540926 -139.285027814   0.0636699137906118 -51.4730618016381 0.0636699137906106 -51.4730618016381 0.945576173790506 -146.943268766857 
20.75                          0.944855137198701 -141.828604472345 0.059373655308073 -54.1258554449517 0.059373655308073 -54.1258554449517 0.947861917234079 -149.39283752466 
20.8                           0.947041271618835 -144.289542662183 0.0554343547000018 -56.6963047988454 0.0554343547000028 -56.6963047988456 0.949993194804621 -151.761497484922 
20.85                          0.949089247564323 -146.672639369833 0.0518182782764093 -59.1891173509366 0.0518182782764112 -59.1891173509368 0.951983699611029 -154.054078436654 
20.9                           0.951010517096403 -148.982344868006 0.0484951370732184 -61.6086625242051 0.048495137073221 -61.6086625242055 0.953845539165547 -156.275048289406 
20.95                          0.952815264078865 -151.222790891679 0.0454377284919264 -63.9589989452335 0.0454377284919296 -63.9589989452342 0.955589459747351 -158.428543827036 
21                             0.954512580860585 -153.397816555726 0.0426216119000768 -66.2438994994883 0.0426216119000803 -66.2438994994891 0.957225034627259 -160.518398824664 
21.05                          0.956110616305373 -155.510992127153 0.0400248163814917 -68.4668742963428 0.0400248163814956 -68.4668742963439 0.958760822392033 -162.548169693628 
21.1                           0.957616700223337 -157.565640785323 0.0376275784092798 -70.6311916822762 0.0376275784092839 -70.6311916822774 0.960204500510645 -164.521158833342 
21.15                          0.959037448337235 -159.564858512854 0.0354121070258701 -72.739897446603 0.0354121070258744 -72.7398974466044 0.961562978373142 -166.440435872385 
21.2                           0.96037885116157 -161.511532261685 0.0333623740767608 -74.7958323635467 0.0333623740767651 -74.7958323635483 0.962842493279301 -168.308856977675 
21.25                          0.96164634955441 -163.408356535687 0.0314639271045626 -76.8016482098131 0.0314639271045668 -76.8016482098148 0.964048692234461 -170.129082402904 
21.3                           0.962844899198457 -165.257848525063 0.029703722629653 -78.7598223896674 0.029703722629657 -78.7598223896693 0.965186701901744 -171.903592437093 
21.35                          0.963979025858268 -167.062361919838 0.0280699776972915 -80.6726712910216 0.0280699776972953 -80.6726712910235 0.966261188643901 -173.634701902704 
21.4                           0.965052872927603 -168.824099520933 0.0265520377407103 -82.5423624869207 0.0265520377407139 -82.5423624869226 0.967276410248046 -175.324573340767 
21.45                          0.966070242510302 -170.545124758142 0.0251402589836786 -84.37092588761  0.0251402589836819 -84.3709258876119 0.968236260648646 -176.975229008667 
21.5                           0.967034631058221 -172.227372215326 0.0238259037767236 -86.1602639393739 0.0238259037767266 -86.1602639393757 0.96914430873702 -178.588561804844 
21.55                          0.9679492604108  -173.872657254331 0.0226010474238672 -87.9121609577696 0.0226010474238698 -87.9121609577713 0.970003832159767 179.833654776075 
21.6                           0.968817104935134 -175.482684820956 0.0214584952086973 -89.6282916748468 0.0214584952086995 -89.6282916748482 0.970817846856427 178.289757564187 
21.65                          0.969640915346535 -177.059057508514 0.0203917084685067 -91.3102290724996 0.0203917084685086 -91.310229072501 0.971589132961821 176.778185426928 
21.7                           0.970423239692412 -178.603282947463 0.0193947386926828 -92.9594515672528 0.0193947386926843 -92.9594515672538 0.972320257596013 175.297471697453 
21.75                          0.9711664419027  179.883219416969 0.0184621687366843 -94.5773496055444 0.0184621687366853 -94.5773496055453 0.9730135949804  173.846237250455 
21.8                           0.971872718244764 178.3991121032   0.0175890603463425 -96.1652317228877 0.0175890603463432 -96.1652317228882 0.973671344248773 172.423184163975 
21.85                          0.972544111966924 176.943133877177 0.0167709072796309 -97.7243301151606 0.0167709072796311 -97.7243301151606 0.974295545264572 171.027089912001 
21.9                           0.973182526370383 175.514094496061 0.016003593395314 -99.2558057656234 0.0160035933953139 -99.255805765623 0.974888092707808 169.656802038181 
21.95                          0.973789736512603 174.110869870452 0.0152833551509243 -100.760753167091 0.0152833551509238 -100.76075316709 0.97545074865536 168.311233266015 
22                             0.97436739971473 172.73239760792  0.0146067480172114 -102.240204674908 0.0146067480172104 -102.240204674907 0.975985153845273 166.989357005386 
22.05                          0.974917065020269 171.377672904132 0.0139706163734179 -103.695134522999 0.0139706163734166 -103.695134522997 0.976492837787977 165.690203219266 
22.1                           0.975440181731012 170.045744751175 0.0133720664982675 -105.126462532204 0.0133720664982659 -105.126462532203 0.976975227864135 164.412854618087 
22.15                          0.975938107128496 168.73571243551  0.012808442316137 -106.53505753739 0.0128084423161351 -106.535057537388 0.977433657529285 163.156443152434 
22.2                           0.976412113474304 167.446722300663 0.0122773035972062 -107.921740557341 0.012277303597204 -107.921740557338 0.977869373728992 161.92014677764  
22.25                          0.976863394369961 166.177964752067 0.0117764063450406 -109.287287729248 0.0117764063450382 -109.287287729245 0.978283543614262 160.703186466408 
22.3                           0.9772930705465  164.928671483617 0.0113036851356156 -110.632433027591 0.0113036851356131 -110.632433027588 0.97867726063517 159.504823447934 
22.35                          0.977702195144754 163.698112907376 0.0108572371987158 -111.957870785452 0.0108572371987131 -111.957870785449 0.979051550080551 158.324356654018 
22.4                           0.978091758539685 162.485595769605 0.0104353080563813 -113.264258034636 0.0104353080563784 -113.264258034633 0.97940737412304 157.16112035458  
22.45                          0.978462692755511 161.29046093781  0.010036278554001 -114.552216679573 0.0100362785539981 -114.552216679569 0.979745636421364 156.014481966579 
22.5                           0.978815875512721 160.112081344914 0.00965865313811299 -115.822335518616 0.00965865313811004 -115.822335518613 0.980067186325465 154.883840021898 
22.55                          0.979152133943214 158.949860077887 0.00930104925125966 -117.075172125195 0.00930104925125677 -117.075172125192 0.980372822724612 153.768622281061 
22.6                           0.979472248005596 157.80322859932  0.0089621877286294 -118.311254600189 0.00896218772862657 -118.311254600186 0.980663297573907 152.668283980849 
22.65                          0.979776953629046 156.671645091437 0.0086408840939151 -119.531083205927 0.00864088409391242 -119.531083205924 0.980939319130575 151.582306205007 
22.7                           0.980066945610999 155.554592912968 0.00833604066305299 -120.735131891344 0.00833604066305051 -120.735131891341 0.981201554927821 150.510194368156 
22.75                          0.980342880291142 154.451579160136 0.00804663937443261 -121.923849717007 0.00804663937443038 -121.923849717004 0.981450634511021 149.451476803962 
22.8                           0.980605378021832 153.362133323757 0.00777173527296122 -123.097662188023 0.00777173527295933 -123.097662188021 0.981687151958253 148.405703449358 
22.85                          0.980855025452917 152.285806035164 0.00751045058314976 -124.256972502156 0.00751045058314826 -124.256972502154 0.981911668204868 147.372444617365 
22.9                           0.981092377647116 151.222167894249 0.00726196931329014 -125.402162719902 0.00726196931328907 -125.402162719901 0.982124713189708 146.351289851703 
22.95                          0.981317960040459 150.170808373499 0.00702553233891361 -126.533594862701 0.00702553233891305 -126.5335948627  0.982326787838749 145.34184685695  
23                             0.981532270260881 149.13133479242  0.00680043291915635 -127.65161194498 0.00680043291915635 -127.65161194498 0.982518365900363 144.343740498553 
