! Touchstone file exported from HFSS 3D Layout Design 2026.1.0
!        File:           D:/Work/ADS/HFSS_VERDICT/hfss_sma_connector_cpw.aedt
!        Generated:      03:23:28 PM Aug  5, 2026
!        Design:         SINGLE_END_SMA_CPW_30MM
!        Project:        hfss_sma_connector_cpw
!
! Variables:
!        $sma_Base_D = 6.25mm
!        $sma_Base_L = 8mm
!        $sma_Feet_L = 4mm
!        $sma_Feet_W = 1mm
!        $sma_Front_L = 1.5mm
!        $sma_Front_W = 6.5mm
!        $sma_Hole_D = 1.25mm
!        $sma_PTFE_D = 4.2mm
!        $sma_Pin_D = 0.95mm
!        $sma_Pin_P = 1.7mm
!
# GHz S MA R 50.000000
! Terminal data exported
! Port[1] = Port1
! Port[2] = S1_1_Pin_T1
0.5                            0.0771019747389933 -138.014976713328 0.986856275785207 -42.1844599249816 0.986856275785209 -42.1844599249816 0.0776290398085584 -128.083321581882 
0.6                            0.0897671893772158 -147.67287073184 0.984205561112108 -50.5138703763119 0.98420556111211 -50.5138703763119 0.0902535369808699 -135.501542087632 
0.7                            0.101167108255185 -157.321330522447 0.981608319012105 -58.8208965546098 0.981608319012106 -58.8208965546097 0.101534991130987 -142.747575017882 
0.8                            0.11120363470268 -166.996316654689 0.97909396102194 -67.1082462711832 0.979093961021942 -67.1082462711832 0.111388791152004 -149.818718947567 
0.9                            0.119800317450846 -176.730317557299 0.976695710329753 -75.3783149211329 0.976695710329755 -75.3783149211329 0.119759215562204 -156.707494850429 
1                              0.126904583897431 173.444671793159 0.97444645108762 -83.6337106104745 0.974446451087622 -83.6337106104746 0.12661714503624 -163.40111554878 
1.1                            0.132490052549046 163.494914808272 0.972373673878496 -91.8774074043112 0.972373673878498 -91.8774074043113 0.131960282026291 -169.880605351662 
1.2                            0.13655869179055 153.383114517255 0.970495611441747 -100.112696688848 0.970495611441748 -100.112696688848 0.135815249019045 -176.119978607801 
1.3                            0.139143042117781 143.066837856758 0.968818942623555 -108.343041832213 0.968818942623556 -108.343041832213 0.13824089711926 177.914422241288 
1.4                            0.140308853252891 132.497097441395 0.967337914804513 -116.5718963225  0.967337914804513 -116.5718963225  0.139332315064547 172.264347199292 
1.5                            0.140158471008247 121.617123087779 0.966034612550092 -124.802519442123 0.966034612550092 -124.802519442124 0.139225203940432 166.979610556521 
1.6                            0.1388352071801  110.361545113507 0.964880103571581 -133.037808819105 0.964880103571581 -133.037808819106 0.138100345910688 162.11717006848  
1.7                            0.136528721935007 98.6565235892422 0.963836228632459 -141.280160735656 0.963836228632459 -141.280160735656 0.136187734505027 157.738526351961 
1.8                            0.133481046743456 86.4218473843572 0.962857839245646 -149.531364029673 0.962857839245646 -149.531364029672 0.133769430038348 153.904253466816 
1.9                            0.129992099357046 73.5766936265158 0.961895316625738 -157.792530273021 0.961895316625738 -157.792530273021 0.131179259225675 150.664215991415 
2                              0.126422171281298 60.0513565834507 0.960897225852906 -166.064060805655 0.960897225852907 -166.064060805654 0.128796170531197 148.04243832887  
2.1                            0.12318685870175 45.8070528661924 0.95981297228074 -174.345649655159 0.959812972280741 -174.345649655159 0.127026975948708 146.017532110209 
2.2                            0.120737973215404 30.8633203811924 0.958595336081828 177.363679907107 0.95859533608183 177.363679907107 0.126274819655751 144.503662596702 
2.3                            0.119524402122277 15.3260100636392 0.957202769171376 169.065508573511 0.957202769171377 169.065508573511 0.126893972627761 143.341889522866 
2.4                            0.119933246558264 -0.599778795568804 0.955601349987367 160.761928436878 0.955601349987368 160.761928436878 0.129139700301939 142.312566511604 
2.5                            0.122224660423584 -16.6293920631721 0.953766308188033 152.455430067844 0.953766308188035 152.455430067844 0.133129500028635 141.171161897721 
2.6                            0.126485548263266 -32.4535159791   0.951683054277021 144.148775392374 0.951683054277024 144.148775392374 0.138831202279417 139.695225725202 
2.7                            0.132623754796242 -47.8054400070612 0.949347677878819 135.844862987098 0.94934767787882 135.844862987098 0.146081835505586 137.722035747821 
2.8                            0.140403509083312 -62.5075504011442 0.946766910758678 127.546592501327 0.946766910758679 127.546592501327 0.154627075715678 135.163324066639 
2.9                            0.149502247833583 -76.4808736359868 0.943957583554315 119.256734600093 0.943957583554315 119.256734600093 0.164165246940064 131.998145712612 
3                              0.159565198621972 -89.7261431321281 0.94094563500881 110.977812115385 0.940945635008809 110.977812115385 0.174383868892479 128.254224732722 
3.1                            0.170244476218458 -102.294824628141 0.937764756042787 102.711997058052 0.937764756042786 102.711997058052 0.184984351289863 123.988001588197 
3.2                            0.181221103818015 -114.26353797893 0.93445476600071 94.4610268879179 0.93445476600071 94.461026887918  0.195695901487137 119.268882358437 
3.3                            0.192214274358023 -125.716688240881 0.931059823890002 86.226142094756  0.93105982389    86.2261420947561 0.206281742469088 114.168926220083 
3.4                            0.202982993148423 -136.736726466565 0.927626573824587 78.0080458398448 0.927626573824585 78.0080458398449 0.216540607487272 108.757064011185 
3.5                            0.213323932665186 -147.399713522457 0.924202312778759 69.806885259964  0.924202312778757 69.8068852599642 0.226305626210541 103.096412309332 
3.6                            0.223067804870051 -157.774000912347 0.920833252508771 61.6222531236212 0.92083325250877 61.6222531236214 0.235441908082937 97.2434525655546 
3.7                            0.232075465785179 -167.920513287456 0.917562928753993 53.4532078943417 0.917562928753993 53.4532078943418 0.243843580761509 91.248225488539  
3.8                            0.240234332583308 -177.893732186144 0.914430792088011 45.2983099010706 0.914430792088011 45.2983099010707 0.251430730727505 85.1550194017051 
3.9                            0.247455368623265 172.257099814611 0.911470998097363 37.155671212202  0.911470998097363 37.155671212202  0.258146535283023 79.0032568132469 
4                              0.253670741781315 162.486786596659 0.908711401342032 29.0230169060351 0.908711401342032 29.0230169060351 0.263954796935519 72.8284201945838 
4.1                            0.258832199098512 152.75309561091  0.906172748565287 20.8977556627234 0.906172748565287 20.8977556627234 0.268838044974299 66.662933306087  
4.2                            0.262910177879606 143.015816978044 0.903868062052888 12.7770579036079 0.903868062052888 12.7770579036079 0.272796328271125 60.5369512874482 
4.3                            0.265893664914664 133.235970166468 0.901802203607748 4.65794000895902 0.901802203607748 4.65794000895901 0.275846774619919 54.4790266111759 
4.4                            0.267790808236919 123.375159010874 0.899971612679695 -3.46264660216168 0.899971612679695 -3.46264660216176 0.278023928827604 48.5166183339597 
4.5                            0.268630271389523 113.395084509112 0.898364217907879 -11.5877225926363 0.898364217907877 -11.5877225926365 0.27938080096167 42.6764045781724 
4.6                            0.268463290971612 103.257243492923 0.896959528666081 -19.7201850721498 0.89695952866608 -19.7201850721499 0.279990455879926 36.9843468357282 
4.7                            0.267366345195658 92.9228689806991 0.89572892098873 -27.8627103875904 0.895728920988728 -27.8627103875906 0.279947855481024 31.4654435355557 
4.8                            0.2654442525572  82.3532044244841 0.894636139223067 -36.0176568240931 0.894636139223065 -36.0176568240932 0.279371529871955 26.1431049267794 
4.9                            0.262833381264685 71.5102468473581 0.893638039530924 -44.1869691638453 0.893638039530922 -44.1869691638454 0.278404514015431 21.0380900375424 
5                              0.259704448070555 60.3581348975931 0.892685602532711 -52.3720876438063 0.89268560253271 -52.3720876438064 0.27721386573027 16.1669806948146 
5.1                            0.256264114889653 48.865377480934  0.891725238579948 -60.5738645316938 0.891725238579948 -60.5738645316939 0.275988019640114 11.5402399432147 
5.2                            0.252754275395482 37.0080795018314 0.890700399216553 -68.7924922312517 0.890700399216553 -68.7924922312517 0.274931289006019 7.16002046897091 
5.3                            0.249447640442333 24.7741671777318 0.889553491658627 -77.0274474407926 0.889553491658628 -77.0274474407927 0.274255072737576 3.01804453640898 
5.4                            0.246638148977475 12.1682883750788 0.888228069635625 -85.277456315425 0.888228069635625 -85.2774563154251 0.274165810598227 -0.905967537883103 
5.5                            0.244625112565525 -0.78344453449843 0.886671244716771 -93.5404857101828 0.886671244716773 -93.5404857101829 0.274850442368017 -4.64476156239137 
5.6                            0.24369111776888 -14.0302623598867 0.884836229415566 -101.813765304692 0.884836229415567 -101.813765304692 0.276460934678022 -8.24242888035689 
5.7                            0.244075612280235 -27.4967781360063 0.882684890041625 -110.093844649727 0.882684890041625 -110.093844649727 0.279100080216397 -11.7515206881701 
5.8                            0.245948318584134 -41.0875283628066 0.880190157212125 -118.376687882627 0.880190157212125 -118.376687882628 0.282810935815185 -15.2286807355191 
5.9                            0.249388090579544 -54.6959954580554 0.877338118995607 -126.657807005423 0.877338118995608 -126.657807005423 0.287571756788239 -18.729541223542 
6                              0.254372401260557 -68.2163509256283 0.874129609311592 -134.932432174669 0.874129609311593 -134.932432174669 0.29329719407132 -22.3038707448036 
6.1                            0.260780023360749 -81.5549490916051 0.870581105595475 -143.1957143386  0.870581105595476 -143.1957143386  0.299845225222039 -25.9918651085836 
6.2                            0.268405720162091 -94.6387281557769 0.866724768714629 -151.442951642158 0.866724768714629 -151.442951642158 0.30702826342254 -29.8220859641224 
6.3                            0.276982729593098 -107.419048728794 0.862607501238453 -159.669826211477 0.862607501238454 -159.669826211477 0.314626440756164 -33.8110714426623 
6.4                            0.286207758348574 -119.871218393242 0.858288978180903 -167.872632487183 0.858288978180903 -167.872632487183 0.322401207264747 -37.9642689247607 
6.5                            0.295764055731585 -131.991095746278 0.853838729648152 -176.048473368785 0.853838729648153 -176.048473368785 0.330107906987501 -42.2777729948298 
6.6                            0.305339949773779 -143.790427719999 0.849332529972116 175.804601332883 0.849332529972119 175.804601332884 0.337506604631982 -46.7403742923294 
6.7                            0.314641998857448 -155.292208006648 0.844848544419457 167.68753448038  0.844848544419463 167.68753448038  0.344370936618957 -51.3355556820295 
6.8                            0.323403115953105 -166.526777153555 0.840463825179407 159.600284584651 0.840463825179411 159.600284584651 0.350495065741551 -56.0432276851684 
6.9                            0.331386607811357 -177.528906847039 0.836251722246874 151.541914398739 0.836251722246873 151.541914398739 0.355698943649953 -60.8411235943382 
7                              0.338387218425804 171.664180908219 0.832280508347297 143.510705085064 0.832280508347297 143.510705085064 0.359832089961108 -65.7058580754954 
7.1                            0.344230183560463 161.014037540016 0.828613067056625 135.504247835885 0.828613067056625 135.504247835885 0.362776046920601 -70.6136948734791 
7.2                            0.348769139670745 150.481658180761 0.825307066239624 127.519479266836 0.825307066239622 127.519479266836 0.364445614854756 -75.5410816442164 
7.3                            0.351883565067214 140.027778231625 0.822414868812277 119.552658592919 0.822414868812275 119.552658592919 0.364788945516801 -80.4650055612333 
7.4                            0.353476289960117 129.612935852463 0.819982598775222 111.599316977412 0.819982598775223 111.599316977412 0.363786578302996 -85.363211893427 
7.5                            0.353471479177256 119.197400095111 0.818048144171808 103.65422808974  0.818048144171806 103.65422808974  0.36144954618415 -90.2143156281744 
7.6                            0.351813292470499 108.741034843897 0.816638222110186 95.7114552043824 0.816638222110183 95.7114552043824 0.357816749932749 -94.99782784128  
7.7                            0.348464974437978 98.2031833502685 0.815764958129387 87.7645476803343 0.815764958129387 87.7645476803342 0.352951916610903 -99.6941205732443 
7.8                            0.34340730398174 87.5429142205451 0.815423766758286 79.8070262244908 0.815423766758287 79.8070262244908 0.346940728409059 -104.284396998565 
7.9                            0.336638428805451 76.7212271966899 0.815601239658307 71.8332539540069 0.815601239658311 71.8332539540067 0.339889529825918 -108.751049741669 
8                              0.328212526507982 65.7065023022328 0.816312124173306 63.8379068079135 0.816312124173305 63.8379068079131 0.331923516447611 -113.081877627272 
8.1                            0.318322841300058 54.460914446669  0.817588955311046 55.8093418367865 0.817588955311042 55.8093418367865 0.322975135746575 -117.270174136363 
8.2                            0.307136982510792 42.9230465930613 0.819309982406075 47.7322802748123 0.819309982406075 47.7322802748125 0.313364738695066 -121.227356115384 
8.3                            0.29477497616703 31.0443528370681 0.821287312569482 39.6013998572262 0.821287312569484 39.601399857226  0.303309203589487 -124.998906516597 
8.4                            0.281453846930956 18.7863238832751 0.823401124297981 31.4142014957618 0.823401124297981 31.4142014957619 0.292819074281681 -128.553920569047 
8.5                            0.267457536803587 6.11102861802853 0.825540489648573 23.1661291863945 0.825540489648572 23.1661291863945 0.282019666345263 -131.863716628683 
8.6                            0.253094773232801 -7.0147788839407 0.827570468231848 14.8512899927272 0.827570468231847 14.8512899927272 0.271025608669728 -134.897026707217 
8.7                            0.238660365582306 -20.6111410524697 0.829321804526943 6.4622654916374  0.829321804526944 6.46226549163757 0.259930716812589 -137.61172531404 
8.8                            0.224377765215658 -34.6707872838504 0.830563993349632 -2.01146759844617 0.830563993349633 -2.01146759844608 0.248805825672221 -139.940716522716 
8.9                            0.210308683402378 -49.1320089879129 0.830925452091397 -10.5861322836948 0.830925452091397 -10.5861322836947 0.237727807801258 -141.759660216896 
9                              0.196225978690143 -63.813122571665 0.829674736125701 -19.285158120093 0.829674736125702 -19.2851581200929 0.226953810492433 -142.8143543107  
9.1                            0.181568035775611 -78.213492840729 0.825149952975146 -28.1244343105701 0.825149952975142 -28.1244343105702 0.217703764063737 -142.598900146951 
9.2                            0.166561466636679 -90.935236234689 0.813765006933986 -36.9938071433591 0.813765006933988 -36.9938071433589 0.214966305081572 -140.563632343783 
9.3                            0.15882258030666 -99.9216826920212 0.793486614850122 -45.2118878923996 0.793486614850127 -45.2118878923995 0.229682386811348 -138.873053959457 
9.4                            0.169513631757985 -110.19383032378 0.783017355618971 -52.160608193513 0.783017355618973 -52.1606081935131 0.251464873811333 -143.277666659962 
9.5                            0.17844304435093 -125.986457341924 0.791643684066216 -59.7095520543248 0.791643684066218 -59.7095520543247 0.251527428084866 -149.928629937528 
9.6                            0.17509592245665 -141.946132144453 0.798350059030734 -68.3987781763796 0.798350059030735 -68.3987781763795 0.239660155456558 -153.808598496899 
9.7                            0.162741687130778 -155.348749403052 0.794696634313829 -77.6447527717596 0.794696634313835 -77.6447527717593 0.229095777750095 -154.373103252285 
9.8                            0.144685325904255 -162.830130583773 0.775059904897331 -87.0118814492269 0.775059904897339 -87.0118814492268 0.23155363895708 -151.80432776805 
9.9                            0.1428968574113  -159.088860287451 0.733656956938369 -95.1486248144411 0.733656956938359 -95.1486248144401 0.265705171953788 -150.458693048486 
10                             0.190831067884346 -161.55081357092 0.701880688686863 -99.6469741555738 0.701880688686863 -99.6469741555738 0.317786372388808 -159.002884208707 
