! Touchstone file exported from HFSS 3D Layout Design 2026.1.0
!        File:           D:/Work/SIM/ADS_AUTO_SIM/projects/RFSOC_RF/TX_Fillter.aedt
!        Generated:      12:57:33 AM Aug 31, 2026
!        Design:         TX_BAND1_MCFIL_R17_CNN026
!        Project:        TX_Fillter
!
# GHz S MA R 50.000000
! Terminal data exported
! Port[1] = Port1
! Port[2] = Port2
14                             0.971299501232752 -169.402303427691 0.00377265822654392 -179.254415312606 0.00377265822654392 -179.254415312606 0.974919079300596 -161.224137597383 
14.05                          0.970767297109292 -170.288724731716 0.0038464451179748 -179.663200451744 0.0038464451179748 -179.663200451745 0.974474370020899 -162.068614403244 
14.1                           0.970218399920971 -171.181529988658 0.00392369631443504 179.946939408336 0.00392369631443502 179.946939408335 0.974016012515634 -162.91844918323 
14.15                          0.969652005672864 -172.080926775852 0.00400467723126517 179.57637008172  0.00400467723126514 179.57637008172  0.973543342262198 -163.773804286285 
14.2                           0.969067258537144 -172.987133162511 0.00408967865676202 179.225421395321 0.00408967865676201 179.225421395322 0.973055651016789 -164.634850556416 
14.25                          0.968463246662133 -173.90037837454 0.00417901948415496 178.894380320354 0.00417901948415494 178.894380320354 0.972552183204305 -165.501767887527 
14.3                           0.967838997571714 -174.820903511006 0.00427304976010342 178.583483390654 0.00427304976010338 178.583483390654 0.972032131948133 -166.374745822352 
14.35                          0.967193473107931 -175.748962317094 0.00437215408831786 178.292908384013 0.00437215408831782 178.292908384013 0.971494634697514 -167.253984199659 
14.4                           0.966525563863317 -176.684822018891 0.00447675543191675 178.02276525274  0.00447675543191672 178.022765252741 0.970938768404489 -168.139693854405 
14.45                          0.965834083042255 -177.628764225921 0.00458731936387695 177.773086302415 0.0045873193638769 177.773086302415 0.970363544195788 -169.03209737602 
14.5                           0.965117759682367 -178.581085908031 0.00470435882154374 177.543815633505 0.00470435882154372 177.543815633505 0.969767901477387 -169.931429930618 
14.55                          0.964375231157236 -179.542100453968 0.00482843942879842 177.334797879293 0.00482843942879839 177.334797879294 0.96915070140062 -170.83794015357 
14.6                           0.963605034870648 179.48786118016  0.00496018545832739 177.14576629539  0.00496018545832734 177.14576629539  0.968510719608408 -171.751891119651 
14.65                          0.962805599039512 178.508449223419 0.00510028651673574 176.976330280889 0.00510028651673574 176.97633028089  0.967846638168218 -172.673561398836 
14.7                           0.961975232447552 177.519293733339 0.00524950504728107 176.825962438472 0.00524950504728104 176.825962438472 0.967157036584381 -173.603246206766 
14.75                          0.961112113034212 176.520003118539 0.00540868475912243 176.693985309881 0.00540868475912241 176.693985309881 0.966440381766034 -174.54125866004 
14.8                           0.960214275162592 175.510162527851 0.00557876010860691 176.579557953167 0.00557876010860691 176.579557953168 0.965695016807803 -175.487931147712 
14.85                          0.959279595386074 174.489332091541 0.00576076697776453 176.481662557616 0.00576076697776453 176.481662557616 0.964919148417759 -176.44361683185 
14.9                           0.958305776504823 173.457044998432 0.0059558547184787 176.399091319602 0.00595585471847869 176.399091319603 0.964110832800654 -177.408691291581 
14.95                          0.957290329669858 172.412805390698 0.00616529975849401 176.330433825782 0.006165299758494 176.330433825782 0.963267959772996 -178.383554326978 
15                             0.956230554252751 171.356086055753 0.0063905209984309 176.274065206617 0.00639052099843091 176.274065206618 0.962388234849287 -179.368631941212 
15.05                          0.955123515152016 170.286325892037 0.00663309726839598 176.22813533078  0.00663309726839599 176.22813533078  0.961469158994529 179.635621478122 
15.1                           0.953966017151453 169.202927122424 0.00689478715993429 176.190559306784 0.0068947871599343 176.190559306785 0.960508005685292 178.628720754841 
15.15                          0.952754575879077 168.10525222556  0.0071775516055666 176.15900953989  0.00717755160556662 176.15900953989  0.959501794858621 177.610147270298 
15.2                           0.951485384835708 166.992620551454 0.00748357964592051 176.130909557627 0.00748357964592054 176.130909557628 0.958447263252345 176.579346029248 
15.25                          0.950154277866777 165.864304583121 0.00781531790583219 176.103429764729 0.00781531790583222 176.103429764729 0.957340830549396 175.53572241074  
15.3                           0.948756686336028 164.71952580094  0.00817550439859486 176.073485217034 0.00817550439859485 176.073485217034 0.956178560628914 174.478638564454 
15.35                          0.947287590121193 163.55745010046  0.00856720739519195 176.037735414303 0.00856720739519197 176.037735414304 0.95495611709393 173.407409407467 
15.4                           0.945741461383813 162.377182707708 0.00899387023706673 175.992586005275 0.00899387023706677 175.992586005275 0.953668712083979 172.32129817004  
15.45                          0.944112199861575 161.177762528439 0.00945936314186167 175.934192177255 0.0094593631418617 175.934192177256 0.952311047184157 171.219511431922 
15.5                           0.94239305818309 159.95815585911  0.00996804325789349 175.858463370773 0.00996804325789352 175.858463370773 0.950877245001555 170.101193582424 
15.55                          0.940576555401455 158.717249377742 0.0105248244726384 175.761068821699 0.0105248244726384 175.761068821699 0.949360769684827 168.96542062835  
15.6                           0.938654376570545 157.453842321979 0.0111352587827045 175.637443293765 0.0111352587827045 175.637443293765 0.947754334299351 167.811193263448 
15.65                          0.936617255729983 156.166637749778 0.0118056313994119 175.48279222828  0.0118056313994119 175.48279222828  0.946049792521802 166.637429101597 
15.7                           0.934454839099559 154.854232765307 0.0125430722096546 175.292095409241 0.0125430722096547 175.292095409241 0.944238011562125 165.442953963328 
15.75                          0.93215552458442 153.515107579024 0.0133556867539914 175.060108123839 0.0133556867539915 175.06010812384  0.942308722530178 164.226492091866 
15.8                           0.929706272824502 152.147613257214 0.0142527105447161 174.781358691529 0.0142527105447161 174.781358691529 0.940250343603241 162.986655161013 
15.85                          0.927092383942054 150.749958003369 0.0152446913525526 174.450141138282 0.0152446913525527 174.450141138282 0.938049770274467 161.721929923768 
15.9                           0.924297232795368 149.32019180341  0.0163437050736106 174.060501702583 0.0163437050736107 174.060501702583 0.935692125613988 160.430664338987 
15.95                          0.921301953866899 147.85618926155  0.0175636119863591 173.606217769983 0.0175636119863592 173.606217769983 0.9331604617817  159.111052005984 
16                             0.918085064814962 146.355630457933 0.0189203616658228 173.080767735031 0.0189203616658228 173.080767735031 0.930435401903017 157.761114737651 
16.05                          0.914622015096451 144.815979679967 0.0204323565885832 172.477290172653 0.0204323565885833 172.477290172653 0.927494708742863 156.378683117566 
16.1                           0.910884642798426 143.234461927316 0.0221208865900066 171.788530553963 0.0221208865900066 171.788530553963 0.924312763250204 154.961374925365 
16.15                          0.906840518753857 141.608037182816 0.0240106488740855 171.006773552193 0.0240106488740855 171.006773552193 0.920859931829059 153.506571392846 
16.2                           0.902452152001637 139.933372604756 0.026130371261661 170.123758742744 0.026130371261661 170.123758742744 0.917101795931131 152.011391394864 
16.25                          0.897676024526707 138.206813071498 0.0285135597935515 169.130577200658 0.0285135597935515 169.130577200658 0.912998211055628 150.472663921979 
16.3                           0.89246141586801 136.424350962183 0.0311993956045418 168.017546140579 0.0311993956045419 168.01754614058  0.908502154296863 148.886899585281 
16.35                          0.886748969617065 134.581596789013 0.0342338099299388 166.774058343956 0.0342338099299388 166.774058343956 0.903558310098605 147.250262560952 
16.4                           0.880468944331634 132.673753466305 0.0376707697100954 165.388402716502 0.0376707697100955 165.388402716502 0.898101332976321 145.558545438775 
16.45                          0.87353908180924 130.695598859137 0.0415738085598803 163.847551999893 0.0415738085598804 163.847551999893 0.892053714261903 143.8071511244   
16.5                           0.865862017960688 128.641484191599 0.0460178370937178 162.136913583393 0.046017837093718 162.136913583393 0.885323169001614 141.991088619393 
16.55                          0.857322159722937 126.505360525634 0.0510912595843406 160.240039806354 0.0510912595843407 160.240039806354 0.877799452485171 140.104993729695 
16.6                           0.847781963369094 124.280852804636 0.0568984052329878 158.138295600834 0.0568984052329879 158.138295600834 0.869350520528673 138.143192410958 
16.65                          0.837077589785537 121.961412375463 0.0635622427788406 155.810484620752 0.0635622427788407 155.810484620752 0.859817977026487 136.099834905902 
16.7                           0.825014007139535 119.54059672147  0.0712272718183662 153.23244149887  0.0712272718183663 153.23244149887  0.849011831231077 133.969145127153 
16.75                          0.811359807073528 117.01255271663  0.0800623494986035 150.37660973589  0.0800623494986036 150.37660973589  0.836704759954866 131.745854933031 
16.8                           0.795842375406942 114.37282179246  0.0902629820575519 147.211645285953 0.090262982057552 147.211645285953 0.82262641246986 129.425931293682 
16.85                          0.778144738582572 111.619648079075 0.102052238998757 143.70211995412  0.102052238998757 143.70211995412  0.806458932870572 127.007761221834 
16.9                           0.75790658141521 108.756059988765 0.115678878483602 139.808452443077 0.115678878483602 139.808452443077 0.787835995420351 124.494039957118 
16.95                          0.734733844261746 105.793113350004 0.131410469350907 135.487274492104 0.131410469350907 135.487274492104 0.766349504466604 121.894712854932 
17                             0.708224176851523 102.754813599101 0.149518309861493 130.692546804969 0.149518309861493 130.692546804969 0.741570942516057 119.231434659607 
17.05                          0.67801926962    99.6853084857735 0.170250065865751 125.377860850372 0.17025006586575 125.377860850372 0.713098127561453 116.544069880054 
17.1                           0.643898642815065 96.6587710234236 0.193786061636586 119.500448595151 0.193786061636586 119.500448595151 0.680641908768888 113.899597671258 
17.15                          0.605929510307128 93.7915227048549 0.220177586447719 113.027358182849 0.220177586447719 113.027358182849 0.64416794287685 111.403023076347 
17.2                           0.564676461833266 91.2534611783757 0.249272559960985 105.943844568844 0.249272559960985 105.943844568844 0.604099131409202 109.207801914171 
17.25                          0.521440871441044 89.2703154557372 0.280646661891014 98.2630580450722 0.280646661891014 98.2630580450723 0.56155326404935 107.518801347267 
17.3                           0.478431750431642 88.0988356716844 0.313573254427584 90.0345980348467 0.313573254427584 90.0345980348468 0.518527939612885 106.573505238494 
17.35                          0.438677054048252 87.9488725628505 0.347071371978697 81.3480551834842 0.347071371978697 81.3480551834842 0.47786137999232 106.580968158867 
17.4                           0.405443472680091 88.8420995014185 0.380051127070999 72.3276613807023 0.380051127070999 72.3276613807023 0.442759521952917 107.608726996167 
17.45                          0.381122463899619 90.4718875009901 0.411526664560848 63.1168574910168 0.411526664560848 63.1168574910168 0.415828239271695 109.460266738902 
17.5                           0.366071217854831 92.2214365040454 0.440816914212353 53.8563353819004 0.440816914212353 53.8563353819003 0.397975411528806 111.658978198144 
17.55                          0.358301328241576 93.4156136468801 0.4676492576547  44.6628150630824 0.4676492576547  44.6628150630823 0.387932903374149 113.621111141562 
17.6                           0.354350705448922 93.6133466549927 0.492132939424426 35.6154512099844 0.492132939424425 35.6154512099842 0.382826979576897 114.907954764248 
17.65                          0.350605117075283 92.6998677679382 0.514635868412821 26.7526463607942 0.51463586841282 26.752646360794  0.379334758949108 115.354227311832 
17.7                           0.344184025511128 90.7921768603987 0.535630258351118 18.0774804001915 0.535630258351117 18.0774804001914 0.374623526466011 115.028391582012 
17.75                          0.333192002868178 88.111443020278  0.555560368719167 9.56773422690398 0.555560368719166 9.56773422690384 0.366742515752378 114.13072181384  
17.8                           0.316605119169945 84.9088599600325 0.574755228893031 1.18680831028698 0.574755228893029 1.18680831028689 0.354623024211558 112.918348508737 
17.85                          0.294069920357189 81.4503973736496 0.593385723071266 -7.10667494485803 0.593385723071265 -7.10667494485809 0.337943255903496 111.677350506975 
17.9                           0.265753837364507 78.0460510005489 0.611456141612099 -15.3514186989347 0.611456141612098 -15.3514186989347 0.3170156137177  110.729121823985 
17.95                          0.232292987638405 75.1255813891332 0.628820645518052 -23.5782070333947 0.628820645518052 -23.5782070333948 0.29275559451213 110.454482337378 
18                             0.194868102458503 73.4008713221024 0.645218330211661 -31.8066782970771 0.645218330211662 -31.8066782970771 0.266738875365455 111.317312017398 
18.05                          0.155520526396437 74.2372747458422 0.660322479609463 -40.0439479028042 0.660322479609464 -40.0439479028042 0.241316179802528 113.849958354201 
18.1                           0.118123885711172 80.4823010496517 0.673798852626834 -48.2849718528082 0.673798852626836 -48.2849718528083 0.21966915306117 118.512911130196 
18.15                          0.0909709014241253 97.058788107935  0.685365280772196 -56.5145060517539 0.685365280772197 -56.514506051754 0.205486139095309 125.316389938067 
18.2                           0.0875523986083784 122.908521775206 0.694842591385765 -64.7103568201823 0.694842591385766 -64.7103568201825 0.201815124685207 133.351328380405 
18.25                          0.109922356520119 141.966022918228 0.702187131222015 -72.8474018792527 0.702187131222017 -72.8474018792529 0.209422575289038 140.941498821261 
18.3                           0.144816635897115 149.544564030275 0.70749891152476 -80.901706437308 0.707498911524761 -80.9017064373082 0.226312433661162 146.663342594998 
18.35                          0.182689660419696 150.529290260525 0.711005535515102 -88.8540644877735 0.711005535515103 -88.8540644877736 0.249053014188029 150.045384559174 
18.4                           0.219321440415015 148.203160386271 0.713028020204541 -96.6924790248792 0.713028020204541 -96.6924790248793 0.274340853727663 151.332268923133 
18.45                          0.252775934648334 144.107933171147 0.713937955241164 -104.413385107479 0.713937955241164 -104.413385107479 0.299680750873994 151.00013379483  
18.5                           0.282104467316193 138.981570683703 0.714115297189852 -112.021704044072 0.714115297189852 -112.021704044072 0.32340829141825 149.492700071153 
18.55                          0.306872796574966 133.19904278392  0.71391337317297 -119.530007146339 0.713913373172971 -119.530007146339 0.344504776674265 147.148861191586 
18.6                           0.32695735319543 126.958233438737 0.713634079107504 -126.957135126188 0.713634079107504 -126.957135126187 0.362408357213653 144.207259813561 
18.65                          0.342439029926969 120.363283698622 0.713513253172187 -134.326588859818 0.713513253172188 -134.326588859818 0.376869440423173 140.828788109867 
18.7                           0.35354140068277 113.465351199575 0.713714438924052 -141.664926413759 0.713714438924054 -141.664926413758 0.38784933834542 137.117614751912 
18.75                          0.360594740754969 106.28440698493  0.714328671187561 -149.000312934524 0.714328671187563 -149.000312934524 0.395452040886744 133.136622510515 
18.8                           0.364017481401342 98.8220553217629 0.715378114898765 -156.361300002474 0.715378114898768 -156.361300002474 0.399879677164581 128.917526165941 
18.85                          0.36430977432649 91.0700098260778 0.716821913162074 -163.775867796395 0.716821913162077 -163.775867796394 0.40140425724154 124.466753464416 
18.9                           0.362054643562752 83.0166303308847 0.718563117960556 -171.270743613783 0.718563117960559 -171.270743613783 0.400350101751969 119.768059488742 
18.95                          0.357922280120235 74.6529193567281 0.720455889752155 -178.871004581967 0.720455889752157 -178.871004581967 0.397083011336162 114.78262083621  
19                             0.352672940146676 65.9788034919145 0.722312186939155 173.40003089492  0.722312186939157 173.40003089492  0.392004033485811 109.447249161229 
19.05                          0.347154028116268 57.0099568381801 0.723906949651592 165.520631171498 0.723906949651593 165.520631171498 0.385547969965621 103.671444534458 
19.1                           0.342287752712358 47.784567236529  0.724980436768659 157.470240001348 0.724980436768659 157.470240001348 0.378189664072082 97.3343289065939 
19.15                          0.339047709985404 38.3681881151601 0.725236125271494 149.228927759582 0.725236125271492 149.228927759582 0.370464262634971 90.2831516512315 
19.2                           0.338425880313178 28.8534958940162 0.724332758491024 140.776898794085 0.724332758491023 140.776898794085 0.363009721829333 82.3362153655798 
19.25                          0.341394506846824 19.3514410852252 0.721870162779382 132.094365316004 0.72187016277938 132.094365316004 0.3566377107514  73.2949099325292 
19.3                           0.34886709093321 9.97239716389986 0.71737082024754 123.162221544586 0.717370820247538 123.162221544586 0.352427105863866 62.9717168738837 
19.35                          0.361656247280274 0.80092578361631 0.710263276657331 113.964039580071 0.710263276657331 113.964039580071 0.351805376659779 51.2410976429464 
19.4                           0.380415042296036 -8.12650453383084 0.699879175520816 104.489880686504 0.699879175520817 104.489880686505 0.356537843454383 38.1115277781283 
19.45                          0.405542663957084 -16.8294862522162 0.685481571241155 94.7421438011249 0.685481571241157 94.7421438011254 0.368514177749882 23.7926131573197 
19.5                           0.437048565680771 -25.3708125335412 0.666344079648342 84.7430082147115 0.666344079648344 84.7430082147118 0.389279974641741 8.70357316425097 
19.55                          0.474405253066642 -33.826361083976 0.641891282531642 74.5419264990041 0.641891282531644 74.5419264990043 0.419448476513124 -6.61544445503683 
19.6                           0.516460538462615 -42.2504565784942 0.61188428001619 64.22039490601   0.611884280016192 64.2203949060101 0.458302941592877 -21.6498001217395 
19.65                          0.561490499019289 -50.6515795962527 0.576595892123037 53.8907134120494 0.576595892123036 53.8907134120492 0.503836698523007 -36.0191998732714 
19.7                           0.607428181074842 -58.9872772400866 0.53689243913138 43.6866902711627 0.536892439131375 43.6866902711624 0.553210115098055 -49.4993343192618 
19.75                          0.652213980334763 -67.1773428842212 0.494157424127449 33.7474180383372 0.494157424127443 33.747418038337  0.603396397618687 -61.9858217067243 
19.8                           0.694140799145314 -75.1267515440852 0.450063360580105 24.1987409358189 0.450063360580096 24.1987409358189 0.65176190031524 -73.4497478105176 
19.85                          0.732069558189818 -82.7479677240113 0.406276564156058 15.1383263225247 0.406276564156048 15.1383263225248 0.696416890168248 -83.9076096381459 
19.9                           0.765466312685207 -89.9755935097234 0.36420552040741 6.62830791470018 0.364205520407399 6.62830791470073 0.736299322186573 -93.4048460555063 
19.95                          0.794298839978721 -96.7716156109111 0.32486297663946 -1.30415447645211 0.324862976639451 -1.30415447645116 0.771058097799432 -102.005952383197 
20                             0.818871243286871 -103.123439111466 0.288846699627207 -8.66085659780165 0.288846699627199 -8.66085659780035 0.800844068569488 -109.786827877507 
20.05                          0.83966418913258 -109.038210670389 0.256400310571093 -15.4643168345494 0.256400310571086 -15.4643168345478 0.82609941308948 -116.828219218119 
20.1                           0.857215115925347 -114.536330338491 0.22750709972703 -21.7498241419272 0.227507099727025 -21.7498241419255 0.847393173840005 -123.210471170237 
20.15                          0.872044116927111 -119.645799954598 0.201982797302273 -27.5590452089582 0.201982797302269 -27.5590452089562 0.865313766196621 -129.009843060425 
20.2                           0.884616525397436 -124.397996258171 0.179550685972741 -32.9354994257356 0.179550685972738 -32.9354994257335 0.880409407403654 -134.296325394201 
20.25                          0.895329709477328 -128.824839153942 0.159895117953341 -37.921681765605 0.159895117953339 -37.9216817656029 0.893161655262011 -139.132655201012 
20.3                           0.904513527823378 -132.957073719185 0.142695989621717 -42.5574315201145 0.142695989621717 -42.5574315201126 0.90397880010157 -143.574162710086 
20.35                          0.912437260361621 -136.823343685937 0.12764884286085 -46.8791523636007 0.12764884286085 -46.8791523635989 0.913199651833631 -147.669125079564 
20.4                           0.919318765004522 -140.449783343164 0.114475132394854 -50.9195697230605 0.114475132394854 -50.9195697230589 0.92110183884322 -151.459385547573 
20.45                          0.925333643464024 -143.8599263577  0.102926250744725 -54.707802196366 0.102926250744726 -54.7078021963646 0.92791133448726 -154.981077467188 
20.5                           0.930623428490477 -147.074794644075 0.092783858621897 -58.2695997030536 0.0927838586218975 -58.2695997030525 0.933811574242013 -158.265356344066 
20.55                          0.935302475193354 -150.113079613596 0.0838582038505452 -61.6276566369639 0.0838582038505458 -61.6276566369631 0.938951475473879 -161.339087210465 
20.6                           0.939463567845981 -152.99136233475 0.0759854814245077 -64.8019459178787 0.0759854814245082 -64.8019459178782 0.943452174082691 -164.225462896836 
20.65                          0.943182391684687 -155.724341583218 0.0690248605705467 -67.8100439896419 0.069024860570547 -67.8100439896416 0.94741253291397 -166.944545544407 
20.7                           0.946521059262433 -158.325052888736 0.0628555301207919 -70.6674316749428 0.0628555301207921 -70.6674316749427 0.950913574565028 -169.513732949054 
20.75                          0.949530875227713 -160.805070272397 0.0573739437312287 -73.3877645917139 0.0573739437312287 -73.3877645917141 0.954022016164708 -171.948155904861 
20.8                           0.952254499616033 -163.174687404708 0.0524913453327916 -75.9831118132458 0.0524913453327914 -75.9831118132462 0.956793074902617 -174.261014550853 
20.85                          0.95472764147351 -165.443077744417 0.0481315973896808 -78.4641641015002 0.0481315973896805 -78.4641641015007 0.959272691065721 -176.463862038011 
20.9                           0.956980387953558 -167.618434710136 0.0442293033163582 -80.840414309158 0.0442293033163577 -80.8404143091587 0.961499290270002 -178.566843366883 
20.95                          0.959038251181849 -169.708093638547 0.0407282000515578 -83.1203130193591 0.0407282000515573 -83.1203130193598 0.963505183035658 179.421103568895 
21                             0.960922996595553 -171.718637531886 0.0375797906188175 -85.3114025301526 0.0375797906188168 -85.3114025301534 0.965317679566909 177.492078620396 
21.05                          0.962653301776901 -173.655988598059 0.0347421854362842 -87.4204321057186 0.0347421854362835 -87.4204321057193 0.966959980899464 175.639076493315 
21.1                           0.964245283401531 -175.525487460297 0.0321791227324023 -89.4534571314442 0.0321791227324017 -89.4534571314447 0.96845189420048 173.855865945612 
21.15                          0.965712921165473 -177.331961730312 0.0298591412520654 -91.4159244940508 0.0298591412520645 -91.4159244940517 0.96981040946048 172.136887411541 
21.2                           0.967068400867139 -179.079785439153 0.0277548816915572 -93.3127461980429 0.0277548816915564 -93.3127461980435 0.971050166585373 170.47716600928  
21.25                          0.968322393726906 179.227069375338 0.0258424965423452 -95.1483629438891 0.0258424965423444 -95.1483629438897 0.972183835507243 168.872237410089 
21.3                           0.96948428514887 177.584987805916 0.0241011510339556 -96.9267991389599 0.0241011510339549 -96.9267991389603 0.973222426986313 167.318084480963 
21.35                          0.970562363173561 175.99067298058  0.022512600550704 -98.6517105907809 0.0225126005507033 -98.6517105907811 0.974175547950174 165.811082972105 
21.4                           0.971563974612592 174.441111917675 0.0210608322317538 -100.326425942095 0.0210608322317532 -100.326425942095 0.975051612254382 164.347954816964 
21.45                          0.972495655126072 172.933545636069 0.0197317604613688 -101.953982745533 0.0197317604613682 -101.953982745533 0.975858015451703 162.925727856524 
21.5                           0.973363238173091 171.465442928845 0.018512967646411 -103.537158938933 0.0185129676464106 -103.537158938933 0.976601280371868 161.541701000152 
21.55                          0.974171946737981 170.034477297245 0.0173934830978798 -105.078500367041 0.0173934830978794 -105.078500367041 0.977287178921684 160.193414000304 
21.6                           0.974926470937996 168.638506616374 0.0163635940200273 -106.580344898214 0.016363594020027 -106.580344898214 0.977920834426343 158.878621154178 
21.65                          0.975631033996818 167.27555516744  0.0154146835994697 -108.044843603079 0.0154146835994695 -108.044843603079 0.978506807977769 157.595268357373 
21.7                           0.976289448581805 165.943797724736 0.0145390920091963 -109.47397939323 0.0145390920091961 -109.473979393229 0.979049171581917 156.341473026998 
21.75                          0.976905165120033 164.641545430712 0.0137299968258276 -110.86958346004 0.0137299968258275 -110.86958346004 0.979551570363683 155.11550648818  
21.8                           0.977481313405378 163.367233230674 0.0129813099262924 -112.233349804643 0.0129813099262924 -112.233349804642 0.980017275664376 153.915778481306 
21.85                          0.978020738568194 162.119408670927 0.0122875884019803 -113.566848108599 0.0122875884019803 -113.566848108599 0.980449230528742 152.740823500056 
21.9                           0.978526032286882 160.896721891581 0.0116439574208973 -114.871535159631 0.0116439574208974 -114.871535159631 0.980850088807781 151.589288714183 
21.95                          0.978999559966344 159.697916668444 0.0110460432951011 -116.148765016816 0.0110460432951013 -116.148765016816 0.981222248885858 150.459923267729 
22                             0.979443484483815 158.521822378214 0.0104899152830822 -117.39979807419 0.0104899152830824 -117.39979807419 0.98156788286483 149.351568774063 
22.05                          0.97985978700172 157.367346777992 0.00997203488416803 -118.625809159929 0.00997203488416824 -118.625809159929 0.981888961895331 148.263150854967 
22.1                           0.980250285265047 156.23346950455  0.00948921157218218 -119.827894789666 0.00948921157218242 -119.827894789666 0.982187278229385 147.193671592735 
22.15                          0.980616649733589 155.119236211028 0.00903856407487771 -121.007079676565 0.00903856407487794 -121.007079676566 0.982464464473754 146.142202782593 
22.2                           0.98096041784419 154.023753269336 0.00861748643932255 -122.164322587083 0.0086174864393228 -122.164322587084 0.982722010445692 145.107879888297 
22.25                          0.981283006652642 152.946182975559 0.00822361823578358 -123.300521619594 0.00822361823578386 -123.300521619595 0.98296127796883 144.089896616957 
22.3                           0.981585724067137 151.885739203467 0.00785481834729831 -124.416518972946 0.00785481834729857 -124.416518972947 0.983183513894082 143.087500040341 
22.35                          0.981869778853812 150.841683457985 0.00750914187199283 -125.513105263292 0.0075091418719931 -125.513105263293 0.98338986158666 142.099986199505 
22.4                           0.982136289568745 149.813321286271 0.00718481973273366 -126.591023440038 0.00718481973273391 -126.59102344004 0.98358137108388 141.126696137778 
22.45                          0.982386292548759 148.799999009098 0.00688024064590773 -127.650972345267 0.00688024064590799 -127.650972345269 0.983759008098026 140.167012314131 
22.5                           0.982620749074951 147.80110073965  0.00659393514968416 -128.693609955394 0.0065939351496844 -128.693609955395 0.98392366201312 139.22035535501  
22.55                          0.982840551807254 146.816045660586 0.0063245614334021 -129.719556338982 0.00632456143340235 -129.719556338984 0.984076153003052 138.286181107903 
22.6                           0.983046530575095 145.844285533627 0.0060708927449166 -130.729396360457 0.00607089274491683 -130.729396360459 0.984217238380538 137.363977964385 
22.65                          0.983239457598036 144.88530241875  0.00583180618276791 -131.723682155828 0.00583180618276807 -131.72368215583 0.984347618271179 136.453264424264 
22.7                           0.983420052200646 143.938606582672 0.00560627270573128 -132.702935403408 0.00560627270573145 -132.702935403409 0.984467940693971 135.553586875832 
22.75                          0.983588985077712 143.003734578497 0.00539334821431596 -133.667649409764 0.00539334821431609 -133.667649409766 0.984578806118717 134.664517570124 
22.8                           0.983746882158823 142.080247480366 0.00519216557767933 -134.618291028828 0.00519216557767945 -134.618291028829 0.984680771561424 133.785652769642 
22.85                          0.983894328115374 141.167729258686 0.00500192749567461 -135.555302429955 0.00500192749567469 -135.555302429957 0.984774354270833 132.916611054224 
22.9                           0.984031869547761 140.265785283013 0.00482190009975228 -136.479102729032 0.00482190009975232 -136.479102729033 0.984860035052367 132.057031768679 
22.95                          0.984160017886082 139.374040941015 0.00465140720852084 -137.390089495086 0.00465140720852087 -137.390089495087 0.98493826126998 131.206573598486 
23                             0.984279252033716 138.492140363121 0.0044898251642209 -138.28864014355 0.0044898251642209 -138.288640143551 0.985009449561292 130.364913261387 
