! Touchstone file exported from HFSS 3D Layout Design 2026.1.0
!        File:           D:/Work/SIM/ADS_AUTO_SIM/projects/RFSOC_RF/TX_Fillter.aedt
!        Generated:      12:47:32 AM Aug 31, 2026
!        Design:         TX_BAND1_MCFIL_R15_CNN010
!        Project:        TX_Fillter
!
# GHz S MA R 50.000000
! Terminal data exported
! Port[1] = Port1
! Port[2] = Port2
14                             0.97277815194311 -168.200850076392 0.00358380632300912 -179.475047401989 0.00358380632300912 -179.475047401989 0.975413609816369 -157.652453267334 
14.05                          0.972286001517987 -169.065678478073 0.00365040171800387 -179.901091809836 0.00365040171800385 -179.901091809836 0.974983237696977 -158.486098141003 
14.1                           0.971778617375628 -169.936325771263 0.00371998456210245 179.692302324232 0.00371998456210243 179.692302324232 0.974540146810876 -159.324862838052 
14.15                          0.971255266443765 -170.812980485434 0.00379278075482135 179.305614389721 0.00379278075482133 179.305614389721 0.974083739577455 -160.16889169363 
14.2                           0.970715168353296 -171.695840780299 0.00386903784802467 178.939299190947 0.00386903784802467 178.939299190947 0.973613380177037 -161.018336405829 
14.25                          0.970157491615661 -172.585115058527 0.00394902739603536 178.593780740101 0.00394902739603535 178.593780740102 0.973128391470483 -161.873356505999 
14.3                           0.969581349427189 -173.481022626148 0.00403304758042559 178.269445290187 0.00403304758042557 178.269445290188 0.972628051618463 -162.734119865452 
14.35                          0.968985795057604 -174.383794405104 0.00412142614306358 177.966633561331 0.00412142614306359 177.966633561331 0.972111590365859 -163.60080324193 
14.4                           0.968369816774138 -175.293673702896 0.00421452366528138 177.685632120533 0.00421452366528135 177.685632120533 0.971578184952181 -164.473592869582 
14.45                          0.967732332246219 -176.210917044783 0.00431273723591902 177.426663884175 0.004312737235919 177.426663884176 0.97102695560358 -165.352685096602 
14.5                           0.967072182368137 -177.135795074652 0.00441650455659222 177.189877725127 0.00441650455659219 177.189877725127 0.970456960555981 -166.238287075154 
14.55                          0.966388124428395 -178.068593531338 0.00452630853894949 176.975337182308 0.00452630853894947 176.975337182309 0.96986719055177 -167.130617508699 
14.6                           0.965678824544374 -179.009614307956 0.00464268245608125 176.78300829055  0.00464268245608126 176.78300829055  0.969256562744343 -168.029907462478 
14.65                          0.964942849269235 -179.959176602713 0.00476621571880168 176.612746572593 0.00476621571880169 176.612746572594 0.968623913935327 -168.936401243511 
14.7                           0.964178656264382 179.082381829375 0.00489756035747175 176.464283263244 0.00489756035747176 176.464283263245 0.967967993058253 -169.850357357272 
14.75                          0.963384583914933 178.114703313248 0.00503743830164525 176.337210867696 0.00503743830164522 176.337210867696 0.967287452809584 -170.772049549016 
14.8                           0.962558839747092 177.13740876721  0.00518664956344076 176.230968191462 0.00518664956344076 176.230968191463 0.966580840312965 -171.701767938721 
14.85                          0.961699487484609 176.150096079618 0.00534608144658705 176.144825017149 0.00534608144658709 176.14482501715  0.965846586684863 -172.639820259678 
14.9                           0.960804432555934 175.152338333876 0.00551671892206736 176.077866642232 0.00551671892206737 176.077866642233 0.96508299534905 -173.586533212042 
14.95                          0.959871405833642 174.143681864835 0.00569965633382335 176.028978530121 0.00569965633382335 176.028978530122 0.964288228922886 -174.542253944024 
15                             0.958897945352148 173.123644127522 0.0058961106248272 175.996831361781 0.0058961106248272 175.996831361781 0.96346029446944 -175.507351675075 
15.05                          0.957881375707699 172.091711356678 0.00610743630590984 175.979866804184 0.00610743630590987 175.979866804184 0.962597026875216 -176.482219477196 
15.1                           0.956818784794617 171.047335992736 0.0063351424281605 175.976284331647 0.00633514242816048 175.976284331647 0.961696070072464 -177.467276232643 
15.15                          0.955706997472307 169.989933846605 0.00658091186583084 175.984029443179 0.00658091186583086 175.98402944318  0.960754855776505 -178.46296878869 
15.2                           0.954542545686397 168.918880971971 0.00684662327211567 176.000783609803 0.00684662327211569 176.000783609803 0.959770579350369 -179.469774332816 
15.25                          0.953321634482218 167.833510209507 0.00713437613690323 176.023956257153 0.00713437613690324 176.023956257153 0.958740172339344 179.51179698513  
15.3                           0.952040103246398 166.73310736254  0.00744651945596916 176.050679037846 0.00744651945596915 176.050679037846 0.957660271134193 178.481199153741 
15.35                          0.950693381388876 165.616906958134 0.00778568461800208 176.077802573359 0.00778568461800207 176.077802573359 0.956527181120534 177.437847089661 
15.4                           0.949276437528253 164.484087541118 0.00815482323279155 176.101895746039 0.00815482323279157 176.101895746039 0.95533683554928 176.381113077206 
15.45                          0.947783721062148 163.333766441294 0.00855725076513211 176.119247499441 0.00855725076513212 176.119247499441 0.954084748214095 175.310322813963 
15.5                           0.946209094783433 162.164993945692 0.0089966970097138 176.12587096218  0.0089966970097138 176.12587096218  0.952765958840133 174.224751012339 
15.55                          0.944545756933629 160.976746798233 0.00947736464886987 176.117509551251 0.00947736464886988 176.117509551251 0.951374969866243 173.123616500363 
15.6                           0.942786150754128 159.767920938439 0.0100039973854247 176.089644541114 0.0100039973854247 176.089644541115 0.94990567303006 172.006076757539 
15.65                          0.940921859189427 158.537323378738 0.0105819594467743 176.03750341139  0.0105819594467742 176.037503411389 0.948351263829604 170.871221813258 
15.7                           0.938943481894914 157.283663106502 0.0112173286258091 175.95606811569  0.0112173286258091 175.95606811569  0.946704141519973 169.718067426295 
15.75                          0.936840491080825 156.005540882298 0.0119170054743035 175.840082253426 0.0119170054743035 175.840082253426 0.944955791789233 168.545547454312 
15.8                           0.934601061952856 154.701437790067 0.0126888418134583 175.684055980174 0.0126888418134583 175.684055980174 0.943096648617666 167.352505312455 
15.85                          0.932211872549622 153.36970237878  0.0135417923972075 175.482267363401 0.0135417923972075 175.482267363401 0.941115931026276 166.137684410686 
15.9                           0.929657866577784 152.008536219247 0.0144860943846947 175.228758778621 0.0144860943846947 175.228758778621 0.939001449421846 164.899717451251 
15.95                          0.9269219713444  150.615977686107 0.0155334802830537 174.917326843232 0.0155334802830537 174.917326843232 0.936739374993575 163.637114462594 
16                             0.923984761003122 149.18988376612  0.0166974312512073 174.541504294199 0.0166974312512072 174.541504294199 0.934313964042966 162.348249446343 
16.05                          0.920824052966443 147.727909694402 0.0179934791580576 174.094532121391 0.0179934791580575 174.094532121391 0.931707227149052 161.03134552425  
16.1                           0.91741442236614 146.227486237338 0.019439567619358 173.569320157688 0.019439567619358 173.569320157688 0.928898530579637 159.684458498466 
16.15                          0.913726615716741 144.685794486178 0.021056484456873 172.958394185104 0.021056484456873 172.958394185104 0.925864114226042 158.305458791642 
16.2                           0.909726840272028 143.099738117027 0.0228683806911455 172.253827427702 0.0228683806911455 172.253827427702 0.92257650640912 156.892011829095 
16.25                          0.905375899757586 141.465913239975 0.0249033943442293 171.447154052483 0.0249033943442293 171.447154052483 0.919003811001088 155.44155708851  
16.3                           0.900628139999578 139.780576248128 0.0271944010078881 170.529261978198 0.0271944010078881 170.529261978198 0.915108836244686 153.951286312143 
16.35                          0.89543015926783 138.039610558296 0.0297799172712672 169.490261896345 0.0297799172712671 169.490261896345 0.910848027264833 152.418121812868 
16.4                           0.889719227839272 136.2384939229   0.0327051875032852 168.319328950301 0.0327051875032852 168.319328950302 0.906170155487287 150.838696502746 
16.45                          0.883421349576556 134.372269267843 0.0360234886862362 167.004513035979 0.0360234886862362 167.004513035979 0.9010147081665  149.209338378632 
16.5                           0.876448886020233 132.435524059818 0.0397976910552788 165.532513264463 0.0397976910552788 165.532513264463 0.895309910650504 147.52606394364  
16.55                          0.868697652637184 130.422386483835 0.0441021124256188 163.888411927594 0.0441021124256188 163.888411927594 0.88897030456551 145.784587785264 
16.6                           0.860043391807173 128.326551940733 0.0490246980433554 162.055363630482 0.0490246980433555 162.055363630482 0.881893800448065 143.980359829204 
16.65                          0.850337536565001 126.141361701852 0.0546695398866563 160.014236628135 0.0546695398866563 160.014236628135 0.873958130830818 142.108648505226 
16.7                           0.839402219667678 123.859968793168 0.061159709858523 157.743206731457 0.061159709858523 157.743206731457 0.865016663446653 140.164698512608 
16.75                          0.827024584918983 121.475647145996 0.0686403041501444 155.217310943224 0.0686403041501444 155.217310943224 0.854893619992189 138.144008014348 
16.8                           0.812950676833244 118.982333057353 0.0772814554728156 152.407980701732 0.0772814554728157 152.407980701732 0.843378930126367 136.042794710008 
16.85                          0.796879615798634 116.375539389592 0.0872808267824688 149.282597076983 0.0872808267824688 149.282597076983 0.830223312818086 133.858756995182 
16.9                           0.778459566178526 113.653861367528 0.0988647000913445 145.804148099085 0.0988647000913445 145.804148099085 0.815134848148739 131.592289282726 
16.95                          0.757288416426916 110.821408353311 0.112286152798326 141.931129010194 0.112286152798326 141.931129010194 0.797779478495044 129.248381550526 
17                             0.73292444128884 107.891655190296 0.127817925814895 137.617917357328 0.127817925814895 137.617917357328 0.777789811271712 126.839515776194 
17.05                          0.704915833775672 104.893397267866 0.145736484784549 132.815979318092 0.145736484784549 132.815979318092 0.754789496655548 124.389934821977 
17.1                           0.672862877336902 101.879642431806 0.166292784235636 127.476406316489 0.166292784235636 127.476406316489 0.728444160449433 121.941611015974 
17.15                          0.636531489242982 98.9401460857223 0.189665266944596 121.554382975707 0.189665266944596 121.554382975707 0.698553036531199 119.561864351475 
17.2                           0.596037787206843 96.2172802749863 0.215893462251249 115.016109575746 0.215893462251249 115.016109575746 0.665194014250204 117.35143958593  
17.25                          0.552110562524573 93.9216425494349 0.24479867817021 107.848205836163 0.24479867817021 107.848205836163 0.628920284230614 115.449281423846 
17.3                           0.506395152615898 92.3357601570335 0.275913013155183 100.068453263934 0.275913013155183 100.068453263934 0.590967037959187 114.025795212669 
17.35                          0.461669014846439 91.7792181778687 0.308454827370425 91.7349284527442 0.308454827370426 91.7349284527442 0.553356872669671 113.2516219131   
17.4                           0.421702104935236 92.4940715164988 0.341393384082759 82.9489652188678 0.34139338408276 82.9489652188678 0.518723850434551 113.231279975312 
17.45                          0.390424367939867 94.4371321765548 0.373618624959212 73.847674542815  0.373618624959213 73.847674542815  0.489707914087637 113.914456319439 
17.5                           0.370369406448133 97.1008721515234 0.404173753121513 64.5853151310603 0.404173753121515 64.5853151310603 0.468023755368913 115.043154628327 
17.55                          0.361234559011924 99.6213305166641 0.432456837290265 55.3084500182749 0.432456837290266 55.3084500182749 0.453695194696463 116.208426109713 
17.6                           0.359873459591985 101.202861037708 0.458303860287837 46.1335375926719 0.458303860287839 46.1335375926718 0.445016515242004 117.009079877531 
17.65                          0.361814649803914 101.460909698017 0.481932164953429 37.1341999589114 0.48193216495343 37.1341999589113 0.439271960836129 117.1971950788   
17.7                           0.362930322561993 100.414083519939 0.503793898916063 28.3401405285401 0.503793898916065 28.34014052854   0.433665466593178 116.716886461203 
17.75                          0.360243205088773 98.2916276908337 0.524412399396969 19.7447683059074 0.52441239939697 19.7447683059074 0.425941548736886 115.656134298429 
17.8                           0.351962633525114 95.3769762152033 0.54425212079695 11.3167864837622 0.544252120796951 11.3167864837622 0.414593573299724 114.181673211592 
17.85                          0.337215939820685 91.9429954525908 0.563638287885143 3.01192540185222 0.563638287885145 3.01192540185221 0.3988247197516  112.498453757324 
17.9                           0.315777677468121 88.250768344999  0.582720468283303 -5.21716699677011 0.582720468283303 -5.2171669967701 0.378443664046801 110.839201992156 
17.95                          0.287901803896305 84.5848552293014 0.601468212302653 -13.4134292813946 0.601468212302655 -13.4134292813945 0.353797606028619 109.475728172002 
18                             0.254270550828849 81.3223500133683 0.619689719622548 -21.6101534055951 0.619689719622549 -21.6101534055951 0.325778923743509 108.742621608378 
18.05                          0.216064468639051 79.0654245556709 0.637068883970085 -29.8277574200483 0.637068883970087 -29.8277574200483 0.295906940452177 109.061639371386 
18.1                           0.175222356551313 78.9272494651928 0.653218009425387 -38.0724258884189 0.653218009425389 -38.0724258884189 0.266459646601016 110.938645205678 
18.15                          0.135181045111784 83.1684751787931 0.667741928529864 -46.3365910122839 0.667741928529866 -46.3365910122839 0.240561573734463 114.861261715233 
18.2                           0.102885913834041 96.0245562772017 0.680305331208775 -54.6011882068455 0.680305331208777 -54.6011882068455 0.221953725136799 120.982398826807 
18.25                          0.0910065138667639 119.553939106148 0.690691500064159 -62.8394062069702 0.690691500064161 -62.8394062069702 0.213989368599587 128.63678461196  
18.3                           0.106694020863626 141.241542814158 0.698840292246724 -71.0213540079534 0.698840292246725 -71.0213540079535 0.217938181444187 136.280941111616 
18.35                          0.138977994295127 151.605142473505 0.704857531658312 -79.1188439015583 0.704857531658313 -79.1188439015583 0.232115768736282 142.358672786485 
18.4                           0.176172286288112 154.17308825809  0.708995641338171 -87.1094774398402 0.708995641338171 -87.1094774398402 0.252981772280085 146.175361734741 
18.45                          0.212685432993997 152.735925948715 0.711612910718576 -94.9794459826284 0.711612910718576 -94.9794459826284 0.276893392635596 147.849026249845 
18.5                           0.246008704342052 149.186398688865 0.713122967062873 -102.724822618526 0.713122967062873 -102.724822618526 0.301027139618489 147.828067683922 
18.55                          0.274940954085589 144.42542487337  0.713945685249393 -110.351475559605 0.713945685249393 -110.351475559605 0.323491444664804 146.571777551671 
18.6                           0.29892318171282 138.901063822358 0.714467191176082 -117.873959021144 0.714467191176082 -117.873959021144 0.343137461868445 144.444775681252 
18.65                          0.317762174045788 132.842182758427 0.715012100460667 -125.313804393566 0.715012100460666 -125.313804393566 0.359343062257365 141.710532459245 
18.7                           0.331494376070024 126.361999761421 0.715827537662126 -132.697580588731 0.715827537662126 -132.69758058873 0.37184527138081 138.552252076963 
18.75                          0.340312051214422 119.507304104049 0.717076546649514 -140.054982755176 0.717076546649514 -140.054982755176 0.380625160509086 135.095060981215 
18.8                           0.344524884159312 112.283531748663 0.71883806229616 -147.417098171224 0.71883806229616 -147.417098171224 0.385833742725481 131.422989056167 
18.85                          0.344545726153861 104.668365311851 0.721111095394498 -154.814917648017 0.721111095394498 -154.814917648017 0.387746914542536 127.590266513659 
18.9                           0.340894025285821 96.6197628103093 0.723821606318027 -162.278118587584 0.723821606318029 -162.278118587584 0.386739366828425 123.627745136215 
18.95                          0.334211733963897 88.081751220674  0.726831286511194 -169.834136325133 0.726831286511195 -169.834136325133 0.383268948268268 119.545216702925 
19                             0.325286041488457 78.9906061559929 0.729947877382471 -177.507550966598 0.729947877382472 -177.507550966598 0.377864085299491 115.330182464108 
19.05                          0.315071420255959 69.2842547824282 0.732936613224347 174.680168022207 0.732936613224347 174.680168022207 0.371108143615462 110.943612923647 
19.1                           0.304700100331264 58.9181667769459 0.735531874349973 166.710514500705 0.735531874349972 166.710514500705 0.363616965902335 106.313586816881 
19.15                          0.295465789695001 47.8902713553617 0.737447309242691 158.56737631272  0.73744730924269 158.56737631272  0.356010165441384 101.328436877166 
19.2                           0.28876343115148 36.2730955302269 0.738381822649156 150.236090940537 0.738381822649153 150.236090940537 0.348883391546352 95.8319837041042 
19.25                          0.285975706313249 24.2414472083854 0.738018380503971 141.702284618974 0.738018380503967 141.702284618975 0.342796351482111 89.62422633105   
19.3                           0.28832306811445 12.0729785227102 0.736013101357483 132.950803272915 0.73601310135748 132.950803272916 0.338296028740157 82.4711462147313 
19.35                          0.296730446752083 0.101863814932619 0.731974139307637 123.965212255613 0.731974139307634 123.965212255613 0.335990231655991 74.1272061363752 
19.4                           0.31177336860264 -11.3661898429349 0.725433869069488 114.728493384354 0.725433869069485 114.728493384354 0.336666835879041 64.3740459140116 
19.45                          0.33371607221251 -22.136099569239 0.715824048603232 105.225639865746 0.71582404860323 105.225639865746 0.341415100441762 53.077428476564  
19.5                           0.362576430290034 -32.1599988279615 0.702471368882446 95.4487321968664 0.702471368882445 95.4487321968668 0.351654346396762 40.2562584872607 
19.55                          0.39812549579675 -41.5177549352654 0.684637481427188 85.4045986142792 0.684637481427189 85.4045986142795 0.368948258042056 26.137376296131  
19.6                           0.439784261901746 -50.3612317626553 0.661626849963936 75.1241427731166 0.661626849963937 75.1241427731167 0.394551145378754 11.1507915726777 
19.65                          0.486473228711902 -58.8503279937719 0.63296784388365 64.6708920466496 0.632967843883651 64.6708920466496 0.428825244326925 -4.16018303400558 
19.7                           0.536535944725594 -67.102639784357 0.598631777846876 54.1448953292157 0.598631777846876 54.1448953292154 0.470845919553805 -19.2732379567585 
19.75                          0.58784796133014 -75.1687294092293 0.559205304252896 43.6780947723789 0.559205304252895 43.6780947723785 0.51845656796164 -33.7857845940309 
19.8                           0.638128387542064 -83.0345961211496 0.515914569151372 33.4199005651037 0.515914569151368 33.4199005651031 0.568762904697055 -47.4399659415382 
19.85                          0.685345052828828 -90.6435890177311 0.47045249312955 23.5162933355678 0.470452493129544 23.5162933355672 0.618816804567442 -60.0983991747631 
19.9                           0.728041398318997 -97.9249011343407 0.42466394163279 14.0893951826069 0.424663941632782 14.0893951826064 0.666195024804833 -71.7093143992865 
19.95                          0.765465684550413 -104.817065705679 0.380218595189569 5.22416620707538 0.380218595189561 5.22416620707501 0.709296862905232 -82.2792173347912 
20                             0.797500666490833 -111.280766981613 0.338389229736726 -3.03504132637457 0.338389229736717 -3.03504132637467 0.747352819634976 -91.8537918996208 
20.05                          0.824478587606012 -117.301446628769 0.299977197283424 -10.6797621398891 0.299977197283417 -10.679762139889 0.780249543123758 -100.503508080165 
20.1                           0.846978245713622 -122.885476404278 0.265355034529063 -17.7284282696955 0.265355034529056 -17.7284282696952 0.808296867488061 -108.312084587741 
20.15                          0.865663676722627 -128.053873217488 0.234567995335646 -24.2167259472905 0.23456799533564 -24.2167259472899 0.832021874176148 -115.367564146316 
20.2                           0.881181476182368 -132.836185729155 0.207445349352797 -30.1894472742315 0.207445349352792 -30.1894472742307 0.852023089158026 -121.756056701024 
20.25                          0.894108398180336 -137.265716320103 0.183694388591279 -35.6945707765526 0.183694388591275 -35.6945707765517 0.8688836058258  -127.557902415419 
20.3                           0.904932887627982 -141.376278186679 0.162968624669238 -40.7794445557999 0.162968624669235 -40.779444555799 0.883128096846894 -132.845734065812 
20.35                          0.914055780351108 -145.200242730849 0.14491196770781 -45.4886017295128 0.144911967707808 -45.4886017295117 0.895207500469169 -137.683852475166 
20.4                           0.921799935190795 -148.767516849362 0.129184456486558 -49.8627010372894 0.129184456486557 -49.8627010372883 0.905498929762368 -142.1284095408  
20.45                          0.928422773169362 -152.105125797846 0.115475344444648 -53.9381769927547 0.115475344444647 -53.9381769927537 0.91431274281362 -146.228026757391 
20.5                           0.934128644421501 -155.237158755553 0.10350821522294 -57.747302021975 0.103508215222939 -57.747302021974 0.9219021373417  -150.024603920549 
20.55                          0.939079708082823 -158.184912989105 0.093041441491104 -61.3184649716228 0.0930414414911035 -61.3184649716221 0.928472877287743 -153.554170457392 
20.6                           0.943404950695009 -160.967133330911 0.0838661558226868 -64.6765453927965 0.0838661558226866 -64.6765453927958 0.934192077361608 -156.847698757948 
20.65                          0.947207412621855 -163.600285716784 0.0758030700359007 -67.8433135099835 0.0758030700359008 -67.8433135099829 0.939195681691916 -159.93184107311 
20.7                           0.950569865738481 -166.098830655258 0.0686989223679951 -70.8378178288762 0.0686989223679952 -70.8378178288758 0.943594621952297 -162.829576372801 
20.75                          0.953559225399824 -168.475479164977 0.0624229791014236 -73.6767417558515 0.0624229791014237 -73.6767417558514 0.947479790689811 -165.560767152054 
20.8                           0.956229960282438 -170.741423523858 0.0568638033399903 -76.3747218772466 0.0568638033399903 -76.3747218772465 0.950926013594202 -168.142632917488 
20.85                          0.958626723310854 -172.90654068929 0.0519263790617188 -78.9446267792333 0.0519263790617189 -78.9446267792335 0.953995203967767 -170.590149865185 
20.9                           0.960786383445509 -174.979569170188 0.0475296093415258 -81.3977985005822 0.0475296093415257 -81.3977985005824 0.956738862117367 -172.916386866833 
20.95                          0.962739599035031 -176.968261533675 0.043604171619076 -83.7442601683569 0.0436041716190759 -83.7442601683572 0.959200055950919 -175.132787383128 
21                             0.964512041021128 -178.879515270756 0.0400906962111207 -85.992893842911 0.0400906962111207 -85.9928938429116 0.961414993225176 -177.249405934256 
21.05                          0.966125348544785 179.280515179124 0.036938228462823 -88.1515925529965 0.0369382284628229 -88.1515925529971 0.963414273240185 -179.275106612836 
21.1                           0.967597879574595 177.506322604675 0.0341029349454721 -90.2273902013469 0.034102934945472 -90.2273902013477 0.965223886983369 178.782270001463 
21.15                          0.968945303978876 175.792965024645 0.0315470169922274 -92.2265726166126 0.0315470169922273 -92.2265726166134 0.966866019616737 176.915766193348 
21.2                           0.97018107496942 174.135995435152 0.0292377989476695 -94.1547726010031 0.0292377989476692 -94.1547726010039 0.96835969727645 175.119188294474 
21.25                          0.971316806191196 172.531401512809 0.0271469628778599 -96.0170514163808 0.0271469628778597 -96.0170514163815 0.969721310846798 173.387006026661 
21.3                           0.972362575227346 170.975553750199 0.0252499056753122 -97.817968783903 0.0252499056753119 -97.817968783904 0.970965042151429 171.714266975831 
21.35                          0.973327169396912 169.465160735627 0.0235251982810677 -99.561643150149 0.0235251982810675 -99.5616431501497 0.972103212422074 170.096523698152 
21.4                           0.974218286037185 167.997230492325 0.0219541300580149 -101.251803695763 0.0219541300580146 -101.251803695764 0.973146568591683 168.529771397824 
21.45                          0.975042696678048 166.569036965404 0.0205203241842968 -102.891835327597 0.0205203241842966 -102.891835327598 0.97410451962406 167.01039447552  
21.5                           0.975806382404331 165.178090890758 0.0192094123283746 -104.484817697381 0.0192094123283743 -104.484817697381 0.974985332509075 165.53512054121  
21.55                          0.976514646094777 163.822114402639 0.0180087588684446 -106.033559124032 0.0180087588684444 -106.033559124033 0.975796295546907 164.100980726366 
21.6                           0.977172205996884 162.49901883885  0.0169072265824609 -107.540626158074 0.0169072265824607 -107.540626158075 0.976543854982398 162.705275328272 
21.65                          0.9777832741523  161.206885287935 0.0158949771125879 -109.008369410869 0.0158949771125876 -109.008369410869 0.977233729829418 161.345543981249 
21.7                           0.978351622458028 159.943947493853 0.0149633006460632 -110.438946174806 0.014963300646063 -110.438946174807 0.977871008766879 160.019539682775 
21.75                          0.978880638582643 158.708576793029 0.0141044701936938 -111.834340279896 0.0141044701936936 -111.834340279897 0.978460232233204 158.725206112036 
21.8                           0.979373373515121 157.499268808196 0.0133116166220621 -113.196379564794 0.0133116166220619 -113.196379564794 0.979005462248896 157.460657768809 
21.85                          0.979832582177708 156.314631664884 0.0125786212349543 -114.526751283776 0.0125786212349542 -114.526751283777 0.979510342022654 156.22416253529  
21.9                           0.980260758261361 155.153375531104 0.0119000232276188 -115.827015723823 0.0119000232276187 -115.827015723824 0.979978147018102 155.014126325405 
21.95                          0.980660164226273 154.014303309893 0.0112709397741096 -117.09861826606 0.0112709397741095 -117.09861826606 0.980411828855276 153.829079537589 
22                             0.981032857237888 152.896302338875 0.0106869968695109 -118.342900092237 0.0106869968695109 -118.342900092238 0.980814053177266 152.667665069901 
22.05                          0.981380711671252 151.798336971616 0.010144269348685 -119.561107708547 0.010144269348685 -119.561107708548 0.981187232415642 151.528627692199 
22.1                           0.981705438705909 150.719441933036 0.0096392287523029 -120.754401434988 0.00963922875230288 -120.754401434988 0.981533554228709 150.410804600084 
22.15                          0.982008603444202 149.658716355875 0.00916869791827925 -121.923862988122 0.00916869791827927 -121.923862988122 0.981855006256743 149.313117000572 
22.2                           0.982291639913333 148.61531841779  0.00872981134968607 -123.070502267657 0.00872981134968607 -123.070502267657 0.982153397732206 148.234562600716 
22.25                          0.98255586425248 147.588460509326 0.00831998055475497 -124.195263442481 0.00831998055475502 -124.195263442481 0.982430378395866 147.174208888327 
22.3                           0.98280248633784 146.577404872141 0.00793686367562904 -125.299030419095 0.00793686367562909 -125.299030419095 0.982687455098072 146.131187109179 
22.35                          0.983032620058727 145.581459654649 0.00757833882410658 -126.382631764543 0.00757833882410659 -126.382631764543 0.982926006405165 145.104686857987 
22.4                           0.983247292424985 144.599975338954 0.00724248062805308 -127.446845146593 0.00724248062805311 -127.446845146593 0.98314729548193 144.093951211455 
22.45                          0.983447451658779 143.632341498686 0.00692753956415298 -128.492401345942 0.00692753956415302 -128.492401345942 0.98335248148009 143.098272341066 
22.5                           0.983633974401126 142.677983852331 0.00663192371347817 -129.519987888244 0.00663192371347819 -129.519987888244 0.983542629628767 142.116987551348 
22.55                          0.983807672144629 141.736361580906 0.00635418262780557 -130.530252337861 0.00635418262780562 -130.530252337861 0.983718720194226 141.149475696212 
22.6                           0.983969296988011 140.806964882561 0.00609299303825405 -131.523805290017 0.00609299303825409 -131.523805290017 0.983881656452253 140.195153931914 
22.65                          0.984119546794637 139.889312739887 0.00584714617489143 -132.501223093594 0.00584714617489144 -132.501223093593 0.984032271796277 139.253474770285 
22.7                           0.984259069826016 138.982950878536 0.00561553649753664 -133.463050332912 0.00561553649753666 -133.463050332913 0.984171336087257 138.323923400295 
22.75                          0.984388468911634 138.087449898166 0.00539715166491912 -134.40980209348 0.00539715166491916 -134.40980209348 0.98429956133687 137.406015249834 
22.8                           0.984508305208414 137.202403558881 0.00519106359238651 -135.341966033735 0.00519106359238656 -135.341966033734 0.984417606803237 136.499293762914 
22.85                          0.984619101596151 136.32742720818  0.00499642046807335 -136.260004282275 0.00499642046807339 -136.260004282275 0.98452608356791 135.603328370375 
22.9                           0.984721345749339 135.462156335086 0.00481243961437012 -137.16435517782 0.00481243961437014 -137.164355177819 0.984625558653907 134.717712634692 
22.95                          0.984815492920752 134.606245239527 0.00463840109608202 -138.055434867201 0.00463840109608202 -138.055434867201 0.984716558736879 133.842062551666 
23                             0.984901968467768 133.759365806354 0.00447364198919939 -138.933638774961 0.00447364198919936 -138.933638774961 0.984799573494919 132.976014993726 
