! Touchstone file exported from HFSS 3D Layout Design 2026.1.0
!        File:           D:/Work/SIM/ADS_AUTO_SIM/projects/RFSOC_RF/TX_Fillter.aedt
!        Generated:      10:25:00 PM Aug 30, 2026
!        Design:         TX_BAND1_MCFIL_R1_CNN002_P2UP_GRAPHICAL_LC
!        Project:        TX_Fillter
!
# GHz S MA R 50.000000
! Terminal data exported
! Port[1] = Port1
! Port[2] = Port2
14                             0.962716129536547 169.851582852211 0.00597460138426579 172.286682054314 0.0059746013842658 172.286682054314 0.962444160310398 169.882832088758 
14.05                          0.962000922707065 168.805040833654 0.00611659570688362 171.787401055038 0.00611659570688356 171.787401055038 0.961727025274039 168.829536772256 
14.1                           0.961263196309607 167.749351763366 0.00626568786720061 171.297119517663 0.0062656878672006 171.297119517663 0.960987135037075 167.767012634448 
14.15                          0.960502053067137 166.68422459769  0.00642238374684693 170.815498935112 0.00642238374684687 170.815498935112 0.960223653444696 166.69497053101  
14.2                           0.959716537428604 165.609355353411 0.00658723168915517 170.342139675164 0.00658723168915515 170.342139675164 0.959435687077378 165.613108753215 
14.25                          0.958905631348973 164.524426385943 0.00676082638725025 169.876576805711 0.00676082638725021 169.876576805711 0.958622281208951 164.52111234538  
14.3                           0.95806824970439 163.429105617483 0.00694381315384979 169.418275916455 0.00694381315384974 169.418275916455 0.957782415423887 163.418652376045 
14.35                          0.957203235304547 162.323045710938 0.00713689261375033 168.96662897747  0.00713689261375027 168.96662897747  0.956914998858853 162.305385159087 
14.4                           0.956309353459748 161.205883185001 0.00734082586499788 168.52095027878  0.00734082586499783 168.52095027878  0.956018865029348 161.180951420615 
14.45                          0.955385286054893 160.077237465347 0.00755644016048576 168.080472498267 0.0075564401604857 168.080472498267 0.95509276619752 160.04497540706  
14.5                           0.954429625076687 158.936709866337 0.0077846351682885 167.644342947562 0.00778463516828849 167.644342947562 0.954135367231759 158.897063929444 
14.55                          0.953440865533482 157.783882497126 0.0080263898765674 167.211620046812 0.00802638987656737 167.211620046812 0.953145238902458 157.736805338292 
14.6                           0.952417397699418 156.618317085357 0.00828277021751149 166.78127007922  0.00828277021751145 166.78127007922  0.952120850551204 156.563768423085 
14.65                          0.95135749860548 155.439553710977 0.0085549374946839 166.352164274682 0.00855493749468381 166.352164274682 0.951060562062462 155.377501229551 
14.7                           0.950259322689838 154.247109441866 0.00884415770952154 165.92307626854  0.0088441577095215 165.92307626854  0.949962615057447 154.177529787336 
14.75                          0.949120891507893 153.040476862107 0.00915181189581655 165.492679976284 0.0091518118958165 165.492679976284 0.948825123218989 152.963356739866 
14.8                           0.947940082388773 151.819122482716 0.00947940758605012 165.059547917726 0.00947940758605004 165.059547917726 0.947646061643739 151.7344598673   
14.85                          0.946714615909102 150.582485023511 0.00982859155075988 164.622150014801 0.00982859155075981 164.622150014802 0.946423255103531 150.490290492486 
14.9                           0.945442042036473 149.329973553567 0.0102011639720462 164.178852875575 0.0102011639720462 164.178852875575 0.945154365080988 149.23027175875  
14.95                          0.944119724773655 148.060965476254 0.0105990942352692 163.727919563464 0.0105990942352692 163.727919563464 0.943836875424857 147.953796767072 
15                             0.94274482510963 146.774804343281 0.0110245385494212 163.267509835187 0.0110245385494212 163.267509835187 0.942468076447922 146.660226558857 
15.05                          0.941314282054482 145.470797480351 0.0114798596371281 162.795680813797 0.011479859637128 162.795680813797 0.941045047263714 145.348887928898 
15.1                           0.939824791501147 144.148213405018 0.0119676487703579 162.310388044724 0.0119676487703579 162.310388044724 0.939564636127211 144.019071051392 
15.15                          0.938272782617115 142.80627901505  0.0124907504684413 161.809486863378 0.0124907504684412 161.809486863378 0.938023438508305 142.670026899923 
15.2                           0.936654391422361 141.444176523034 0.0130522902217767 161.290733983022 0.0130522902217767 161.290733983022 0.936417772583917 141.30096444005  
15.25                          0.93496543115457 140.061040110066 0.0136557056586051 160.751789191813 0.013655705658605 160.751789191813 0.934743651784239 139.911047570729 
15.3                           0.933201358957614 138.655952268095 0.0143047816346355 160.190217028522 0.0143047816346355 160.190217028522 0.932996753968931 138.499391787956 
15.35                          0.931357238352235 137.227939796873 0.0150036897974306 159.603488288044 0.0150036897974306 159.603488288044 0.931172386738568 137.065060540959 
15.4                           0.929427696856601 135.775969417312 0.0157570332608614 158.98898119056  0.0157570332608613 158.98898119056  0.929265448302962 135.607061247764 
15.45                          0.927406878016013 134.298942958516 0.0165698971213944 158.343982032611 0.0165698971213944 158.343982032611 0.927270383228499 134.124340933176 
15.5                           0.925288386972026 132.7956920706   0.0174479056595343 157.665685124275 0.0174479056595343 157.665685124275 0.925181132268154 132.615781447906 
15.55                          0.923065228547453 131.264972409812 0.0183972871987192 156.951191804264 0.0183972871987191 156.951191804264 0.922991075336449 131.08019422302  
15.6                           0.920729736640013 129.705457236209 0.0194249477429925 156.197508313799 0.0194249477429925 156.197508313799 0.920692966522569 129.516314508777 
15.65                          0.918273493497613 128.115730357412 0.0205385546867249 155.401542300202 0.0205385546867249 155.401542300202 0.918278859832383 127.922795041606 
15.7                           0.915687237185016 126.494278344687 0.0217466320877073 154.560097711806 0.0217466320877072 154.560097711806 0.915740024107373 126.298199077331 
15.75                          0.912960755235898 124.839481939991 0.0230586692223653 153.66986783634  0.0230586692223652 153.66986783634  0.913066845276997 124.640992723035 
15.8                           0.910082762105415 123.149606564816 0.0244852444019964 152.727426224566 0.0244852444019964 152.727426224566 0.91024871375082 122.949536494458 
15.85                          0.907040757583463 121.422791834122 0.0260381663248217 151.729215228885 0.0260381663248216 151.729215228885 0.90727389433591 121.222076020914 
15.9                           0.903820862782841 119.657039971855 0.0277306355726165 150.67153187197  0.0277306355726165 150.671531871969 0.904129375559285 119.456731816143 
15.95                          0.900407629661801 117.85020301952  0.0295774292336015 149.550510742391 0.0295774292336015 149.550510742391 0.900800694668229 117.651488032168 
16                             0.896783819256962 115.999968727308 0.0315951120434314 148.362103592183 0.0315951120434314 148.362103592183 0.897271733854139 115.804180115801 
16.05                          0.892930142867796 114.10384502055  0.0338022778775258 147.102055284822 0.0338022778775259 147.102055284822 0.89352448237727 113.912481295922 
16.1                           0.888824959324211 112.159142945778 0.0362198258876899 145.765875711482 0.0362198258876898 145.765875711482 0.889538758238086 111.973887847512 
16.15                          0.88444392016069 110.162958025163 0.0388712760301531 144.348807259412 0.0388712760301531 144.348807259412 0.885291881824112 109.985703110268 
16.2                           0.879759552994711 108.112149992101 0.041783129140249 142.845787380993 0.041783129140249 142.845787380993 0.880758292541195 107.945020292525 
16.25                          0.874740771654576 106.003320954343 0.0449852770048315 141.251405779083 0.0449852770048315 141.251405779083 0.875909097806929 105.848704175069 
16.3                           0.86935229963386 103.832792148521 0.0485114679629088 139.559855699941 0.0485114679629088 139.559855699941 0.87071154195362 103.693371959068 
16.35                          0.863553991317269 101.596579632431 0.0523998332664961 137.764878819289 0.052399833266496 137.764878819289 0.865128380607946 101.475373698697 
16.4                           0.857300033243895 99.2903695394343 0.0566934785124107 135.859703235399 0.0566934785124108 135.859703235399 0.859117144099449 99.1907730528473 
16.45                          0.850538005682482 96.9094939374566 0.0614411425445557 133.836974169099 0.0614411425445557 133.836974169099 0.852629271625946 96.8353295256137 
16.5                           0.8432077834119  94.4489089577021 0.066697922782728 131.68867714951  0.0666979227827281 131.68867714951  0.845609096679817 94.404484005583  
16.55                          0.83524025455657 91.9031777786796 0.0725260601672724 129.406053788411 0.0725260601672724 129.406053788411 0.837992664319003 91.8933503505913 
16.6                           0.82655583883172 89.2664624039485 0.0789957676835092 126.979510791264 0.0789957676835092 126.979510791264 0.829706363422747 89.2967171277303 
16.65                          0.817062793566657 86.5325301499269 0.0861860721462757 124.39852372826  0.086186072146276 124.39852372826  0.820665364004291 86.6090655929038 
16.7                           0.806655310492731 83.6947836377783 0.094185617384998 121.65153844774  0.0941856173849981 121.65153844774  0.810771863967905 83.8246128397851 
16.75                          0.795211433285382 80.7463272477963 0.103093345256618 118.725875067819 0.103093345256618 118.725875067819 0.799913176042749 80.9373931241938 
16.8                           0.782590872413364 77.6800889836895 0.113018925356352 115.607642509531 0.113018925356352 115.607642509531 0.78795973099178 77.9413961641561 
16.85                          0.768632870393972 74.4890252402687 0.124082740666786 112.2816758874   0.124082740666786 112.2816758874   0.774763147746069 74.8307893684475 
16.9                           0.753154391526203 71.1664480407182 0.136415150615063 108.731515154825 0.136415150615063 108.731515154825 0.76015463896278 71.6002622569256 
16.95                          0.735949094250207 67.7065311395535 0.150154642916434 104.939451599279 0.150154642916434 104.939451599279 0.743944199893785 68.2455467216428 
17                             0.716787812878539 64.1050744405203 0.165444354413151 100.886679303885 0.165444354413151 100.886679303885 0.72592129024739 64.7641871229889 
17.05                          0.695421647426545 60.36063702822   0.182426303919178 96.5536012359131 0.182426303919178 96.5536012359131 0.705858081028454 61.156660009169  
17.1                           0.671589239403338 56.4761891345019 0.201232573902719 91.920352797347  0.201232573902719 91.920352797347  0.683516803633076 57.4279738395447 
17.15                          0.645030362167914 52.4614831751309 0.221972675470845 86.9676160954342 0.221972675470845 86.9676160954342 0.658663268466892 53.5899113092382 
17.2                           0.615508463122673 48.3364025853631 0.244716554270101 81.6777993440453 0.244716554270101 81.6777993440453 0.631089094692562 49.6641026307305 
17.25                          0.582845021938074 44.1356106257061 0.269473314383545 76.0366370916037 0.269473314383546 76.0366370916037 0.60064535518002 45.6861204889423 
17.3                           0.546968139443088 39.9148804402774 0.296166934781028 70.0352141361711 0.296166934781028 70.0352141361711 0.567289757240369 41.71073394305   
17.35                          0.507976150774   35.7595210026106 0.324612108632296 63.6723150428566 0.324612108632296 63.6723150428566 0.53114756762406 37.8182892472397 
17.4                           0.466213899374497 31.7952611767609 0.35449562200723 56.9568482455687 0.35449562200723 56.9568482455687 0.49258270625988 34.1217872433992 
17.45                          0.422354807604839 28.2016235805426 0.385370628303601 49.9099109657204 0.3853706283036  49.9099109657204 0.452269651581296 30.773378823742  
17.5                           0.377477081980713 25.2265954610194 0.416671386500812 42.5659117922691 0.416671386500812 42.5659117922691 0.411249663485672 27.9672787691827 
17.55                          0.33311829704416 23.1975023642681 0.447753006539812 34.9721522485177 0.447753006539811 34.9721522485178 0.370947470024579 25.9328367441989 
17.6                           0.291286191127884 22.5122136192543 0.477954012491317 27.1864822819484 0.477954012491317 27.1864822819485 0.333117332525121 24.9063666146055 
17.65                          0.254380492360161 23.5715868201257 0.506670919169718 19.2730990960863 0.506670919169717 19.2730990960864 0.299679969337898 25.0661998074714 
17.7                           0.224919619432915 26.5895883685318 0.533427610122642 11.2971203396589 0.533427610122642 11.297120339659  0.272412569745127 26.4249729426259 
17.75                          0.204913009710706 31.2762121072191 0.557922204110316 3.31898395082642 0.557922204110316 3.31898395082647 0.252500935060825 28.7180612162924 
17.8                           0.194934953070221 36.6526835533893 0.580041198466265 -4.61021005362467 0.580041198466265 -4.61021005362464 0.240102390289653 31.3928002392454 
17.85                          0.19357779626413 41.4125759858839 0.599841504224579 -12.4516303508079 0.599841504224579 -12.4516303508078 0.234210503533242 33.7784243635638 
17.9                           0.19801319654861 44.6221283235135 0.617510069462527 -20.179679868594 0.617510069462527 -20.179679868594 0.232989758858794 35.3409440988755 
17.95                          0.20520520475153 46.0166398507867 0.633314469930507 -27.781266933367 0.633314469930507 -27.781266933367 0.234371540103906 35.8244461239832 
18                             0.212744434236206 45.7848823624425 0.647556122694349 -35.2539447803365 0.647556122694349 -35.2539447803366 0.236539326777706 35.2194633953173 
18.05                          0.219035743678159 44.2685773450132 0.660533167140344 -42.6035286819013 0.660533167140344 -42.6035286819014 0.238136927294223 33.6545297927379 
18.1                           0.223150902140562 41.7976999641796 0.672515322796496 -49.8416798096206 0.672515322796496 -49.8416798096206 0.238264905282564 31.3040212789886 
18.15                          0.224619039885849 38.6397808104604 0.683729751184433 -56.9837636395008 0.683729751184432 -56.9837636395008 0.236386462115324 28.338333373249  
18.2                           0.223257074451722 35.0001994328103 0.694355395689999 -64.0471245670046 0.694355395689998 -64.0471245670046 0.232220987470622 24.9059634753974 
18.25                          0.219054116755387 31.0378316715041 0.704523000818768 -71.049800840276 0.704523000818767 -71.049800840276 0.22565634683728 21.1324896986844 
18.3                           0.212098755591049 26.8828706892218 0.714318418426525 -78.0096370705475 0.714318418426524 -78.0096370705475 0.216685814247898 17.1270289600262 
18.35                          0.202536274112855 22.653951177344  0.72378743456892 -84.9437231259138 0.72378743456892 -84.9437231259138 0.205366508026556 12.9921728019573 
18.4                           0.190546648900817 18.4758490996889 0.73294094193312 -91.8680833240809 0.73294094193312 -91.8680833240809 0.191794702393355 8.83700425438643 
18.45                          0.176338686437749 14.5013785532911 0.741759741591898 -98.7975466486271 0.741759741591898 -98.7975466486271 0.176094886918604 4.79568565317344 
18.5                           0.1601606209223  10.9442125442256 0.750198575243159 -105.745739554498 0.750198575243159 -105.745739554498 0.158422589631167 1.05817699421658 
18.55                          0.142334999992252 8.13565224042535 0.758189194380534 -112.725153635578 0.758189194380534 -112.725153635578 0.13898698786086 -2.07156144122113 
18.6                           0.123341316441957 6.63135078987082 0.765642404424181 -119.747249178296 0.765642404424181 -119.747249178296 0.118113974697501 -4.05210739363788 
18.65                          0.104007650182077 7.41360625437147 0.772449114687833 -126.822561956402 0.772449114687834 -126.822561956403 0.0964140547441606 -3.81856751015297 
18.7                           0.085956389156472 12.2017983438352 0.778480506868231 -133.96078477199 0.778480506868232 -133.96078477199 0.075264237331   0.889552179319712 
18.75                          0.0724844114547418 23.3361119698356 0.783587525946369 -141.170797800567 0.783587525946369 -141.170797800567 0.0582065937353863 14.5140813026903 
18.8                           0.0689647301692318 40.6956038243535 0.787600011842517 -148.460623541253 0.787600011842518 -148.460623541253 0.0530410891782028 39.4530170412153 
18.85                          0.0790652307625478 57.2258439585435 0.790325934769697 -155.837284091337 0.790325934769697 -155.837284091337 0.0656177489451938 62.2010363840456 
18.9                           0.100540158236083 66.7687513429721 0.791551369386361 -163.306541794817 0.791551369386362 -163.306541794818 0.0907948247952262 72.8341042040951 
18.95                          0.129239177941385 69.9520560994508 0.791042025255758 -170.872510586853 0.791042025255758 -170.872510586853 0.122524591996423 75.3754035824093 
19                             0.162499453893105 69.1091274292353 0.788547304442713 -178.537136312496 0.788547304442713 -178.537136312496 0.15808008760224 73.7678325130772 
19.05                          0.198916928071745 65.8399477787924 0.783807913169059 173.700438435837 0.783807913169059 173.700438435837 0.196280082696402 69.9248864292582 
19.1                           0.237679392471891 61.05492388495   0.776567916111855 165.844585042024 0.776567916111854 165.844585042024 0.236472699963953 64.7624262067873 
19.15                          0.278211803928533 55.2764486861347 0.766591678846559 157.903904889009 0.766591678846558 157.903904889009 0.27817397592698 58.7593487709595 
19.2                           0.320016373526137 48.8224927434536 0.753685314791634 149.891848495884 0.753685314791633 149.891848495883 0.320935004042094 52.1926995206533 
19.25                          0.362602901568302 41.9014143358624 0.737721055336326 141.827110520688 0.737721055336325 141.827110520688 0.364292055749412 45.2395233567639 
19.3                           0.405463549469941 34.6606032724886 0.718661588931904 133.733666912898 0.718661588931902 133.733666912898 0.407753455352713 38.0241352304806 
19.35                          0.448072868705314 27.2120118502239 0.696580268445508 125.640344314069 0.696580268445506 125.640344314069 0.450806706458692 30.6413821148139 
19.4                           0.489903529477585 19.6457668067666 0.671672697896308 117.579871675006 0.671672697896306 117.579871675005 0.492938036938714 23.16846644973   
19.45                          0.530451039299155 12.0373684890516 0.644256024050341 109.587453696601 0.64425602405034 109.587453696601 0.533658652493174 15.6709254378351 
19.5                           0.569261372959147 4.4513391434994  0.614754346222558 101.699004473295 0.614754346222558 101.699004473295 0.572532331306328 8.20549017133305 
19.55                          0.605955917909388 -3.05707714720561 0.583671541665784 93.9492578034514 0.583671541665783 93.9492578034513 0.609199395582002 0.821285410131863 
19.6                           0.640249312912253 -10.4412013234035 0.551555568860237 86.370001099183  0.551555568860237 86.3700010991829 0.643393215993786 -6.43977746750212 
19.65                          0.671957669274176 -17.6625985992796 0.518960004018075 78.9886515617266 0.518960004018074 78.9886515617265 0.674947200632151 -13.5428969468979 
19.7                           0.700996864610437 -24.690797627587 0.486408662238037 71.8273166941105 0.486408662238037 71.8273166941105 0.703792241221773 -20.4602653767748 
19.75                          0.727372491311003 -31.5028709047387 0.454367786829425 64.9023828789397 0.454367786829425 64.9023828789396 0.729946288746541 -27.1707913605341 
19.8                           0.75116419190531 -38.0828211993351 0.423228110678264 58.2245856001033 0.423228110678264 58.2245856001032 0.753498730184617 -33.6596192139788 
19.85                          0.77250740649115 -44.4207974978429 0.393296898453575 51.7994540086401 0.393296898453575 51.7994540086401 0.774592452348701 -39.9174725804923 
19.9                           0.791575164516299 -50.512203735118 0.364798454973241 45.6279976803603 0.364798454973241 45.6279976803603 0.793406075128276 -45.9398836054346 
19.95                          0.808561786202269 -56.356773549909 0.337880757561167 39.7075090985913 0.337880757561166 39.7075090985913 0.810138101749783 -51.7263772643553 
20                             0.823669519132632 -61.9576753744784 0.312625752756825 34.0323799820474 0.312625752756825 34.0323799820474 0.824993941333442 -57.2796719936703 
20.05                          0.837098425695649 -67.3206943419002 0.289061206192559 28.5948612058593 0.289061206192559 28.5948612058593 0.838176091849204 -62.6049414235524 
20.1                           0.849039344572554 -72.453518127091 0.267172549687843 23.3857261063618 0.267172549687843 23.3857261063617 0.849877308099252 -67.7091642308056 
20.15                          0.859669474544831 -77.3651372024328 0.246913738442928 18.3948208601834 0.246913738442928 18.3948208601833 0.860276319306907 -72.6005737280321 
20.2                           0.869150025572883 -82.0653578076941 0.228216606408921 13.6115021200899 0.228216606408921 13.6115021200899 0.869535561888882 -77.2882073678999 
20.25                          0.877625391657982 -86.5644182628983 0.21099855231764 9.02497189771961 0.21099855231764 9.02497189771961 0.877800400742997 -81.7815489720399 
20.3                           0.885223370544575 -90.8726953074724 0.195168608453668 4.62452437488631 0.195168608453668 4.6245243748863  0.88519937856106 -86.0902525315682 
20.35                          0.892056049277698 -95.0004858872667 0.180632064541589 0.399720567837005 0.18063206454159 0.399720567837018 0.891845121932256 -90.2239349568295 
20.4                           0.898221068848139 -98.9578502605805 0.167293869700118 -3.65949403837163 0.167293869700118 -3.65949403837165 0.897835623270772 -94.1920253080546 
20.45                          0.903803063757171 -102.754503689464 0.155061042157697 -7.56271560582166 0.155061042157697 -7.56271560582162 0.903255697337923 -98.0036591197283 
20.5                           0.90887513893359 -106.399745786604 0.143844298814169 -11.3190407327301 0.143844298814169 -11.31904073273  0.908178475888069 -101.667607942867 
20.55                          0.913500296982014 -109.902418461307 0.133559087960239 -14.9370490150952 0.133559087960239 -14.9370490150951 0.91266685346851 -105.192235850167 
20.6                           0.917732765265256 -113.270885158315 0.124126176659632 -18.4248024331334 0.124126176659632 -18.4248024331334 0.916774833431687 -108.585476192329 
20.65                          0.921619197569003 -116.513025618755 0.115471913970084 -21.7898562648359 0.115471913970084 -21.7898562648359 0.920548748308994 -111.85482326597 
20.7                           0.925199741775181 -119.636241684501 0.107528264476072 -25.0392775682997 0.107528264476072 -25.0392775682996 0.924028345406982 -115.00733471993 
20.75                          0.928508975422141 -122.647470722226 0.100232684248196 -28.1796683299101 0.100232684248196 -28.17966832991  0.927247739058288 -118.04964148739 
20.8                           0.931576717124255 -125.553204086027 0.0935278932639437 -31.217191188519 0.093527893263944 -31.2171911885188 0.930236237198905 -120.987962804145 
20.85                          0.934428724975932 -128.359508698867 0.0873615840733011 -34.1575962607873 0.0873615840733013 -34.1575962607872 0.933019053232465 -123.82812448422 
20.9                           0.937087294304781 -131.072050345057 0.0816860954805291 -37.0062480509158 0.0816860954805293 -37.0062480509157 0.935617915495561 -126.57557909991 
20.95                          0.939571767190489 -133.69611765781 0.0764580716411789 -39.7681517644463 0.076458071641179 -39.7681517644462 0.938051586775896 -129.235427079752 
21                             0.941898965524969 -136.23664608256 0.0716381206967071 -42.4479785896759 0.0716381206967073 -42.4479785896759 0.940336305753852 -131.812438017254 
21.05                          0.944083558384039 -138.698241319453 0.0671904824234021 -45.0500896845879 0.0671904824234024 -45.0500896845879 0.942486161270318 -134.311071694105 
21.1                           0.946138373322225 -141.085201913873 0.0630827109769703 -47.5785587300065 0.0630827109769704 -47.5785587300064 0.944513409184815 -136.735498479541 
21.15                          0.948074660020284 -143.401540785739 0.0592853763653678 -50.0371929946387 0.059285376365368 -50.0371929946386 0.946428740412873 -139.089618884687 
21.2                           0.949902313585412 -145.651005577031 0.0557717865428111 -52.4295529151212 0.0557717865428113 -52.4295529151212 0.948241507599676 -141.377082136776 
21.25                          0.951630063767057 -147.837097760786 0.0525177308044139 -54.7589702318455 0.0525177308044141 -54.7589702318454 0.949959916841636 -143.601303700707 
21.3                           0.953265635424279 -149.963090499891 0.0495012443343213 -57.0285647448872 0.0495012443343215 -57.0285647448872 0.951591189928682 -145.765481720178 
21.35                          0.954815884767378 -152.032045275253 0.0467023932154271 -59.2412597680092 0.0467023932154273 -59.2412597680092 0.953141701753141 -147.87261238221 
21.4                           0.956286915192728 -154.046827323822 0.0441030788672135 -61.3997963654563 0.0441030788672137 -61.3997963654563 0.954617096812948 -149.925504230512 
21.45                          0.957684175926616 -156.010119940436 0.041686860681508 -63.5067464583279 0.0416868606815082 -63.5067464583279 0.956022388119786 -151.926791467538 
21.5                           0.959012546180881 -157.924437705368 0.0394387955309148 -65.5645248862649 0.0394387955309149 -65.5645248862649 0.957362041296473 -153.878946294082 
21.55                          0.960276407089223 -159.792138703538 0.0373452927997632 -67.5754005071453 0.0373452927997633 -67.5754005071454 0.958640046201818 -155.784290340438 
21.6                           0.961479703327499 -161.615435802578 0.0353939836096112 -69.5415064132274 0.0353939836096113 -69.5415064132275 0.959859978044679 -157.645005245467 
21.65                          0.962625996014278 -163.396407056319 0.0335736029640511 -71.4648493372671 0.0335736029640512 -71.4648493372671 0.961025049632225 -159.463142440324 
21.7                           0.963718508230641 -165.137005298235 0.0318738836089115 -73.3473183169295 0.0318738836089116 -73.3473183169296 0.962138156131703 -161.240632192596 
21.75                          0.964760164282889 -166.83906698663 0.0302854604855227 -75.1906926805835 0.0302854604855228 -75.1906926805836 0.963201913502382 -162.979291964731 
21.8                           0.96575362365176 -168.504320359981 0.028799784740688 -76.9966494124493 0.028799784740688 -76.9966494124494 0.964218691568081 -164.680834138126 
21.85                          0.966701310421344 -170.134392957278 0.0274090463433683 -78.7667699501992 0.0274090463433683 -78.7667699501993 0.965190642544988 -166.346873151444 
21.9                           0.967605438855121 -171.730818554493 0.0261061044422189 -80.5025464635091 0.0261061044422189 -80.5025464635092 0.966119725709299 -167.978932098695 
21.95                          0.968468035681465 -173.295043564633 0.0248844246783089 -82.2053876577957 0.0248844246783089 -82.2053876577958 0.967007728780403 -169.578448829597 
22                             0.969290959563106 -174.828432945251 0.0237380227426443 -83.8766241434192 0.0237380227426443 -83.8766241434194 0.967856286504407 -171.146781591656 
22.05                          0.970075918151442 -176.332275653844 0.0226614135379629 -85.5175134070165 0.0226614135379629 -85.5175134070165 0.968666896846696 -172.68521425053 
22.1                           0.970824483065046 -177.807789688327 0.0216495653685214 -87.1292444183126 0.0216495653685214 -87.1292444183127 0.969440935138566 -174.194961122385 
22.15                          0.971538103080043 -179.256126746712 0.0206978586402787 -88.7129419027495 0.0206978586402787 -88.7129419027496 0.970179666469623 -175.677171449319 
22.2                           0.97221811577666 179.321623462712 0.019802048607206 -90.2696703075207 0.0198020486072061 -90.2696703075208 0.970884256572923 -177.132933546442 
22.25                          0.972865757849844 177.924429232058 0.0189582317476991 -91.800437486121 0.0189582317476991 -91.8004374861211 0.971555781412298 -178.563278646845 
22.3                           0.973482174261126 176.551313159158 0.0181628153985692 -93.3061981242603 0.0181628153985692 -93.3061981242603 0.972195235649792 -179.969184468575 
22.35                          0.974068426383099 175.20134872353  0.0174124903132176 -94.7878569279479 0.0174124903132176 -94.7878569279479 0.97280354014455 178.648421474307 
22.4                           0.974625499266   173.873657111098 0.0167042058457058 -96.2462715927075 0.0167042058457058 -96.2462715927075 0.973381548612209 177.288658796319 
22.45                          0.975154308137476 172.567404267598 0.0160351474938921 -97.6822555712044 0.0160351474938921 -97.6822555712044 0.973930053554963 175.950691382232 
22.5                           0.975655704230929 171.28179816238  0.0154027165629535 -99.096580655052 0.0154027165629535 -99.096580655052 0.974449791556512 174.633724728821 
22.55                          0.976130480024624 170.016086245832 0.0148045117357725 -100.489979385191 0.0148045117357725 -100.489979385191 0.974941448022697 173.337003471098 
22.6                           0.976579373962425 168.769553085146 0.0142383123591418 -101.863147303993 0.0142383123591418 -101.863147303993 0.975405661437141 172.059809078748 
22.65                          0.977003074717443 167.541518164396 0.0137020632748064 -103.216745061098 0.0137020632748064 -103.216745061098 0.975843027191569 170.801457709661 
22.7                           0.977402225051705 166.331333836129 0.0131938610422694 -104.551400384003 0.0131938610422694 -104.551400384003 0.976254101042222 169.561298208563 
22.75                          0.977777425317936 165.138383412753 0.0127119414162656 -105.867709923449 0.0127119414162656 -105.867709923448 0.976639402236782 168.338710239734 
22.8                           0.978129236643561 163.962079386958 0.012254667956063 -107.166240982839 0.012254667956063 -107.166240982839 0.976999416350234 167.133102543709 
22.85                          0.978458183831905 162.801861771367 0.0118205216564759 -108.447533140153 0.0118205216564759 -108.447533140153 0.977334597862991 165.943911308684 
22.9                           0.978764758011155 161.657196548382 0.0114080915018205 -109.712099770105 0.0114080915018204 -109.712099770105 0.977645372510241 164.770598648131 
22.95                          0.979049419057818 160.527574221961 0.0110160658541802 -110.960429473675 0.0110160658541802 -110.960429473675 0.97793213942772 163.612651176774 
23                             0.979312597818181 159.412508463748 0.0106432245963944 -112.192987421567 0.0106432245963944 -112.192987421567 0.9781952731159  162.469578677759 
