! Touchstone file exported from HFSS 3D Layout Design 2026.1.0
!        File:           D:/Work/SIM/ADS_AUTO_SIM/projects/RFSOC_RF/TX_Fillter.aedt
!        Generated:      12:40:54 AM Aug 31, 2026
!        Design:         TX_BAND1_MCFIL_R14_CNN022
!        Project:        TX_Fillter
!
# GHz S MA R 50.000000
! Terminal data exported
! Port[1] = Port1
! Port[2] = Port2
14                             0.969325222690278 -174.765339453847 0.00423200061517602 179.716942201481 0.00423200061517601 179.71694220148  0.97262445579545 -166.774338219734 
14.05                          0.968738147714871 -175.697471914598 0.00432088631734508 179.30581692706  0.00432088631734506 179.30581692706  0.972116272101889 -167.659745205499 
14.1                           0.968132311249478 -176.63701320113 0.00441411327865375 178.91148491224  0.00441411327865373 178.911484912239 0.971592057814701 -168.551477413112 
14.15                          0.96750681073101 -177.584209977974 0.00451201244700407 178.534082844273 0.00451201244700401 178.534082844272 0.971051034279192 -169.44973632973 
14.2                           0.966860686027182 -178.539321228156 0.0046149455774924 178.173696171012 0.00461494557749236 178.173696171011 0.970492372282413 -170.354733747719 
14.25                          0.966192914854802 -179.502619024589 0.00472330842724154 177.830352184933 0.00472330842724147 177.830352184933 0.969915187947335 -171.266692424426 
14.3                           0.965502407758979 179.52561063945  0.00483753430547955 177.504012601521 0.00483753430547947 177.504012601521 0.969318538225114 -172.185846793502 
14.35                          0.964788002603829 178.545066955349 0.00495809802078196 177.194565646667 0.00495809802078188 177.194565646667 0.968701415939244 -173.112443732584 
14.4                           0.964048458518821 177.55543333371  0.00508552027278792 176.901817679609 0.00508552027278782 176.901817679609 0.968062744329244 -174.046743392702 
14.45                          0.963282449237572 176.556376361798 0.00522037254190081 176.625484391491 0.00522037254190074 176.625484391491 0.967401371034488 -174.989020095322 
14.5                           0.962488555757414 175.547544676526 0.00536328253763363 176.365181634682 0.00536328253763355 176.365181634682 0.966716061450704 -175.939563303633 
14.55                          0.961665258238328 174.528567744841 0.00551494027453001 176.120415954366 0.00551494027452993 176.120415954365 0.966005491382232 -176.898678675407 
14.6                           0.960810927048593 173.499054542397 0.00567610485419495 175.890574911154 0.00567610485419487 175.890574911154 0.965268238902348 -177.866689205627 
14.65                          0.95992381285148 172.458592120438 0.00584761204314832 175.674917301074 0.00584761204314825 175.674917301074 0.964502775321326 -178.843936468007 
14.7                           0.959002035612251 171.406744049608 0.00603038274927275 175.472563396531 0.00603038274927268 175.472563396532 0.963707455147335 -179.830781965615 
14.75                          0.958043572387197 170.343048728104 0.0062254325149162 175.282485347825 0.00622543251491615 175.282485347826 0.96288050490817 179.172391397972 
14.8                           0.957046243736059 169.267017540121 0.00643388216265864 175.103497898473 0.00643388216265861 175.103497898473 0.962020010681973 178.165177714175 
14.85                          0.956007698575358 168.17813284882  0.00665696975086424 174.934249577782 0.00665696975086421 174.934249577783 0.961123904161782 177.147146317215 
14.9                           0.954925397262315 167.075845806202 0.00689606402102189 174.77321453948  0.00689606402102187 174.773214539481 0.960189947051404 176.117839868036 
14.95                          0.953796592666392 165.959573960058 0.00715267954824332 174.618685214435 0.00715267954824328 174.618685214436 0.959215713557992 175.076772256192 
15                             0.952618308947057 164.828698635754 0.00742849384099487 174.468765937293 0.00742849384099484 174.468765937293 0.958198570708762 174.023426299185 
15.05                          0.951387317711165 163.682562067807 0.00772536667719911 174.321367690025 0.00772536667719908 174.321367690026 0.957135656174488 172.95725121614  
15.1                           0.950100111169837 162.520464253056 0.00804536201246436 174.17420407904  0.00804536201246437 174.17420407904  0.956023853229247 171.877659849711 
15.15                          0.948752871851412 161.341659493619 0.00839077285382354 174.024788626034 0.00839077285382354 174.024788626035 0.954859762412751 170.784025606634 
15.2                           0.94734143835178 160.145352593762 0.00876414956070342 173.870433406118 0.00876414956070343 173.870433406119 0.953639669386309 169.675679083518 
15.25                          0.945861266513817 158.930694670118 0.00916833211595888 173.708249010274 0.00916833211595893 173.708249010274 0.952359508383512 168.551904339916 
15.3                           0.944307385320625 157.696778529444 0.00960648700615339 173.53514574393  0.00960648700615342 173.53514574393  0.951014820548873 167.41193477569  
15.35                          0.942674346659176 156.442633562091 0.0100821494648074 173.347835900906 0.0100821494648074 173.347835900906 0.949600706328135 166.254948563851 
15.4                           0.940956167957096 155.167220092558 0.0105992719686357 173.142836874259 0.0105992719686357 173.14283687426  0.948111770917718 165.080063583453 
15.45                          0.939146266510158 153.869423120847 0.0111622800391432 172.916474785005 0.0111622800391433 172.916474785005 0.946542061592076 163.886331789636 
15.5                           0.937237384094491 152.5480453797   0.0117761365955363 172.66488822901  0.0117761365955364 172.664888229011 0.944884995498943 162.67273294941  
15.55                          0.935221500186996 151.201799623148 0.0124464163359745 172.384031664005 0.0124464163359746 172.384031664006 0.943133276234442 161.438167662236 
15.6                           0.933089731789223 149.82930005109  0.0131793919002711 172.06967788495  0.0131793919002711 172.06967788495  0.941278797171254 160.181449573791 
15.65                          0.930832217450803 148.42905276291  0.0139821338972656 171.717418968598 0.0139821338972657 171.717418968598 0.939312529099122 158.901296679497 
15.7                           0.928437982602038 146.999445120454 0.0148626272750203 171.322665007903 0.0148626272750204 171.322665007903 0.937224389230096 157.596321601509 
15.75                          0.925894782711133 145.538733887397 0.0158299069844868 170.88063990374  0.0158299069844868 170.88063990374  0.935003087998696 156.265020709124 
15.8                           0.923188920054852 144.045031998551 0.0168942164522763 170.386373434215 0.0168942164522764 170.386373434215 0.932635949321998 154.905761938353 
15.85                          0.920305029001443 142.516293799841 0.0180671930528205 169.834688778099 0.0180671930528206 169.834688778099 0.930108699042038 153.516771152444 
15.9                           0.917225823614193 140.950298589064 0.0193620855737979 169.220184625447 0.0193620855737979 169.220184625447 0.927405215110568 152.09611687276  
15.95                          0.913931800047991 139.344632281183 0.0207940096220108 168.537210961096 0.0207940096220109 168.537210961096 0.924507231642146 150.641693200536 
16                             0.910400884576583 137.69666702367  0.0223802480408853 167.779837550761 0.0223802480408854 167.779837550761 0.921393987193087 149.151200748116 
16.05                          0.906608016093449 136.00353860262  0.0241406047239615 166.941814090344 0.0241406047239616 166.941814090344 0.918041805446569 147.622125408296 
16.1                           0.902524649506555 134.262121517812 0.0260978217224556 166.016520892812 0.0260978217224557 166.016520892812 0.914423593812394 146.051714820518 
16.15                          0.898118163527272 132.469001677703 0.0282780712549592 164.996908881253 0.0282780712549592 164.996908881253 0.910508242189696 144.43695245523  
16.2                           0.89335115287588 130.620446793689 0.0307115360997087 163.875427532144 0.0307115360997087 163.875427532144 0.906259900197961 142.774529351795 
16.25                          0.888180580859746 128.712374767676 0.0334330937975596 162.643939275233 0.0334330937975596 162.643939275233 0.901637106479477 141.060813740257 
16.3                           0.882556763663115 126.740320714833 0.0364831219383632 161.293618719881 0.0364831219383632 161.293618719881 0.896591738189762 139.291819097588 
16.35                          0.876422152696125 124.699403815729 0.0399084432129173 159.814834969806 0.0399084432129173 159.814834969806 0.891067742613369 137.46317170343  
16.4                           0.869709876422722 122.58429605709  0.0437634293031985 158.197015258113 0.0437634293031985 158.197015258113 0.884999606295204 135.570079572896 
16.45                          0.862341999133579 120.389196262717 0.0481112810643416 156.428488265249 0.0481112810643416 156.428488265249 0.878310510924343 133.607305914019 
16.5                           0.854227452893622 118.107814884523 0.0530254971860735 154.496305910571 0.0530254971860735 154.496305910572 0.870910121002323 131.569152226597 
16.55                          0.845259603545963 115.733378193586 0.0585915319659249 152.386043352304 0.0585915319659249 152.386043352304 0.862691949014372 129.449459193694 
16.6                           0.835313427770268 113.258665344525 0.0649086208069559 150.08157873509  0.0649086208069559 150.08157873509  0.85353025472498 127.241638167245 
16.65                          0.824242315298009 110.676099114878 0.0720917131384972 147.564857419606 0.0720917131384972 147.564857419606 0.843276465642941 124.938753134046 
16.7                           0.81187458431224 107.977922152483 0.0802733870547431 144.815650811394 0.0802733870547431 144.815650811394 0.831755171414423 122.533683764916 
16.75                          0.798009934321355 105.156507000494 0.0896055143903069 141.811328631079 0.0896055143903069 141.811328631079 0.818759871781583 120.019416200561 
16.8                           0.782416298902489 102.204872291476 0.100260281038325 138.526677122914 0.100260281038325 138.526677122914 0.804048886605302 117.389531925553 
16.85                          0.764827958353764 99.1175120869336 0.11242992390425 134.933816277881 0.112429923904249 134.933816277881 0.787342228211372 114.638999322573 
16.9                           0.744946405946514 95.8916931201668 0.126324205102021 131.00229874341  0.126324205102021 131.00229874341  0.768320874246333 111.765420336302 
16.95                          0.722446414542465 92.5294367140978 0.142164207776772 126.699512930535 0.142164207776772 126.699512930535 0.746630859680308 108.770947932039 
17                             0.696991070202614 89.0404736740595 0.160170563287488 121.99156102813  0.160170563287488 121.99156102813  0.721895999484419 105.665165823162 
17.05                          0.668261130242536 85.4465222197999 0.180543881334046 116.844829854951 0.180543881334046 116.844829854951 0.693744798572744 102.469295116219 
17.1                           0.636005471971421 81.7872397776898 0.203435333352914 111.228495030999 0.203435333352914 111.228495030999 0.661858798970391 99.2221208619219 
17.15                          0.600119478022687 78.1280246807994 0.228906686790175 105.118151040682 0.228906686790175 105.118151040682 0.62605016434938 95.987919354576  
17.2                           0.560754768823544 74.5692655927561 0.256882428047302 98.5005724001456 0.256882428047302 98.5005724001456 0.586373565997514 92.8662229040459 
17.25                          0.518453581873649 71.2552490742489 0.287102417239789 91.3792146801617 0.287102417239789 91.3792146801617 0.543268255614582 90.0021355737235 
17.3                           0.474281425326861 68.3781307597267 0.319090754358137 83.7794562238538 0.319090754358137 83.7794562238538 0.497707644897927 87.5935500036621 
17.35                          0.429902873401148 66.1676162071498 0.352161338154798 75.7519366866412 0.352161338154798 75.7519366866412 0.451305983530206 85.8873142842108 
17.4                           0.387515887679093 64.8512897066236 0.385476618123123 67.3720842726063 0.385476618123123 67.3720842726064 0.406301892261484 85.1501626264955 
17.45                          0.3495515407424  64.5708010506239 0.418158854088926 58.734544964399  0.418158854088926 58.734544964399  0.365323037727763 85.5961861032225 
17.5                           0.318100828442211 65.2632901471578 0.449427544417156 49.9428712668462 0.449427544417156 49.9428712668462 0.330866258527807 87.2662132752289 
17.55                          0.294200675380616 66.5778280091998 0.478718298059574 41.0968358879232 0.478718298059574 41.0968358879231 0.304556992256351 89.9088806135348 
17.6                           0.277350841524784 67.9366839154053 0.505742873326176 32.2808848218674 0.505742873326177 32.2808848218673 0.286499915910043 92.9829613456412 
17.65                          0.265649950883799 68.7535566651459 0.530476718667411 23.5567259391447 0.530476718667412 23.5567259391446 0.275185034941735 95.8544329096305 
17.7                           0.256508380586117 68.6478997649456 0.553090938394149 14.9612324645171 0.553090938394149 14.961232464517  0.268100525456707 98.0615685468523 
17.75                          0.247448973740256 67.504495864827  0.573861446901219 6.50891477747224 0.573861446901219 6.50891477747217 0.262628819810661 99.4409201147527 
17.8                           0.236584556490979 65.4017970011472 0.593085058733339 -1.80285535641322 0.593085058733339 -1.80285535641324 0.256688465712866 100.079888117767 
17.85                          0.222732875602471 62.5148954350129 0.611019146925407 -9.98774012875053 0.611019146925407 -9.98774012875056 0.248963518987817 100.208442717489 
17.9                           0.205330596917665 59.0545213951921 0.627848676289042 -18.0647868436729 0.627848676289042 -18.0647868436729 0.238866968665647 100.11844132511  
17.95                          0.184292901708013 55.2505787726976 0.643676806023038 -26.0539292986872 0.643676806023039 -26.0539292986872 0.226416790739462 100.127409812637 
18                             0.159890635765067 51.3757002937355 0.658532612982159 -33.9728528479913 0.65853261298216 -33.9728528479912 0.212121853562955 100.56974020901  
18.05                          0.132668964605002 47.8238022820931 0.672389597411448 -41.8351651912673 0.67238959741145 -41.8351651912673 0.19690448514111 101.791771084663 
18.1                           0.103425917378743 45.32786532493   0.685189601981947 -49.6496944135811 0.685189601981949 -49.6496944135811 0.182044396750242 104.123650901751 
18.15                          0.0733407912651849 45.6870224370695 0.696867705195606 -57.4206917679123 0.696867705195608 -57.4206917679124 0.169093724583583 107.794824838403 
18.2                           0.0448400415434123 54.9561803640154 0.707374421471239 -65.1486998831068 0.707374421471241 -65.1486998831068 0.15967679027301 112.775845522343 
18.25                          0.0275152257910808 94.5243250394029 0.716692366049823 -72.8318389631355 0.716692366049825 -72.8318389631356 0.155102816920767 118.618622569646 
18.3                           0.0397197794176921 140.501122703085 0.72484561188577 -80.4672660829487 0.724845611885772 -80.4672660829488 0.155891059358268 124.493952819519 
18.35                          0.0651705460166521 152.342075549883 0.731901260405189 -88.0525844634547 0.73190126040519 -88.0525844634548 0.161546055483333 129.526733791335 
18.4                           0.0916418663579959 152.823873483612 0.737964046157308 -95.5870248518894 0.737964046157309 -95.5870248518894 0.170810049906092 133.166260936041 
18.45                          0.116513965548769 149.549281347706 0.743165799890868 -103.072284980993 0.743165799890868 -103.072284980993 0.182171369028489 135.278621684149 
18.5                           0.13890027469876 144.612737095924 0.747652093102856 -110.512983338356 0.747652093102856 -110.512983338356 0.194262702104534 136.003811447193 
18.55                          0.158390016711721 138.768439238727 0.751568345365879 -117.916746254606 0.751568345365879 -117.916746254606 0.206029364481298 135.584352148138 
18.6                           0.174804796338391 132.339895079975 0.755047226094186 -125.293992625551 0.755047226094186 -125.293992625551 0.216743715671771 134.262675746169 
18.65                          0.188127291669494 125.478436458668 0.758198537845536 -132.657505055841 0.758198537845535 -132.657505055841 0.22595940877812 132.240422598784 
18.7                           0.198472225102128 118.25497828187  0.76110212491688 -140.021882440434 0.76110212491688 -140.021882440434 0.233455444705927 129.669766461898 
18.75                          0.206071779268486 110.698825785562 0.763803827846706 -147.402962779773 0.763803827846707 -147.402962779773 0.239187326319189 126.656463766159 
18.8                           0.211267659895997 102.817110716622 0.766314132879665 -154.817292336282 0.766314132879666 -154.817292336282 0.243248183137224 123.265133470502 
18.85                          0.214506519801118 94.6067922194816 0.768608914059366 -162.281702171744 0.768608914059368 -162.281702171744 0.245838156201256 119.523290087084 
18.9                           0.216336211396636 86.0642217707905 0.770631477718348 -169.813037043625 0.77063147771835 -169.813037043625 0.247239749913174 115.423380092887 
18.95                          0.217400103378076 77.194549414723  0.772294947018231 -177.428063483847 0.772294947018234 -177.428063483847 0.24779787285286 110.923303854634 
19                             0.2184264535842  68.0215811308586 0.7734838532132  174.856439137188 0.773483853213202 174.856439137188 0.24790511130726 105.946608983469 
19.05                          0.220210270126901 58.5969161945405 0.774053662485376 167.023432046733 0.774053662485377 167.023432046733 0.247994977722844 100.384104559716 
19.1                           0.223586871218904 49.0051264293106 0.773826946854381 159.055285030267 0.773826946854381 159.055285030267 0.248547692613478 94.0991603539568 
19.15                          0.229399550120841 39.3603473699876 0.772585143016539 150.933484290964 0.772585143016537 150.933484290964 0.250113019302651 86.939360745761  
19.2                           0.238466816389197 29.7908590364917 0.77005552722187 142.638572637822 0.770055527221866 142.638572637822 0.253350544194132 78.7572159543116 
19.25                          0.251554215498362 20.4132440904415 0.765894412512152 134.150587105656 0.765894412512146 134.150587105656 0.259077277989156 69.4414832387053 
19.3                           0.269349052720738 11.3044929266461 0.759669908800938 125.450321568268 0.759669908800931 125.450321568268 0.268295504536326 58.9566263657808 
19.35                          0.29242599980585 2.48389979539604 0.750851012936006 116.521760307231 0.750851012935997 116.521760307231 0.282157395290586 47.3796509857353 
19.4                           0.321186123923285 -6.08680500233439 0.738813949297289 107.355941479699 0.73881394929728 107.3559414797   0.301824735588531 34.9144036805835 
19.45                          0.355759799302513 -14.4849739318505 0.722880001207607 97.9562286120418 0.7228800012076  97.9562286120423 0.328220948147367 21.8652160571526 
19.5                           0.395885966700864 -22.7978187029536 0.702398089220232 88.3444142469673 0.702398089220227 88.3444142469678 0.361739487364818 8.57391401705566 
19.55                          0.440807537894542 -31.0931213950121 0.676875127088362 78.5662831299736 0.676875127088359 78.5662831299741 0.402019104320628 -4.64821569557882 
19.6                           0.489240419561495 -39.3988079828085 0.646134865272229 68.6945104887954 0.646134865272229 68.6945104887957 0.447881694721744 -17.5596729998867 
19.65                          0.539465378076311 -47.6959711823038 0.610457574964566 58.8266550498345 0.610457574964566 58.8266550498345 0.497467582575909 -29.9915107965606 
19.7                           0.589549790092509 -55.9252211825822 0.57063738337318 49.0771172518209 0.57063738337318 49.0771172518205 0.548536003751854 -41.8302513123453 
19.75                          0.637644646215426 -64.0024313530149 0.527912740300718 39.5641976863925 0.527912740300716 39.5641976863915 0.598844785653351 -53.0002894589557 
19.8                           0.682259129212918 -71.8378121774111 0.483778639369641 30.395671665428  0.483778639369636 30.3956716654266 0.646495946126687 -63.4541790024151 
19.85                          0.722424458080519 -79.3523884763424 0.439744869963519 21.6570520093401 0.43974486996351 21.6570520093385 0.690152076939773 -73.1693420831507 
19.9                           0.757715095712432 -86.4881938756638 0.397123389214615 13.4053825282464 0.397123389214602 13.4053825282447 0.729088700834753 -82.1465986201515 
19.95                          0.788157423142972 -93.2115443028082 0.356900909625077 5.66896919681336 0.356900909625062 5.6689691968117  0.763113684718006 -90.407432272162 
20                             0.814086247784037 -99.5110474601376 0.319706258820031 -1.54853022108053 0.319706258820013 -1.54853022108192 0.792418966781724 -97.989435179201 
20.05                          0.836003140998045 -105.392821815087 0.285847599866448 -8.26194501474427 0.28584759986643 -8.26194501474528 0.817425356347632 -104.940860150508 
20.1                           0.854466434940814 -110.875035206037 0.255384137025808 -14.4982742526683 0.25538413702579 -14.4982742526687 0.838656292708152 -111.315441071082 
20.15                          0.870020054731814 -115.983040965302 0.228203720972283 -20.2913276366888 0.228203720972267 -20.2913276366886 0.856651673738272 -117.168220897367 
20.2                           0.883155372142601 -120.745628669545 0.204090110965016 -25.6777176268479 0.204090110965001 -25.6777176268472 0.871917721740177 -122.552618274495 
20.25                          0.894296090561245 -125.192422867297 0.182774026512586 -30.6941481501038 0.182774026512573 -30.6941481501026 0.884903196811412 -127.518625093414 
20.3                           0.903796944718933 -129.352238830463 0.163968294536477 -35.3757492884668 0.163968294536467 -35.3757492884652 0.895992294526953 -132.111882356629 
20.35                          0.911949489612883 -133.252146510908 0.147390045475898 -39.7551702333413 0.147390045475889 -39.7551702333393 0.905506818876673 -136.373365270387 
20.4                           0.918990734269828 -136.91701711461 0.132773446025341 -43.8621804309243 0.132773446025334 -43.862180430922 0.913712732774368 -140.339452046076 
20.45                          0.925112243027388 -140.369377096813 0.119876023849895 -47.723588852046 0.11987602384989 -47.7235888520436 0.920828186116963 -144.042210282364 
20.5                           0.930468538403733 -143.629445252466 0.108480918964123 -51.3633484145407 0.108480918964119 -51.3633484145385 0.927031476360882 -147.509788794658 
20.55                          0.935184347259282 -146.715269992012 0.0983967056216916 -54.8027579215762 0.0983967056216893 -54.8027579215741 0.932468225417048 -150.766844412289 
20.6                           0.939360607456519 -149.642914188755 0.0894558775605375 -58.0607065782898 0.0894558775605363 -58.0607065782881 0.937257522739503 -153.834962506136 
20.65                          0.943079329191413 -152.426655740994 0.081512689988878 -61.1539283334041 0.0815126899888773 -61.153928333403 0.941497024481804 -156.733049245435 
20.7                           0.946407472466017 -155.079185576158 0.0744407788882722 -64.0972476878555 0.0744407788882721 -64.097247687855 0.945267107723158 -159.477685584712 
20.75                          0.949400013622257 -157.611793394726 0.068130799660372 -66.903807611687 0.0681307996603722 -66.9038076116871 0.948634217012364 -162.083440093719 
20.8                           0.952102359887511 -160.034536678856 0.0624882142603049 -69.5852756323235 0.062488214260305 -69.5852756323242 0.951653543165334 -164.563141703486 
20.85                          0.954552247639987 -162.356391561502 0.0574312868920757 -72.1520272833907 0.0574312868920757 -72.1520272833921 0.95437116106313 -166.92811544896 
20.9                           0.956781235548198 -164.585385869108 0.0528893076076835 -74.6133077959426 0.0528893076076833 -74.6133077959447 0.956825734507924 -169.18838513155 
20.95                          0.958815881384198 -166.728715539573 0.0488010402747524 -76.9773737364207 0.0488010402747521 -76.9773737364233 0.959049877104827 -171.352847003641 
21                             0.960678672371173 -168.792846011867 0.0451133794844502 -79.2516166076315 0.0451133794844494 -79.2516166076346 0.961071240886366 -173.429418400106 
21.05                          0.962388763517504 -170.783600293843 0.0417801956563006 -81.442670456233 0.0417801956562994 -81.4426704562365 0.962913389742468 -175.425164893952 
21.1                           0.963962566155857 -172.706235369023 0.03876134608838 -83.5565054117289 0.0387613460883786 -83.5565054117325 0.964596502705511 -177.346409141099 
21.15                          0.965414219338924 -174.565508478684 0.0360218302892534 -85.5985089011455 0.0360218302892517 -85.5985089011493 0.966137942502191 -179.198824162511 
21.2                           0.966755969330983 -176.365734657986 0.0335310695762502 -87.5735560882165 0.0335310695762484 -87.5735560882202 0.967552717154916 179.012486579307 
21.25                          0.967998476722281 -178.110836739842 0.0312622930221369 -89.4860709010829 0.0312622930221349 -89.4860709010864 0.968853856425964 177.282920304114 
21.3                           0.969151066303311 -179.804388881637 0.0291920140308428 -91.3400788490343 0.0291920140308408 -91.3400788490375 0.970052720217379 175.608315540655 
21.35                          0.970221931465094 178.550345475427 0.0272995839350775 -93.1392526888343 0.0272995839350755 -93.1392526888373 0.971159252390879 173.984900824079 
21.4                           0.971218302301594 176.950380434036 0.0255668109429418 -94.886951882147 0.0255668109429399 -94.8869518821494 0.972182190629192 172.409250257508 
21.45                          0.97214658459725 175.392978588362 0.0239776344813139 -96.5862566829804 0.0239776344813121 -96.5862566829824 0.973129240743688 170.878244921953 
21.5                           0.973012475345307 173.875625522147 0.0225178464863684 -98.2399976031912 0.0225178464863668 -98.2399976031932 0.974007222102356 169.389039279083 
21.55                          0.973821059253268 172.396007371639 0.0211748524877728 -99.8507809210625 0.0211748524877714 -99.8507809210637 0.974822189497462 167.939031845884 
21.6                           0.974576889768711 170.951991039124 0.0199374664420625 -101.421010820306 0.0199374664420613 -101.421010820307 0.975579535709025 166.525839532731 
21.65                          0.97528405743956 169.541606703447 0.0187957342140462 -102.952908673329 0.0187957342140453 -102.952908673329 0.976284078183243 165.147275130599 
21.7                           0.975946247860506 168.163032325373 0.0177407814042864 -104.448529913107 0.0177407814042857 -104.448529913107 0.976940132583731 163.801327511906 
21.75                          0.976566791015612 166.814579889154 0.0167646818956861 -105.90977887312 0.0167646818956857 -105.90977887312 0.977551575449224 162.486144175458 
21.8                           0.977148703478899 165.494683158656 0.0158603440609687 -107.338421915231 0.0158603440609684 -107.338421915231 0.978121897774225 161.20001582127  
21.85                          0.977694724658914 164.201886757608 0.0150214120511847 -108.736099111958 0.0150214120511846 -108.736099111959 0.978654250995859 159.941362687439 
21.9                           0.97820734805392 162.93483641015  0.0142421799871454 -110.104334702756 0.0142421799871455 -110.104334702756 0.97915148660295 158.708722420321 
21.95                          0.978688848309148 161.69227020036  0.013517517212785 -111.444546503755 0.0135175172127853 -111.444546503756 0.979616190368254 157.500739282112 
22                             0.979141304726963 160.473010728646 0.01284280305216 -112.75805441688 0.0128428030521603 -112.758054416881 0.980050712030915 156.316154527743 
22.05                          0.979566621767538 159.275958059242 0.0122138697488582 -114.046088156658 0.0122138697488586 -114.046088156659 0.980457191115204 155.15379780645  
22.1                           0.979966546985981 158.100083367004 0.0116269524654657 -115.309794290929 0.0116269524654662 -115.30979429093 0.980837579456722 154.012579463324 
22.15                          0.980342686777359 156.944423203647 0.0110786453877016 -116.550242674071 0.0110786453877021 -116.550242674072 0.981193660913402 152.891483633063 
22.2                           0.980696520240322 155.808074313806 0.0105658631182004 -117.768432337698 0.010565863118201 -117.768432337699 0.981527068661573 151.789562032549 
22.25                          0.981029411420178 154.690188940109 0.0100858066630989 -118.965296893116 0.0100858066630995 -118.965296893119 0.981839300413956 150.705928371198 
22.3                           0.981342620151349 153.589970564006 0.00963593341428727 -120.141709491696 0.00963593341428787 -120.141709491698 0.982131731844017 149.639753308539 
22.35                          0.981637311685251 152.506670035653 0.00921393061447492 -121.298487382947 0.00921393061447547 -121.29848738295 0.982405628457628 148.590259897494 
22.4                           0.981914565261615 151.439582051769 0.0088176918636385 -122.436396105214 0.00881769186363904 -122.436396105218 0.982662156116815 147.556719459631 
22.45                          0.982175381757876 150.38804194531  0.00844529628608824 -123.556153339993 0.00844529628608874 -123.556153339996 0.982902390390163 146.538447845273 
22.5                           0.982420690531775 149.351422755031 0.00809499002903728 -124.658432457767 0.00809499002903777 -124.658432457771 0.983127324879132 145.534802037178 
22.55                          0.98265135555593 148.329132546694 0.00776516980764044 -125.743865780678 0.0077651698076409 -125.743865780682 0.98333787864829 144.545177061439 
22.6                           0.982868180929395 147.320611960925 0.00745436824918064 -126.813047585137 0.00745436824918108 -126.81304758514 0.983534902869514 143.569003173613 
22.65                          0.98307191583956 146.325331965517 0.00716124082141227 -127.866536865599 0.00716124082141261 -127.866536865602 0.983719186775093 142.605743291807 
22.7                           0.983263259037961 145.342791792442 0.00688455415785282 -128.904859879014 0.00688455415785313 -128.904859879017 0.983891463001776 141.654890651756 
22.75                          0.983442862885134 144.372517041991 0.00662317561673572 -129.928512487927 0.00662317561673598 -129.92851248793 0.984052412396886 140.715966661737 
22.8                           0.983611337012572 143.41405793836  0.00637606393097177 -130.937962318786 0.006376063930972 -130.937962318787 0.984202668348327 139.788518937683 
22.85                          0.983769251643695 142.466987722672 0.00614226082430462 -131.933650750718 0.00614226082430477 -131.93365075072 0.984342820692292 138.872119501022 
22.9                           0.983917140610563 141.530901170877 0.00592088348428854 -132.915994748811 0.00592088348428864 -132.915994748811 0.984473419245687 137.966363123687 
22.95                          0.984055504098508 140.605413225293 0.00571111779611064 -133.88538855479 0.00571111779611068 -133.88538855479 0.984594977004395 137.070865806415 
23                             0.98418481114702 139.69015772969  0.00551221225291493 -134.842205246963 0.00551221225291493 -134.842205246963 0.984707973043432 136.185263377943 
