! Touchstone file exported from HFSS 3D Layout Design 2026.1.0
!        File:           D:/Work/ADS/SIMADS_EM_PAR/SP8T/RF-PPA-SP10T-4F4H-ENIG-V1.0.aedt
!        Generated:      01:05:44 PM Aug  8, 2026
!        Design:         rf-ppa-sp10t-4f4h-enig-v1.01_cutout
!        Project:        RF-PPA-SP10T-4F4H-ENIG-V1.0
!
! Variables:
!        BendModel = 0
!
# GHz S MA R 50.000000
! Terminal data exported
! Port[1] = Port1
! Port[2] = Port2
0.5                            0.0413285325410005 -133.607925959629 0.98349101472394 -39.6315490344834 0.98349101472394 -39.6315490344835 0.0412948113622439 -135.214716798482 
0.55                           0.0444369465882669 -137.764344522337 0.982105239319023 -43.5323433318174 0.982105239319023 -43.5323433318174 0.0444263580997952 -139.555839288955 
0.6                            0.0473082783741493 -141.866830920716 0.980748690233905 -47.4283907821874 0.980748690233904 -47.4283907821874 0.0473226195006486 -143.851562332921 
0.65                           0.0499383520575904 -145.918445001268 0.979417366065594 -51.3201477380247 0.979417366065593 -51.3201477380247 0.0499786820442047 -148.104280999339 
0.7                            0.0523243785826795 -149.922531809608 0.978108868297849 -55.2079501430907 0.978108868297848 -55.2079501430907 0.0523912820018685 -152.316904381968 
0.75                           0.0544645538997094 -153.882591094211 0.976822066885543 -59.0920713253205 0.976822066885542 -59.0920713253205 0.0545584118343351 -156.492758727464 
0.8                            0.0563577370574376 -157.80213096862 0.975556715131769 -62.9727565359326 0.975556715131768 -62.9727565359326 0.0564789699633683 -160.635470319323 
0.85                           0.058003214488302 -161.684523158172 0.974313097443631 -66.8502420207069 0.97431309744363 -66.8502420207069 0.0581524679470845 -164.74884070392 
0.9                            0.0594005494499788 -165.532869392312 0.973091740422054 -70.7247641763558 0.973091740422054 -70.7247641763558 0.0595788034006412 -168.836722244203 
0.95                           0.0605495102338112 -169.349883752155 0.971893192594936 -74.5965625790058 0.971893192594935 -74.5965625790058 0.0607581022043149 -172.90289926185 
1                              0.0614500671315484 -173.137792791545 0.97071786719633 -78.4658794035945 0.970717867196329 -78.4658794035945 0.0616906296058096 -176.950978376539 
1.05                           0.0621024459234434 -176.898253301337 0.969565938452749 -82.3329568812012 0.969565938452748 -82.3329568812012 0.0623767666146632 179.015709344376 
1.1                            0.0625072244933049 179.367713743436 0.968437281151672 -86.1980338540987 0.968437281151671 -86.1980338540987 0.06281704542813 174.994192401405 
1.15                           0.062665458839416 175.65977550057  0.967331443995944 -90.061342096286 0.967331443995943 -90.061342096286 0.0630122353684614 170.981927376655 
1.2                            0.0625788250640514 171.978329122956 0.966247648499686 -93.9231028066253 0.966247648499685 -93.9231028066253 0.062963468864524 166.976850540007 
1.25                           0.0622497647854784 168.324537268698 0.965184806539701 -97.7835235090308 0.9651848065397  -97.7835235090308 0.062672395374667 162.97741141588  
1.3                            0.0616816227644626 164.700362283325 0.964141550956562 -101.642795480456 0.964141550956561 -101.642795480456 0.0621413499060456 158.98258754957  
1.35                           0.0608787673280094 161.108605204726 0.96311627472995 -105.501091753443 0.96311627472995 -105.501091753443 0.0613735220873844 154.991880237523 
1.4                            0.0598466863552667 157.552957191832 0.962107175214761 -109.358565692853 0.96210717521476 -109.358565692852 0.0603731117766774 151.005291693322 
1.45                           0.0585920540926598 154.038072913336 0.961112300723855 -113.215350117443 0.961112300723855 -113.215350117443 0.0591454580944552 147.023285006459 
1.5                            0.0571227667931126 150.569678094266 0.960129597396196 -117.071556920273 0.960129597396196 -117.071556920273 0.0576971306603041 143.046729280153 
1.55                           0.055447948020784 147.154727183775 0.959156954814851 -120.927277133435 0.959156954814851 -120.927277133434 0.0560359746556224 139.076833452426 
1.6                            0.0535779273309485 143.801632578715 0.958192249257642 -124.782581379541 0.958192249257642 -124.782581379541 0.0541711049802703 135.11507344983  
1.65                           0.0515241988706202 140.520594980786 0.957233383792471 -128.637520652783 0.957233383792471 -128.637520652783 0.0521128489178531 131.163118452601 
1.7                            0.0492993692844256 137.324076848492 0.956278324685745 -132.492127374826 0.956278324685744 -132.492127374826 0.0498726409706563 127.222763171524 
1.75                           0.0469171073392381 134.227480105058 0.955325133790283 -136.34641667449 0.955325133790282 -136.34641667449 0.0474628774198121 123.295874257237 
1.8                            0.0443921113344308 131.250119579452 0.954371996730518 -140.20038784435 0.954371996730517 -140.20038784435 0.0448967412839212 119.384360558886 
1.85                           0.0417401154847113 128.416632384404 0.953417246817861 -144.054025931763 0.953417246817861 -144.054025931762 0.0421880103626394 115.49017949224  
1.9                            0.0389779645988478 125.759043147146 0.952459384716065 -147.907303426089 0.952459384716065 -147.907303426089 0.0393508617852763 111.615396379244 
1.95                           0.0361238003720523 123.319837640587 0.951497093941865 -151.760182007882 0.951497093941865 -151.760182007882 0.0363996859405284 107.762322462991 
2                              0.0331974277766961 121.156621296529 0.950529252335522 -155.612614329527 0.950529252335522 -155.612614329527 0.0333489210171073 103.933774854586 
2.05                           0.0302209765722787 119.349320342656 0.949554939673111 -159.464545800155 0.949554939673111 -159.464545800155 0.0302129169585748 100.133537666858 
2.1                            0.0272200608374137 118.011528044728 0.948573441620752 -163.315916350702 0.948573441620752 -163.315916350702 0.0270058348775312 96.36718079938   
2.15                           0.0242258079059332 117.308640945553 0.94758425025272 -167.166662157679 0.94758425025272 -167.166662157679 0.023741585497542 92.6435690147478 
2.2                            0.0212784510620714 117.486861269985 0.94658706137227 -171.016717306715 0.946587061372271 -171.016717306715 0.0204338090275667 88.9778304134532 
2.25                           0.0184337727633765 118.917880891564 0.945581768887233 -174.866015379115 0.945581768887234 -174.866015379115 0.0170959015133057 85.3977575317894 
2.3                            0.0157745797901582 122.157898553684 0.944568456502785 -178.714490946777 0.944568456502785 -178.714490946777 0.0137411075372043 81.9594452257709 
2.35                           0.0134296447235496 127.98097149595  0.943547387001843 177.437919037336 0.943547387001843 177.437919037336 0.0103827633769191 78.7928194834458 
2.4                            0.0115963440372988 137.206311989201 0.942518989389564 173.591273964167 0.942518989389563 173.591273964167 0.00703511739954097 76.2752392843776 
2.45                           0.010533632478535 149.915887666477 0.941483844182593 169.745628418293 0.941483844182592 169.745628418293 0.00371822530250383 76.1215806239054 
2.5                            0.0104507458546654 164.250890784844 0.94044266712619 165.901031160102 0.940442667126189 165.901031160102 0.00063438952399546 117.308118082655 
2.55                           0.0113289214923697 177.022018211747 0.939396291623032 162.057524246543 0.93939629162303 162.057524246543 0.0029166982512355 -129.380691879721 
2.6                            0.0129272539613441 -173.663311699718 0.938345650156551 158.215142295036 0.938345650156551 158.215142295036 0.00609190002956821 -128.015115097343 
2.65                           0.014967172145848 -167.744698123741 0.937291754988963 154.373911893646 0.937291754988961 154.373911893646 0.00921356123125426 -130.26154697361 
2.7                            0.0172418022498138 -164.405673307713 0.936235678409706 150.533851159132 0.936235678409705 150.533851159132 0.0122571364783877 -133.346994107051 
2.75                           0.0196188823949619 -162.868343423602 0.935178532804035 146.694969443064 0.935178532804034 146.694969443064 0.0152082490622498 -136.761013535269 
2.8                            0.0220153550114821 -162.572168236959 0.934121450803727 142.857267184754 0.934121450803726 142.857267184754 0.018054233827215 -140.339489275121 
2.85                           0.0243770522188203 -163.141893088939 0.933065565772635 139.020735908388 0.933065565772634 139.020735908388 0.0207831172301882 -144.013375580043 
2.9                            0.0266666051533691 -164.328459155749 0.932011992869002 135.185358360339 0.932011992869   135.185358360339 0.0233834573817622 -147.748352623779 
2.95                           0.0288567304706453 -165.964065871986 0.930961810914209 131.351108781344 0.930961810914207 131.351108781344 0.0258443728181672 -151.525218074132 
3                              0.0309265151617881 -167.932974728439 0.929916045283968 127.51795330692  0.929916045283965 127.51795330692  0.0281556262402604 -155.332200999068 
3.05                           0.0328593235561557 -170.153250675725 0.928875652022982 123.685850488133 0.928875652022981 123.685850488133 0.0303077230184841 -159.161538969764 
3.1                            0.0346415909132291 -172.565340007823 0.927841503367865 119.854751923636 0.927841503367863 119.854751923636 0.0322920074817983 -163.00780958606 
3.15                           0.036262112594676 -175.124817610302 0.926814374845478 116.024602992742 0.926814374845474 116.024602992742 0.0341007477727626 -166.867063196959 
3.2                            0.0377116167969271 -177.797685852532 0.925794934095167 112.195343678191 0.925794934095164 112.195343678191 0.035727203707802 -170.736351581294 
3.25                           0.0389825025375098 179.442742702675 0.924783731543252 108.366909466282 0.924783731543248 108.366909466282 0.0371656744950196 -174.61346438408 
3.3                            0.0400686748898745 176.617962160012 0.923781193036856 104.539232311077 0.923781193036853 104.539232311077 0.0384115251099329 -178.496779484089 
3.35                           0.0409654373588784 173.745747321751 0.922787614521664 100.712241648573 0.922787614521661 100.712241648573 0.0394611917933391 177.61482215316  
3.4                            0.0416694173458132 170.841208816079 0.921803158824276 96.8858654459894 0.921803158824273 96.8858654459893 0.0403121685173929 173.722004235313 
3.45                           0.0421785102708789 167.91757304187  0.920827854574877 93.0600312707412 0.920827854574872 93.0600312707411 0.0409629773268386 169.825000623407 
3.5                            0.0424918339298309 164.986781844664 0.919861597279558 89.2346673632068 0.919861597279555 89.2346673632067 0.0414131261721242 165.923626788084 
3.55                           0.0426096885790181 162.059976862845 0.918904152524346 85.4097036971133 0.918904152524342 85.4097036971132 0.0416630582059272 162.017281306454 
3.6                            0.042533520911288 159.147915113347 0.917955161264526 81.5850730112661 0.917955161264522 81.5850730112661 0.041714096539481 158.104938680325 
3.65                           0.042265891993045 156.26135146429  0.91701414712383 77.7607117964544 0.917014147123828 77.7607117964544 0.0415683881992325 154.185132693249 
3.7                            0.0418104506865858 153.411417804374 0.916080525598327 73.9365612216923 0.916080525598324 73.9365612216922 0.0412288505535159 150.255927755877 
3.75                           0.0411719153006768 150.610026701864 0.915153615030204 70.112567984532  0.9151536150302  70.112567984532  0.0406991228672539 146.314873895673 
3.8                            0.0403560673849755 147.870328613786 0.914232649187198 66.288685071013  0.914232649187195 66.288685071013  0.0399835249660112 142.358938916327 
3.85                           0.039369762909635 145.207256267511 0.9133167912549  62.4648724119079 0.913316791254896 62.4648724119079 0.0390870243225123 138.384408401863 
3.9                            0.0382209677976551 142.638198177013 0.91240514902212 58.6410974232954 0.912405149022117 58.6410974232954 0.0380152122895003 134.386740120748 
3.95                           0.0369188272444053 140.183856327939 0.91149679101467 54.8173354211305 0.911496791014668 54.8173354211304 0.0367742897637705 130.360353130408 
4                              0.0354737819616107 137.869362282791 0.910590763310868 50.9935699013785 0.910590763310865 50.9935699013785 0.0353710623587446 126.298322049554 
4.05                           0.033897750163881 135.725753047595 0.909686106753821 47.1697926794279 0.909686106753817 47.169792679428  0.0338129452975951 122.191931049203 
4.1                            0.0322044028922475 133.791944408737 0.908781874261567 43.3460038848512 0.908781874261564 43.3460038848512 0.032107978891737 118.030015604191 
4.15                           0.0304095737916129 132.117384131119 0.907877147927286 39.522211810124  0.907877147927284 39.522211810124  0.0302648569546739 113.797974532603 
4.2                            0.0285318650107466 130.765611293376 0.906971055598697 35.6984326145908 0.906971055598695 35.6984326145908 0.0282929734229829 109.47625402077  
4.25                           0.0265935410978612 129.818958568275 0.906062786628794 31.874689887712  0.906062786628793 31.874689887712  0.0262024980447909 105.037956196495 
4.3                            0.0246218438034507 129.384517118883 0.905151606499787 28.0510140784119 0.905151606499786 28.0510140784119 0.0240045028927753 100.444937397446 
4.35                           0.0226509058122383 129.600993157005 0.90423687003848 24.2274418000705 0.904236870038479 24.2274418000705 0.0217111836699113 95.6411789536362 
4.4                            0.0207244561309544 130.644639120038 0.903318032964542 20.4040150233153 0.903318032964542 20.4040150233153 0.0193362678856002 90.5409633682622 
4.45                           0.0188993803682743 132.728856399265 0.902394661542721 16.5807801711949 0.902394661542721 16.5807801711949 0.0168958142127473 85.0065208687215 
4.5                            0.0172496280220846 136.084690916357 0.901466440145702 12.7577871334782 0.901466440145702 12.7577871334782 0.014409893319101 78.8027080901919 
4.55                           0.015868381907819 140.899018493483 0.900533176575245 8.93508821866974 0.900533176575245 8.93508821866975 0.0119064494702742 71.4971357331396 
4.6                            0.0148634781425917 147.187616527702 0.89959480503452 5.11273706378566 0.89959480503452 5.11273706378567 0.009431226085076 62.2182794021632 
4.65                           0.014339045503028 154.631083259115 0.898651386693091 1.29078752296078 0.898651386693091 1.29078752296065 0.00707697798657763 49.020093582378  
4.7                            0.0143628425895735 162.516958304324 0.897703107836543 -2.53070744348035 0.897703107836543 -2.53070744348035 0.005079498222416 27.3703502292406 
4.75                           0.014937094368373 169.949153969324 0.896750275643947 -6.35169685779601 0.896750275643948 -6.35169685779602 0.00405803029864592 -8.93085186344356 
4.8                            0.0159981415884793 176.217896651396 0.895793311686741 -10.172132770189 0.895793311686742 -10.172132770189 0.00470951948002416 -48.1081860748564 
4.85                           0.0174450755276114 -178.992977946535 0.894832743290873 -13.9919712404274 0.894832743290874 -13.9919712404274 0.00653949907962821 -72.7964146547985 
4.9                            0.0191722415997464 -175.66550165468 0.893869192948822 -17.8111732368022 0.893869192948823 -17.8111732368022 0.00881976769771807 -87.4080111944554 
4.95                           0.0210877388935043 -173.611769522592 0.89290336600813 -21.6297054353321 0.892903366008131 -21.6297054353321 0.0112499175122869 -97.3258185101825 
5                              0.0231182516527959 -172.600372285346 0.891936036897388 -25.4475409043407 0.891936036897388 -25.4475409043409 0.0137169856648616 -104.931574672994 
5.05                           0.0252071162444418 -172.417797021801 0.890968034178256 -29.2646596620748 0.890968034178255 -29.2646596620749 0.0161687607130703 -111.26926534792 
5.1                            0.0273105940032067 -172.887730191077 0.890000224732579 -33.0810490978112 0.89000022473258 -33.0810490978112 0.0185752562380088 -116.84449645903 
5.15                           0.0293944378049192 -173.87139366833 0.889033497406488 -36.8967042498662 0.889033497406488 -36.8967042498662 0.020916034455294 -121.926668326369 
5.2                            0.0314312738434132 -175.261618378556 0.888068746438486 -40.7116279369682 0.888068746438486 -40.7116279369684 0.0231754120631914 -126.670966438672 
5.25                           0.0333987468927506 -176.976018062634 0.88710685499614 -44.5258307425169 0.88710685499614 -44.5258307425169 0.0253404153556758 -131.172528455253 
5.3                            0.0352782436757844 -178.951062548529 0.886148679136231 -48.3393308542541 0.88614867913623 -48.3393308542542 0.0273998205025825 -135.492663998422 
5.35                           0.0370540205005084 178.862585131535 0.885195032486912 -52.1521537647299 0.88519503248691 -52.15215376473  0.0293436680205128 -139.672504282628 
5.4                            0.0387126045831356 176.503589425069 0.884246671928062 -55.9643318406053 0.88424667192806 -55.9643318406054 0.031163002415603 -143.740550920718 
5.45                           0.0402423786219234 174.002557717802 0.883304284518579 -59.7759037712376 0.883304284518577 -59.7759037712378 0.0328497265095408 -147.717065853703 
5.5                            0.0416332880892718 171.383976287473 0.88236847588768 -63.5869139090924 0.882368475887679 -63.5869139090924 0.0343965179512118 -151.616733074064 
5.55                           0.042876631292983 168.667648218721 0.881439760272421 -67.3974115162862 0.88143976027242 -67.3974115162863 0.0357967815490464 -155.450329030006 
5.6                            0.0439649059760092 165.869769736657 0.880518552346516 -71.2074499329705 0.880518552346513 -71.2074499329706 0.0370446235553327 -159.225800433295 
5.65                           0.0448916952524156 163.00374463415  0.879605160947129 -75.0170856842931 0.879605160947127 -75.0170856842932 0.0381348402871478 -162.948974536273 
5.7                            0.0456515815928664 160.080808794912 0.8786997847676  -78.8263775433299 0.878699784767599 -78.82637754333  0.0390629166964932 -166.624033574696 
5.75                           0.0462400814396393 157.11051677254  0.877802510045694 -82.6353855676688 0.877802510045693 -82.6353855676689 0.0398250321944146 -170.253832757385 
5.8                            0.0466535955471154 154.101128149326 0.876913310239968 -86.4441701272628 0.876913310239966 -86.4441701272628 0.0404180719206304 -173.840110720794 
5.85                           0.046889371764341 151.059921409411 0.876032047651632 -90.252790940773 0.87603204765163 -90.2527909407731 0.04083964210998 -177.383622934345 
5.9                            0.046945478000899 147.993456143006 0.875158476916474 -94.061306136931 0.875158476916471 -94.0613061369311 0.0410880884475887 179.115783096285 
5.95                           0.046820783746206 144.907799721444 0.87429225026156 -97.8697713564759 0.874292250261558 -97.8697713564759 0.0411625164478808 175.659139736756 
6                              0.0465149488832825 141.808731591755 0.873432924394715 -101.678238909027 0.873432924394712 -101.678238909027 0.0410628130155808 172.248372724385 
6.05                           0.0460284187499536 138.701936696296 0.872579968871542 -105.486756997845 0.872579968871541 -105.486756997845 0.0407896685039334 168.886355196207 
6.1                            0.0453624245287463 135.593199069261 0.871732775765225 -109.295369023868 0.871732775765221 -109.295369023868 0.0403445988202305 165.577005256759 
6.15                           0.0445189881540758 132.488607408117 0.870890670448428 -113.104112978736 0.870890670448427 -113.104112978736 0.0397299674832024 162.325434415304 
6.2                            0.0435009310699539 129.394786563609 0.870052923284664 -116.91302093471 0.870052923284663 -116.91302093471 0.0389490080592771 159.138159412378 
6.25                           0.0423118864157859 126.319172887453 0.869218762018019 -120.722118637589 0.869218762018016 -120.722118637589 0.0380058481606772 156.023396800575 
6.3                            0.0409563146391138 123.270358053264 0.868387384645605 -124.531425206864 0.868387384645603 -124.531425206864 0.0369055372770472 152.991469246687 
6.35                           0.0394395232415598 120.258536779129 0.867557972555883 -128.340952945489 0.867557972555881 -128.340952945489 0.035654082294178 150.055366553445 
6.4                            0.0377676925287265 117.296111366704 0.86672970371833 -132.150707259878 0.86672970371833 -132.150707259878 0.0342584968976571 147.231525501187 
6.45                           0.0359479111456392 114.398534615439 0.865901765715368 -135.960686688964 0.865901765715368 -135.960686688964 0.0327268746290553 144.540925060064 
6.5                            0.0339882283544444 111.585520579213 0.865073368415915 -139.770883039518 0.865073368415914 -139.770883039518 0.0310685009694123 142.010644347813 
6.55                           0.0318977354223458 108.882834887099 0.864243756101139 -143.581281623383 0.864243756101137 -143.581281623383 0.0292940289177845 139.676111517501 
6.6                            0.0296866980373777 106.3250219113   0.863412218866614 -147.391861590848 0.863412218866614 -147.391861590848 0.0274157577396303 137.584401613791 
6.65                           0.0273667792425185 103.959692512896 0.862578103140913 -151.202596353122 0.862578103140914 -151.202596353122 0.0254480807205084 135.799150632789 
6.7                            0.0249514262762502 101.85450214838  0.861740821178422 -155.013454085728 0.861740821178424 -155.013454085728 0.0234082138625253 134.407985303071 
6.75                           0.0224565635630913 100.108948496306 0.860899859403305 -158.824398303695 0.860899859403304 -158.824398303695 0.0213174000725611 133.533868484474 
6.8                            0.0199018820088863 98.875169192372  0.860054785502112 -162.635388498604 0.860054785502114 -162.635388498604 0.0192029316489756 133.352395616894 
6.85                           0.017313351885404 98.3962654892279 0.859205254183749 -166.446380826962 0.859205254183751 -166.446380826962 0.0171015910379963 134.117393770176 
6.9                            0.0147284011713467 99.0799125667974 0.858351011547352 -170.257328838901 0.858351011547354 -170.257328838901 0.0150654994181064 136.195011022497 
6.95                           0.0122072543209113 101.642732268287 0.8574918980206  -174.068184235947 0.857491898020602 -174.068184235946 0.0131716704557401 140.093868022009 
7                              0.00985894372247326 107.37523254722  0.856627849852793 -177.878897646489 0.856627849852793 -177.878897646489 0.0115354185160147 146.433258834328 
7.05                           0.0078985566022712 118.417645245456 0.855758899168231 178.310580592335 0.855758899168233 178.310580592335 0.0103202836529429 155.686073235694 
7.1                            0.00672521308427091 136.70374088253  0.854885172605985 174.500299657444 0.854885172605986 174.500299657444 0.00971687277359029 167.512340378158 
7.15                           0.0067889608025222 158.888859312706 0.854006888591405 170.690307478022 0.854006888591406 170.690307478022 0.00985700851718003 -179.830800124403 
7.2                            0.00806574102924591 176.555229027893 0.853124353302763 166.880649999354 0.853124353302763 166.880649999354 0.0107176457267154 -168.675121054134 
7.25                           0.0100959994589481 -172.972956041095 0.852237955412862 163.071370481938 0.852237955412863 163.071370481938 0.012142184037005 -160.314790177224 
7.3                            0.0124993451276283 -167.604019835794 0.851348159700063 159.262508844757 0.851348159700065 159.262508844757 0.0139467548064776 -154.737794937934 
7.35                           0.0150739881188304 -165.268974745791 0.850455499636073 155.454101060835 0.850455499636075 155.454101060835 0.015985382370137 -151.37244694602 
7.4                            0.0177173005609177 -164.741113483806 0.849560569068568 151.646178612318 0.849560569068568 151.646178612318 0.0181575948616812 -149.622066593888 
7.45                           0.020372150052045 -165.339795067221 0.848664013125623 147.838768011367 0.848664013125624 147.838768011367 0.0203961485268874 -149.024707112587 
7.5                            0.0230027348711818 -166.676907343641 0.847766518475659 144.031890392241 0.847766518475657 144.031890392241 0.0226548889317176 -149.253599669473 
7.55                           0.025583991834084 -168.520558343643 0.846868803081369 140.225561178879 0.846868803081369 140.225561178879 0.0249006308419777 -150.082643336097 
7.6                            0.0280967082651926 -170.725569210972 0.845971605589063 136.41978983136  0.845971605589063 136.41978983136  0.0271082656443603 -151.354634459619 
7.65                           0.0305251178407387 -173.197162673419 0.845075674495755 132.614579673571 0.845075674495755 132.614579673571 0.029257883928471 -152.958524158773 
7.7                            0.0328556475367773 -175.871174179227 0.844181757235792 128.80992780345  0.844181757235792 128.80992780345  0.0313330763087592 -154.814262763771 
7.75                           0.0350762337069312 -178.702779139938 0.843290589326475 125.005825086206 0.843290589326474 125.005825086206 0.0333199172643322 -156.862874774864 
7.8                            0.0371759373376403 178.340200560412 0.842402883708587 121.202256229997 0.842402883708588 121.202256229997 0.0352063499922848 -159.059934800698 
7.85                           0.039144725799128 175.281422282437 0.841519320412809 117.399199942651 0.841519320412808 117.399199942651 0.0369818114564567 -161.371224010255 
7.9                            0.0409733522461765 172.138651103466 0.840640536677077 113.596629167207 0.840640536677073 113.596629167207 0.0386370042542351 -163.769789950636 
7.95                           0.042653295008083 168.925483468319 0.839767117633093 109.794511393228 0.839767117633093 109.794511393228 0.0401637596833997 -166.233919930488 
8                              0.0441767351847868 165.652505872225 0.838899587672635 105.992809040152 0.83889958767263 105.992809040152 0.0415549579238151 -168.745717665257 
8.05                           0.0455365590222526 162.328090009071 0.838038402595887 102.191479908245 0.838038402595885 102.191479908245 0.0428044838459532 -171.290084124286 
8.1                            0.0467263761554518 158.958947346135 0.83718394263566 98.3904776921162 0.837183942635658 98.3904776921164 0.04390720456701 -173.853972788645 
8.15                           0.0477405473089755 155.550520205949 0.836336506441812 94.5897525512088 0.836336506441807 94.5897525512089 0.0448589596569929 -176.425833109802 
8.2                            0.0485742164840559 152.107258846134 0.835496306101151 90.7892517311511 0.83549630610115 90.7892517311512 0.0456565580529955 -178.995183726375 
8.25                           0.0492233435526793 148.632817002505 0.834663463258292 86.988920229443  0.834663463258289 86.9889202294431 0.0462977779477522 178.447725083003 
8.3                            0.0496847338148808 145.130187592391 0.833838006393065 83.1887014985365 0.833838006393061 83.1887014985367 0.0467813675652498 175.912188528725 
8.35                           0.0499560616200244 141.601793290284 0.833019869300252 79.3885381790412 0.833019869300251 79.3885381790413 0.0471070460440224 173.407285120135 
8.4                            0.0500358856993793 138.049542022396 0.832208890807168 75.5883728554963 0.832208890807164 75.5883728554964 0.0472755047463033 170.942091128002 
8.45                           0.0499236544515116 134.474854184252 0.831404815754365 71.7881488269212 0.831404815754362 71.7881488269214 0.0472884102736033 168.52588424791  
8.5                            0.0496197000783026 130.878665994141 0.830607297254366 67.9878108841593 0.830607297254364 67.9878108841594 0.0471484113420697 166.168346708087 
8.55                           0.0491252211804966 127.26141146596  0.829815900232687 64.1873060859085 0.829815900232686 64.1873060859085 0.0468591524838278 163.879776466087 
8.6                            0.0484422541657819 123.622983724971 0.82903010624466 60.3865845252356 0.829030106244658 60.3865845252356 0.0464252983147707 161.671313915138 
8.65                           0.0475736345700742 119.962674541412 0.828249319550593 56.5856000783473 0.828249319550592 56.5856000783474 0.0458525728600036 159.555190351616 
8.7                            0.046522950112926 116.279088744093 0.827472874420661 52.7843111274141 0.827472874420659 52.7843111274141 0.0451478191613218 157.545002953181 
8.75                           0.0452944879749993 112.570027244434 0.82670004362946 48.9826812493178 0.826700043629459 48.9826812493178 0.0443190850934479 155.656018639926 
8.8                            0.0438931793853259 108.83232822955  0.825930048088796 45.180679862338  0.825930048088795 45.180679862338  0.0433757419343998 153.90550511828  
8.85                           0.0423245451445536 105.061649838027 0.825162067555377 41.3782828229967 0.825162067555376 41.3782828229967 0.0423286426405309 152.313080374237 
8.9                            0.0405946462243844 101.252167909267 0.82439525233851 37.5754729655478 0.82439525233851 37.5754729655479 0.0411903266974928 150.901059961974 
8.95                           0.0387100441590754 97.3961467324439 0.823628735921076 33.7722405769412 0.823628735921075 33.7722405769411 0.0399752773369713 149.694761799075 
9                              0.0366777767527149 93.4833146330464 0.822861648395452 29.9685838004999 0.822861648395453 29.9685838004997 0.0387002338985998 148.722696963663 
9.05                           0.0345053559933841 89.499931273691  0.82209313060468 26.1645089620474 0.822093130604681 26.1645089620474 0.0373845556153891 148.016527571353 
9.1                            0.0322007976339798 85.4273531331481 0.821322348868256 22.3600308127757 0.821322348868256 22.3600308127755 0.0360506206636727 147.610605284781 
9.15                           0.0297726969836151 81.2397537655913 0.820548510161493 18.5551726837936 0.820548510161493 18.5551726837934 0.034724222505992 147.540817292603 
9.2                            0.0272303758968158 76.9003628125627 0.81977087760785 14.7499665480209 0.819770877607851 14.7499665480208 0.033434890410875 147.842375437289 
9.25                           0.0245841483029416 72.3549848498965 0.818988786134997 10.9444529858729 0.818988786134998 10.9444529858727 0.0322160100744896 148.54613299292  
9.3                            0.0218458021092677 67.5202370683064 0.818201658137948 7.13868105205685 0.818201658137948 7.13868105205677 0.0311045574254004 149.673096193213 
9.35                           0.0190295176118191 62.2608251376699 0.817409018986598 3.33270804172354 0.817409018986598 3.33270804172346 0.0301402031493701 151.227162117016 
9.4                            0.0161537665238414 56.3421507908353 0.816610512210546 -0.473400844799832 0.816610512210546 -0.473400844799832 0.0293635415367782 153.186906759152 
9.45                           0.0132456965919706 49.3217072034614 0.815805914191455 -4.27957293843789 0.815805914191455 -4.2795729384379 0.0288133127543332 155.498432200777 
9.5                            0.0103527856600448 40.2702247339696 0.814995148192475 -8.08572863763359 0.814995148192475 -8.08572863763351 0.028522777916622 158.072373416794 
9.55                           0.00757969623884758 26.9664337253307 0.814178297555611 -11.8917820420488 0.814178297555611 -11.8917820420487 0.02851583408866 160.78815618252  
9.6                            0.00522593428620088 3.64035852390952 0.813355617901406 -15.6976416801984 0.813355617901406 -15.6976416801979 0.0288038226945642 163.5065776618   
9.65                           0.00418380125647268 -37.9736242171336 0.812527548170941 -19.5032113264393 0.812527548170941 -19.5032113264389 0.0293839973951826 166.088162234389 
9.7                            0.00533394050540626 -78.8681310530534 0.811694720358019 -23.3083909016795 0.811694720358018 -23.3083909016792 0.0302401381568135 168.411715227142 
9.75                           0.00775948656746273 -101.571308829231 0.810857967789227 -27.1130774511565 0.810857967789227 -27.1130774511561 0.0313450475517811 170.387382078751 
9.8                            0.0106046508639912 -114.641026214834 0.81001833182149 -30.9171661916893 0.810018331821488 -30.9171661916888 0.0326640884621172 171.961414560964 
9.85                           0.0135824153627895 -123.617686189487 0.809177066840251 -34.7205516199283 0.809177066840251 -34.7205516199278 0.0341588078598319 173.11350921984  
9.9                            0.0165881782117108 -130.629351751522 0.808335643456597 -38.5231286723468 0.808335643456597 -38.5231286723464 0.0357899712554851 173.849744537139 
9.95                           0.0195708635863401 -136.568553070225 0.807495749817925 -42.3247939270382 0.807495749817925 -42.324793927038 0.0375197360773325 174.194266578144 
10                             0.0224984503356893 -141.859457446742 0.806659290964021 -46.1254468368233 0.806659290964021 -46.1254468368234 0.03931300070848 174.181819639247 
