! Touchstone file exported from HFSS 3D Layout Design 2026.1.0
!        File:           D:/Work/SIM/ADS_AUTO_SIM/projects/RFSOC_RF/TX_Fillter.aedt
!        Generated:      01:32:44 AM Aug 31, 2026
!        Design:         TX_BAND1_MCFIL_R22_CNN016
!        Project:        TX_Fillter
!
# GHz S MA R 50.000000
! Terminal data exported
! Port[1] = Port1
! Port[2] = Port2
14                             0.972031827780284 -166.670490130479 0.00381539214643413 -176.253976961377 0.00381539214643413 -176.253976961377 0.974305558703442 -161.229587103997 
14.05                          0.971505062109585 -167.56259545373 0.00389299878660816 -176.637360794545 0.00389299878660815 -176.637360794544 0.973838676395805 -162.088814341484 
14.1                           0.970961633255991 -168.461284183439 0.00397437002950078 -177.001591552399 0.00397437002950077 -177.001591552399 0.97335714203011 -162.953838212456 
14.15                          0.970400732631448 -169.366766547936 0.00405979973267809 -177.346369574414 0.00405979973267807 -177.346369574414 0.972860231023238 -163.824837607751 
14.2                           0.969821499061442 -170.279263463009 0.00414961006013411 -177.671441648477 0.00414961006013408 -177.671441648476 0.972347170469395 -164.702000842735 
14.25                          0.969223014494834 -171.199007214734 0.0042441545270129 -177.976608733356 0.00424415452701288 -177.976608733356 0.971817135098085 -165.585526279898 
14.3                           0.968604299290491 -172.12624219569 0.00434382139493252 -178.261734380669 0.00434382139493251 -178.261734380669 0.971269242823793 -166.475623001545 
14.35                          0.967964307031517 -173.061225699553 0.00444903746045091 -178.526753859542 0.0044490374604509 -178.526753859541 0.97070254983884 -167.372511537422 
14.4                           0.967301918811269 -174.004228779623 0.00456027228477588 -178.771683973237 0.00456027228477584 -178.771683973237 0.970116045194244 -168.276424652636 
14.45                          0.966615936927687 -174.955537177454 0.00467804291922073 -178.996633540316 0.00467804291922068 -178.996633540316 0.969508644805706 -169.187608201868 
14.5                           0.965905077913728 -175.915452328438 0.00480291918830313 -179.201814493321 0.00480291918830313 -179.201814493321 0.96887918481296 -170.106322056555 
14.55                          0.965167964821413 -176.88429245198 0.004935529600962 -179.387553525716 0.00493552960096194 -179.387553525716 0.968226414210378 -171.032841112487 
14.6                           0.964403118665242 -177.862393734796 0.00507656797035699 -179.5543041931  0.00507656797035696 -179.5543041931  0.967548986654713 -171.96745638619 
14.65                          0.963608948916894 -178.850111616833 0.00522680083439814 -179.702659348125 0.0052268008343981 -179.702659348125 0.96684545134183 -172.91047620942 
14.7                           0.962783742927142 -179.847822190463 0.0053870757828611 -179.833363760852 0.00538707578286106 -179.833363760852 0.966114242827901 -173.862227532281 
14.75                          0.961925654132107 179.144076275122 0.00555833081309526 -179.947326748597 0.00555833081309523 -179.947326748597 0.965353669651344 -174.823057346742 
14.8                           0.96103268887902 178.125161670949 0.00574160485541522 179.95436538691  0.00574160485541519 179.954365386909 0.964561901589216 -175.793334243844 
14.85                          0.960102691680835 177.094986231718 0.00593804963188519 179.870437340303 0.00593804963188515 179.870437340303 0.963736955355216 -176.773450119538 
14.9                           0.959133328678617 176.053074548765 0.00614894303908005 179.79941344438  0.00614894303908004 179.79941344438  0.962876678515084 -177.763822046051 
14.95                          0.958122069054725 174.998921393509 0.00637570427740501 179.739607226413 0.00637570427740503 179.739607226413 0.961978731358011 -178.764894327868 
15                             0.957066164097259 173.931989329919 0.00661991098772271 179.689112133074 0.00661991098772269 179.689112133075 0.961040566418586 -179.777140763948 
15.05                          0.955962623565735 172.851706091761 0.00688331870162718 179.645793666609 0.00688331870162718 179.645793666609 0.960059405291229 179.198932859329 
15.1                           0.95480818894778 171.757461697218 0.00716788296622716 179.607283149291 0.00716788296622716 179.607283149292 0.959032212316343 178.162786016651 
15.15                          0.953599303124769 170.648605269861 0.00747578456957118 179.570973291833 0.00747578456957119 179.570973291833 0.957955664642192 177.113840402084 
15.2                           0.952332075878202 169.524441530833 0.00780945837105718 179.534015683352 0.0078094583710572 179.534015683352 0.956826118076212 176.051476561204 
15.25                          0.951002244565131 168.384226922377 0.00817162633496543 179.493320245636 0.00817162633496544 179.493320245636 0.955639568030523 174.975030156045 
15.3                           0.949605129166164 167.227165317516 0.00856533547785232 179.445556603613 0.00856533547785233 179.445556603613 0.954391604734745 173.883787816105 
15.35                          0.948135580758685 166.052403264544 0.00899400157585397 179.387157219173 0.00899400157585402 179.387157219173 0.953077361729468 172.776982522071 
15.4                           0.946587922284833 164.859024708097 0.00946145964075786 179.314322019695 0.00946145964075789 179.314322019695 0.951691456459268 171.653788461351 
15.45                          0.944955880260994 163.646045120741 0.00997202236986707 179.223024129658 0.00997202236986706 179.223024129658 0.950227921546764 170.51331528593  
15.5                           0.943232505803438 162.412404970203 0.0105305480114088 179.109016187965 0.0105305480114088 179.109016187965 0.948680125038296 169.35460169326  
15.55                          0.941410083011498 161.156962437586 0.0111425193733924 178.967836609561 0.0111425193733924 178.967836609561 0.947040677554292 168.176608239849 
15.6                           0.939480022340153 159.878485291077 0.0118141360503273 178.794815031857 0.0118141360503273 178.794815031857 0.945301323836415 166.978209284837 
15.65                          0.937432736089122 158.575641807955 0.0125524223625015 178.58507607762  0.0125524223625015 178.585076077619 0.943452815638074 165.758183947108 
15.7                           0.935257492511594 157.246990625298 0.0133653540131187 178.333540468388 0.0133653540131187 178.333540468388 0.941484762227811 164.515205944614 
15.75                          0.932942244272242 155.890969387155 0.0142620070896656 178.034922436228 0.0142620070896657 178.034922436228 0.939385453932283 163.247832168717 
15.8                           0.930473426022938 154.505882043987 0.0152527337919905 177.683722304753 0.0152527337919906 177.683722304753 0.937141653093524 161.954489830376 
15.85                          0.927835714667461 153.089884650131 0.0163493701902294 177.274213038637 0.0163493701902294 177.274213038636 0.934738345498711 160.633461999802 
15.9                           0.925011744393155 151.64096949934  0.0175654824359847 176.800419487882 0.0175654824359847 176.800419487882 0.932158443689844 159.282871349013 
15.95                          0.921981766682736 150.156947440647 0.0189166592107484 176.256088970467 0.0189166592107485 176.256088970467 0.92938243148762 157.900661900612 
16                             0.918723243190864 148.635428232699 0.0204208598422361 175.6346517348   0.0204208598422361 175.6346517348   0.926387936458319 156.48457859155  
16.05                          0.915210356465806 147.073798833387 0.0220988295007238 174.92916971086  0.0220988295007238 174.92916971086  0.923149213779266 155.032144486016 
16.1                           0.911413419885286 145.469199597222 0.0239745952502379 174.132271785229 0.0239745952502378 174.132271785229 0.919636520853752 153.540635530402 
16.15                          0.907298163710614 143.818498487493 0.0260760595080544 173.236073611042 0.0260760595080544 173.236073611042 0.915815356899664 152.007052856889 
16.2                           0.902824868694752 142.118263638241 0.0284357106640344 172.232079683142 0.0284357106640344 172.232079683142 0.911645535378089 150.428092843841 
16.25                          0.89794731208516 140.364734975844 0.0310914741675103 171.111065072074 0.0310914741675102 171.111065072074 0.90708004933578 148.8001154838   
16.3                           0.892611483106332 138.553796214856 0.0340877311176723 169.862933830508 0.0340877311176722 169.862933830508 0.902063680365859 147.119112175985 
16.35                          0.886754016264465 136.680949507486 0.0374765348793987 168.476550695995 0.0374765348793986 168.476550695995 0.896531290977184 145.38067498023  
16.4                           0.880300281699429 134.74129655323  0.0413190586725558 166.939542384653 0.0413190586725557 166.939542384653 0.890405728132861 143.579970848401 
16.45                          0.873162063787793 132.729532380621 0.0456873069342784 165.238064633551 0.0456873069342783 165.238064633551 0.883595253816897 141.711726710539 
16.5                           0.86523475536482 130.63996178884  0.0506661178368435 163.356531441415 0.0506661178368433 163.356531441415 0.875990409546621 139.770235045059 
16.55                          0.856394001342034 128.466554345981 0.0563554690094879 161.277304087028 0.0563554690094877 161.277304087028 0.867460221578654 137.749395503416 
16.6                           0.846491753524203 126.203063056476 0.0628730654463861 158.980340162806 0.062873065446386 158.980340162806 0.857847673409182 135.642817535437 
16.65                          0.835351768734762 123.843246109343 0.0703571250058435 156.44280818537  0.0703571250058434 156.44280818537  0.846964432967372 133.444023693767 
16.7                           0.822764731350778 121.381253120332 0.0789691626149706 153.638683159062 0.0789691626149705 153.638683159062 0.834584961263641 131.14681629168  
16.75                          0.808483471062696 118.812270661097 0.088896378842244 150.53835558945  0.0888963788422439 150.538355589449 0.820440412519679 128.745905594293 
16.8                           0.792219278183442 116.133571318857 0.100352939387131 147.108314988937 0.100352939387131 147.108314988937 0.80421327167993 126.237951557056 
16.85                          0.773641245916826 113.346180814025 0.113578937927403 143.311014362035 0.113578937927403 143.311014362035 0.785534633609561 123.623250268506 
16.9                           0.752382098767572 110.45747021602  0.128835123337903 139.105090502777 0.128835123337903 139.105090502777 0.763987648382902 120.908406438278 
16.95                          0.72805630899972 107.485083529018 0.146390562114569 134.446209548478 0.14639056211457 134.446209548478 0.739123209132826 118.110471309063 
17                             0.700299483822266 104.462677429687 0.166499494445323 129.288920779386 0.166499494445323 129.288920779386 0.71049757313679 115.263159123128 
17.05                          0.668841375628962 101.44784678258  0.189363312863962 123.589999722373 0.189363312863962 123.589999722373 0.677745801674816 112.42577722028  
17.1                           0.633626108881784 98.5320258630401 0.215075081567075 117.313757306263 0.215075081567075 117.313757306263 0.640707589869936 109.695135738015 
17.15                          0.594986871390447 95.8504720944467 0.243549241528193 110.43952412891  0.243549241528193 110.43952412891  0.599617968989797 107.219320197253 
17.2                           0.553858895077226 93.5866935569472 0.274449786136254 102.97078094556  0.274449786136254 102.97078094556  0.555354759632964 105.208635879939 
17.25                          0.511963741609495 91.9592027194428 0.307144849857629 94.944108153163  0.307144849857629 94.944108153163  0.509685132577772 103.931655339269 
17.3                           0.471822654142732 91.1717745608132 0.340725818948269 86.4346314861802 0.34072581894827 86.4346314861802 0.465370569131888 103.67317151991  
17.35                          0.436403943400173 91.313790370525  0.374119291381024 77.5540339199772 0.374119291381025 77.5540339199771 0.425902849384737 104.625878194063 
17.4                           0.408298934808516 92.2382909902664 0.406280733852692 68.4388501845344 0.406280733852693 68.4388501845343 0.394665273595518 106.721851591637 
17.45                          0.388670423084932 93.5171359070429 0.436406094017697 59.2308204097938 0.436406094017698 59.2308204097938 0.373640812077007 109.513855266482 
17.5                           0.376633949843085 94.5717741112329 0.464074174832644 50.055319597451  0.464074174832645 50.055319597451  0.362400780677758 112.285503897297 
17.55                          0.369601413082243 94.9155116227996 0.489265696760492 41.0050440864716 0.489265696760493 41.0050440864715 0.358253099207925 114.380826370144 
17.6                           0.364322241615555 94.3111179268914 0.512270595488604 32.1332389844274 0.512270595488605 32.1332389844273 0.357472937061806 115.4669260309   
17.65                          0.357859111833736 92.7594628665471 0.533541313016501 23.4561860745426 0.533541313016502 23.4561860745425 0.356607002454238 115.544100626765 
17.7                           0.348060997105368 90.4027098735689 0.553551720420284 14.961589810703  0.553551720420285 14.9615898107029 0.353140799091481 114.810179369073 
17.75                          0.333606428843066 87.4402495799467 0.572694992557792 6.6190079787424  0.572694992557793 6.6190079787423  0.345579322064484 113.537894674914 
17.8                           0.313860542965622 84.0904711091414 0.591226706832264 -1.61036539813532 0.591226706832265 -1.61036539813541 0.333275355508498 112.017446399863 
17.85                          0.28871823478764 80.592859117499  0.609245202333629 -9.76581234274222 0.60924520233363 -9.76581234274228 0.316241401893009 110.549618762373 
17.9                           0.258505855479267 77.2431593323623 0.626698605873068 -17.8813631215999 0.626698605873068 -17.8813631215999 0.29503831979499 109.466148215821 
17.95                          0.22396379944885 74.4713786588417 0.643410566206513 -25.9820675399154 0.643410566206513 -25.9820675399154 0.270757471096899 109.161450120873 
18                             0.186338719340362 73.0079063199352 0.659119603732683 -34.0820355374877 0.659119603732684 -34.0820355374877 0.24508518211921 110.118801836576 
18.05                          0.147702300627239 74.2614923248621 0.67352784273778 -42.1840748435927 0.67352784273778 -42.1840748435926 0.220413184123064 112.889638124349 
18.1                           0.111902783478828 81.1252615901098 0.686353706061252 -50.2807808867848 0.686353706061253 -50.2807808867848 0.1998709265931  117.926569358832 
18.15                          0.086929736899102 98.2560121930053 0.697381224310507 -58.3568664283409 0.697381224310508 -58.3568664283408 0.186945286000119 125.153939898156 
18.2                           0.0847358786523574 123.592268005399 0.706497753201442 -66.3923732685285 0.706497753201444 -66.3923732685284 0.184279957866169 133.492825825738 
18.25                          0.105735739447895 141.799806202174 0.713713437657352 -74.3662611784573 0.713713437657354 -74.3662611784573 0.192148794926048 141.15063211939  
18.3                           0.13758313040839 149.118723298459 0.719159727800889 -82.2598077928288 0.71915972780089 -82.2598077928287 0.208280765755647 146.755448938874 
18.35                          0.171759773229552 150.145191107418 0.723069228017192 -90.0593265986979 0.723069228017193 -90.0593265986979 0.229318073960074 149.958314750928 
18.4                           0.204490469945363 147.953184303449 0.725743136886356 -97.7579004192631 0.725743136886357 -97.7579004192631 0.252223632182169 151.082287898713 
18.45                          0.234048245269609 144.009264124637 0.727514115371326 -105.356063876738 0.727514115371326 -105.356063876738 0.274782654875357 150.628447844186 
18.5                           0.259597095914916 139.023253744206 0.728711501146723 -112.861569640225 0.728711501146723 -112.861569640225 0.295550266373022 149.039797700785 
18.55                          0.280763407834371 133.357844585502 0.729633332838025 -120.288490065212 0.729633332838025 -120.288490065212 0.313658922790126 146.647645164455 
18.6                           0.297452626240244 127.204513713049 0.730526924831958 -127.655932610848 0.730526924831958 -127.655932610848 0.328644756316339 143.683612530706 
18.65                          0.309756882158527 120.663263753819 0.731577646611922 -134.986610365986 0.731577646611921 -134.986610365986 0.340321420851533 140.304054406421 
18.7                           0.317904137023322 113.781813030144 0.732904431116939 -142.305443983585 0.732904431116938 -142.305443983585 0.348694526085459 136.6109732958   
18.75                          0.322230905579121 106.576572104322 0.734560235478587 -149.638307255456 0.734560235478586 -149.638307255456 0.35390532992366 132.666691885926 
18.8                           0.323170340039077 99.0450237393064 0.736535877241855 -157.010981147132 0.736535877241854 -157.010981147132 0.356194318842967 128.502977078233 
18.85                          0.321250418472439 91.1740996764422 0.73876603786095 -164.448353954382 0.738766037860949 -164.448353954381 0.35587757928823 124.125779258005 
18.9                           0.317097682859318 82.9470910703928 0.741136517605625 -171.973893820297 0.741136517605625 -171.973893820297 0.353330673821627 119.516548814276 
18.95                          0.311441855693444 74.3507436937372 0.743491903605187 -179.609415282041 0.743491903605187 -179.609415282041 0.348976435519343 114.630900924741 
19                             0.305116322924816 65.3836472080483 0.745642638463609 172.62484682268  0.745642638463609 172.624846822681 0.343275183174364 109.395409494856 
19.05                          0.299049436002305 56.0662535998727 0.747370110455131 164.709865371122 0.747370110455131 164.709865371122 0.336718725732777 103.703582001403 
19.1                           0.294242642806731 46.4513419241807 0.748427985847134 156.627205777898 0.748427985847133 156.627205777898 0.329833185617578 97.412637697502  
19.15                          0.29173455009513 36.6313236598771 0.74853782563329 148.358296310094 0.748537825633289 148.358296310094 0.323199339148773 90.3436554550509 
19.2                           0.292555308462811 26.7364076351014 0.747377419340678 139.883814494205 0.747377419340675 139.883814494205 0.317500603020868 82.2891142735179 
19.25                          0.297680710151886 16.9178951630815 0.744561649444797 131.183542544931 0.744561649444793 131.183542544931 0.313603507762519 73.0338315365755 
19.3                           0.307994219806055 7.31646104558192 0.739618536123005 122.237167328386 0.739618536123   122.237167328386 0.312656591882049 62.3966928246399 
19.35                          0.324252935269854 -1.9749033075349 0.731967784092024 113.026579669976 0.731967784092018 113.026579669976 0.316155533257018 50.2968749280101 
19.4                           0.347035376326   -10.9363807596324 0.720915524881993 103.540178758626 0.720915524881987 103.540178758626 0.325875821501181 36.8311489698029 
19.45                          0.37664289023196 -19.6210508839456 0.70568533938563 93.7793698635211 0.705685339385624 93.7793698635213 0.343570981522684 22.3180833249346 
19.5                           0.412949226620084 -28.1271081202319 0.685507318987314 83.7666951088355 0.68550731898731 83.7666951088358 0.370448098039904 7.25356888409804 
19.55                          0.455240802784184 -36.5547856140067 0.659775712624213 73.5538217688429 0.659775712624211 73.5538217688432 0.406633150534272 -7.82271094533916 
19.6                           0.502134450279761 -44.9666580153619 0.628254659680504 63.2263034793747 0.628254659680504 63.2263034793749 0.450922921065084 -22.4659303522485 
19.65                          0.55166126921529 -53.3662322002668 0.59126697215871 52.9015961485069 0.591266972158713 52.901596148507  0.500963134008568 -36.3856873483376 
19.7                           0.601543251144991 -61.6996963341113 0.549772694861889 42.7183798750309 0.549772694861892 42.7183798750306 0.553758173902033 -49.425841004975 
19.75                          0.649587455454933 -69.8756216138151 0.505270475974141 32.8188401345542 0.505270475974145 32.8188401345536 0.606297327950418 -61.517238939208 
19.8                           0.694050112857894 -77.7917652708487 0.459538093162559 23.329223944458  0.459538093162561 23.329223944457  0.656083634547156 -72.6417108933785 
19.85                          0.733840202366842 -85.3583371926002 0.414312880158741 14.3449668020842 0.414312880158741 14.3449668020829 0.701426431676277 -82.8139067938929 
19.9                           0.768524827417601 -92.5116647292802 0.371032350002966 5.92418289240591 0.371032350002964 5.92418289240432 0.741473787477132 -92.0729154974137 
19.95                          0.798191670346097 -99.2177438090273 0.330703437532578 -1.91065650767354 0.330703437532574 -1.91065650767525 0.776060337114167 -100.476252968911 
20                             0.823258925441907 -105.468739946152 0.293897028542963 -9.16578126294578 0.293897028542958 -9.16578126294749 0.805481584424399 -108.093542142895 
20.05                          0.844303104018192 -111.27630338019 0.260821700815559 -15.8673602492302 0.260821700815553 -15.8673602492318 0.830281534031711 -115.000188748888 
20.1                           0.861936115764985 -116.664590946832 0.231426172313056 -22.0533808815863 0.231426172313049 -22.0533808815877 0.851094840031461 -121.272028479888 
20.15                          0.876733088356526 -121.664484260847 0.205496361981607 -27.7673176987963 0.2054963619816  -27.7673176987976 0.868548603632725 -126.981497114897 
20.2                           0.889198741498732 -126.309426994276 0.182731780105476 -33.0537721958172 0.182731780105469 -33.0537721958181 0.88321145408979 -132.195331453147 
20.25                          0.899758061263035 -130.632734921877 0.162798710188981 -37.9557808740345 0.162798710188975 -37.9557808740353 0.895573825793302 -136.973500262375 
20.3                           0.908760014696748 -134.666031835665 0.145363708354848 -42.5133481518387 0.145363708354843 -42.5133481518393 0.906046072596985 -141.3689853436  
20.35                          0.916486972074336 -138.438459518736 0.13011262351075 -46.7627957907701 0.130112623510745 -46.7627957907703 0.914965335081625 -145.428079501002 
20.4                           0.923165674930458 -141.976379519701 0.116759911760401 -50.7366151073353 0.116759911760397 -50.7366151073352 0.922605740848915 -149.190955764162 
20.45                          0.928977683659745 -145.303365672832 0.105051905790543 -54.4636045377951 0.105051905790539 -54.4636045377949 0.929189048443742 -152.69234617213 
20.5                           0.934068459820677 -148.440354575682 0.0947665804465732 -57.9691521486254 0.0947665804465707 -57.9691521486252 0.934894387049509 -155.962233191787 
20.55                          0.938554879310468 -151.405871154234 0.0857114641086271 -61.275577489256 0.0857114641086251 -61.2755774892556 0.939866598725109 -159.026501237691 
20.6                           0.942531271124352 -154.216280168612 0.0777207110011091 -64.4024834949557 0.0777207110011077 -64.4024834949553 0.944223121986226 -161.907523827437 
20.65                          0.946074189946174 -156.886036124948 0.0706519277194959 -67.3670920234673 0.070651927719495 -67.3670920234669 0.948059548404535 -164.624678478088 
20.7                           0.949246152726637 -159.427917360886 0.064383079826856 -70.1845504326245 0.0643830798268554 -70.1845504326242 0.951454050833268 -167.194790541495 
20.75                          0.952098550949473 -161.853237963741 0.0588096412917408 -72.8682046212154 0.0588096412917405 -72.8682046212152 0.954470887662711 -169.632511674619 
20.8                           0.954673917727886 -164.172035676692 0.0538420537796955 -75.4298383740798 0.0538420537796955 -75.4298383740798 0.957163167082581 -171.950640456985 
20.85                          0.957007694637674 -166.393236374845 0.0494035090384224 -77.8798811111287 0.0494035090384226 -77.8798811111287 0.959575026402931 -174.160393001887 
20.9                           0.959129612465489 -168.524796891094 0.0454280392976921 -80.2275871403828 0.0454280392976924 -80.2275871403831 0.961743352389075 -176.271630984153 
20.95                          0.961064774450712 -170.573828462048 0.0418588872880473 -82.4811898092016 0.0418588872880476 -82.4811898092022 0.963699142730838 -178.293053744524 
21                             0.962834510127111 -172.546703162408 0.0386471227188239 -84.648033865947 0.0386471227188242 -84.6480338659477 0.965468587206797 179.767639738228 
21.05                          0.964457051887818 -174.449145589495 0.0357504719497675 -86.7346890796679 0.0357504719497679 -86.7346890796688 0.96707392973098 177.903614069466 
21.1                           0.96594807409789 -176.286311857082 0.0331323298369759 -88.7470478279599 0.0331323298369761 -88.747047827961 0.968534158758639 176.108781696812 
21.15                          0.967321125192816 -178.062857720652 0.0307609260037454 -90.6904090130666 0.0307609260037457 -90.6904090130679 0.969865562841773 174.377704729899 
21.2                           0.968587976070186 -179.782997418079 0.0286086213393507 -92.5695503344555 0.0286086213393508 -92.5695503344568 0.971082179857605 172.705511432786 
21.25                          0.969758902673011 178.549445412862 0.0266513139723192 -94.3887906465701 0.0266513139723194 -94.3887906465715 0.972196162061074 171.087824993136 
21.3                           0.970842916559852 176.930993578447 0.0248679371113508 -96.1520438678863 0.0248679371113509 -96.1520438678878 0.973218074208527 169.520702583353 
21.35                          0.971847954139215 175.358477947484 0.0232400339238591 -97.8628656814577 0.0232400339238592 -97.8628656814593 0.974157138224771 168.000583069458 
21.4                           0.972781032870542 173.829004007915 0.021751397019371 -99.5244940749772 0.0217513970193711 -99.5244940749788 0.97502143497571 166.524242004474 
21.45                          0.973648380918967 172.3399226535   0.0203877621449028 -101.139884606206 0.0203877621449028 -101.139884606207 0.9758180714604  165.088752774547 
21.5                           0.974455545358279 170.88880460125  0.0191365474185778 -102.711741143337 0.0191365474185778 -102.711741143339 0.976553319994162 163.69145295637  
21.55                          0.97520748294358 169.47341793196  0.0179866308673042 -104.242542715608 0.0179866308673041 -104.242542715609 0.977232734599806 162.329915101214 
21.6                           0.975908636644693 168.091708323383 0.0169281602347065 -105.734567013744 0.0169281602347064 -105.734567013745 0.977861248766976 161.001921289866 
21.65                          0.976563000485713 166.741781610442 0.015952390023839 -107.189910999562 0.0159523900238389 -107.189910999564 0.978443257911474 159.705440909233 
21.7                           0.977174174731647 165.421888361404 0.0150515415683047 -108.610509016657 0.0150515415683047 -108.610509016658 0.978982689215014 158.438611189293 
21.75                          0.977745413067019 164.130410204819 0.0142186826135455 -109.998148737356 0.0142186826135455 -109.998148737357 0.979483061011296 157.199720111866 
21.8                           0.978279663098886 162.865847680589 0.0134476234612595 -111.354485233266 0.0134476234612595 -111.354485233266 0.97994753347613 155.987191363107 
21.85                          0.978779601268944 161.626809421124 0.0127328272042719 -112.681053416164 0.0127328272042719 -112.681053416164 0.980378952054229 154.799571051852 
21.9                           0.979247663062063 160.412002495997 0.0120693319735069 -113.97927906156 0.0120693319735069 -113.979279061559 0.980779884795202 153.63551595785  
21.95                          0.979686069240549 159.220223776777 0.0114526834468861 -115.25048859791 0.0114526834468861 -115.250488597909 0.981152654562357 152.49378310896  
22                             0.980096848706369 158.050352198429 0.0108788761434832 -116.495917819375 0.0108788761434833 -116.495917819374 0.981499366909433 151.373220515756 
22.05                          0.980481858490807 156.901341810434 0.0103443022545716 -117.716719658521 0.0103443022545716 -117.71671965852 0.981821934283883 150.272758916631 
22.1                           0.980842801287676 155.772215525038 0.00984570695408911 -118.913971136908 0.00984570695408919 -118.913971136907 0.982122097104379 149.191404407353 
22.15                          0.98118124087815 154.662059482209 0.00938014929094212 -120.088679595603 0.00938014929094222 -120.088679595602 0.98240144216962 148.128231846535 
22.2                           0.981498615739609 153.570017961319 0.00894496789973898 -121.241788293981 0.00894496789973912 -121.24178829398 0.982661418781281 147.082378943421 
22.25                          0.981796251085021 152.495288778474 0.00853775087935027 -122.374181453346 0.00853775087935044 -122.374181453344 0.982903352902918 146.053040947006 
22.3                           0.982075369541567 151.437119116094 0.00815630928370782 -123.486688811713 0.00815630928370798 -123.486688811712 0.983128459626199 145.039465866283 
22.35                          0.982337100645768 150.394801737966 0.00779865374944493 -124.580089747271 0.0077986537494451 -124.580089747269 0.983337854174122 144.040950160607 
22.4                           0.982582489306276 149.367671548689 0.00746297385278648 -125.655117020447 0.00746297385278667 -125.655117020445 0.983532561636131 143.056834847045 
22.45                          0.982812503363582 148.355102461364 0.00714761984554474 -126.712460177932 0.00714761984554494 -126.712460177931 0.98371352560111 142.086501978287 
22.5                           0.983028040357616 147.356504541662 0.00685108646884231 -127.752768656322 0.00685108646884254 -127.75276865632 0.983881615829979 141.129371450549 
22.55                          0.983229933598718 146.371321400126 0.00657199858465736 -128.776654618174 0.00657199858465757 -128.776654618172 0.984037635089302 140.184898105875 
22.6                           0.98341895762447 145.399027807801 0.00630909840062791 -129.784695549042 0.00630909840062814 -129.78469554904 0.984182325250144 139.252569097547 
22.65                          0.983595833113784 144.43912751309  0.00606123409372589 -130.777436640404 0.00606123409372611 -130.777436640402 0.984316372741991 138.3319014911   
22.7                           0.98376123132027 143.491151240238 0.00582734966422014 -131.755392980283 0.00582734966422032 -131.755392980282 0.984440413439227 137.422440076637 
22.75                          0.983915778078859 142.554654851969 0.00560647587346625 -132.719051570643 0.0056064758734664 -132.719051570642 0.984555037047298 136.523755370995 
22.8                           0.984060057432818 141.629217660727 0.00539772213805056 -133.668873188315 0.0053977221380507 -133.668873188313 0.984660791046788 135.635441790746 
22.85                          0.984194614922396 140.714440874633 0.0052002692691496 -134.605294104216 0.00520026926914971 -134.605294104215 0.984758184246061 134.757115979184 
22.9                           0.984319960571268 139.80994616573  0.00501336296004161 -135.528727673876 0.00501336296004169 -135.528727673875 0.984847689986625 133.888415272322 
22.95                          0.984436571602585 138.915374349384 0.00483630793685664 -136.439565810787 0.0048363079368567 -136.439565810787 0.984929749039817 133.02899629055  
23                             0.984544894912647 138.030384164885 0.0046684626981591 -137.338180352837 0.00466846269815909 -137.338180352837 0.985004772228579 132.178533644083 
